Li F
 1.0000000000000000
    43.0000000000000000    0.0000000000000000    0.0000000000000000
    0.0000000000000000    43.0000000000000000    0.0000000000000000
    0.0000000000000000    0.0000000000000000    43.0000000000000000
Li F
 4000 4000
Cartesian
10.8095722612231651	39.1719769342715125	18.6539306702472558
13.2481055549250257	40.0128900624237005	21.4588305642880606
15.2583044849897043	42.5604419019883480	21.2967489335110400
14.5604751301857789	40.2834712998473563	19.6954777057486723
13.0140748597842499	42.3045152961967617	21.5186599933490896
14.2312310757011797	38.4766727563577788	20.5140109847852941
13.7209881040592627	0.8084729976746884	20.5146532917608049
18.0325211174210231	39.4915660143776606	22.8569090074634431
11.4499206622513334	36.9684565813095958	18.9854904765278754
13.6504473671571880	38.4740489315432868	23.2138890805648614
17.1380263079947639	40.4222199562323610	24.7404405552394984
16.4417389903496449	42.1128700661434152	19.3265474873034364
6.6670961926673815	42.2829310568767625	19.1005668626712755
7.1815723489770953	0.5826224117048380	22.9038319527457261
10.9906264154047033	0.6911702918732486	21.9143069256554810
10.2666604449389212	41.7346978993824109	23.2738056326889939
4.4159481013127282	42.5607022421454673	23.2620513718809079
4.9503104533890223	0.1780906548330300	19.9739040668147183
8.2231886690016101	42.2692058717053172	17.5703649872941057
11.6373082991319183	41.5853846775091682	21.7726233381334815
5.5097772400159570	39.5317659678306867	23.5008085679556125
21.4133562092428775	39.8313219673354126	18.5721047123300380
24.5761805259138235	42.1317282798025232	21.5777159722264855
25.2668810901494645	39.0175245706474101	19.7826776107495483
21.0042118541834775	41.6428381189139074	22.7690405662120412
19.4495660069895138	40.3821625803077495	21.6968032266002169
23.0179882278277361	38.2926612262158628	21.8242243304401349
22.0278549636491014	39.4179150946777597	20.3203456214180385
22.7647006599713855	41.6757403078516759	23.7560889594156848
22.0340964825350518	40.0925100917134927	22.2986359182704597
20.7046913794513046	40.6323525713022349	20.4092409223674416
22.4865532210180419	37.8949065958495694	19.6804093622412957
6.8699260982464914	37.7652101276069914	20.9029519050074200
19.4493703428562767	35.7243260116155383	23.3199775950581412
13.2050901583093125	1.0603798343810464	18.5632717130967997
14.2128716948685749	36.9631289788498236	23.3990684529296935
15.0569199551496062	36.8739914542642069	20.2072319710254682
15.4217306643640875	37.7081893301527984	24.7206194137088922
18.4113298659958744	39.7572187553985614	20.5445908351101600
16.1440318175512303	42.9813052968200253	17.3645931764479222
12.9566107326460465	37.9214012710591746	21.8298353360443329
16.1973712603807556	38.8876044571120403	20.1271531007376687
36.8348550869100393	35.2571368166935954	19.9326951068473583
38.1069208304455245	32.5677899332575436	24.0836904146908601
40.0142001382175465	33.0652584112432564	19.8459129432814585
32.2269870880486593	33.3166160809244332	18.3217873167119585
34.5923505336989265	34.1493209933605186	23.7396747375038224
36.0464477544335722	31.8725759340686672	19.3243172062573336
36.5476119493133353	33.9792701276243676	23.8685700670683403
35.0160012929651430	32.3011979949349950	23.5166103568509222
33.8372906690463893	32.5287639079642048	19.6056990408226284
32.0172032486893414	37.0629003915520769	19.3480825506922685
35.5840538452227051	36.2995922182509432	21.5800694339675303
40.1792993877187712	34.7072511841491576	23.9524659134300464
33.7611434916331490	33.6802701740521115	21.6125352581572976
24.5394411841504834	33.7544551953603289	23.8820598999484908
29.9313150126388408	30.7555079346146343	18.1142009719810950
27.2195757659975008	33.6007834452843639	22.7270190363486364
28.0726165810698234	35.3496833378847484	23.4884063611325722
30.9654316680480655	35.4734519403588209	20.4702776930838297
28.6836624725542002	35.0210170574848547	20.5398098108426197
26.1462008940013106	35.6546038375336352	25.3672486637744719
25.3198403297638315	32.8698859282168101	21.6987314736557941
3.4568669813342963	0.7201043184029184	24.8088300555279950
6.4227072347441299	36.8437262176600697	19.3109522471966280
7.9632029266671305	37.4931233357197726	18.2810240369822345
6.8672158614946257	39.0688555616557522	21.8486846039472589
7.0484839412097982	39.0011944560801211	19.4317857860164338
2.7416365804176883	38.9964880060865866	19.4153510859071865
3.9160173044465871	38.5468650185214159	23.2105126742653383
1.4911272988787001	40.7405336287236040	20.0461966283908026
4.8082870006337721	41.4225557618495870	18.7078859495002483
1.9856971368513243	40.6447018832148501	22.3356550545688570
0.9768213245773915	39.8831547936485222	18.7089647948926618
24.1360897510202363	37.4177837278141894	22.9937635374485403
5.0961333202095522	36.2541554130223389	20.1452152209739843
3.2196231300290838	37.3774295469019577	24.2101012261126343
2.3379168760637539	39.4309080593256454	24.1161372719023994
3.8364949255135854	40.3780014384117152	22.8043662108353438
37.8730444506498571	33.3332769543663758	19.3046697859484979
38.2178870513366036	34.7195602723927621	18.4280038866268860
40.1767459518376668	33.6793954056010278	21.8396943161946382
41.4056680277395728	32.1285896857021669	21.1752068941035567
38.9203078827187028	33.8870225346691356	23.6270855593669289
8.6616118091068710	5.4961701834072292	24.8622827621163403
14.4259961016174287	3.3773919966011099	30.2157111254159680
7.9092637535669477	2.1682158653475230	27.0605914625747168
9.1151731060098768	5.1634227340822632	26.9867296352079897
10.0271076553512621	3.6093451278851054	28.2315819438105109
9.0420945261555552	3.2923012507035820	26.5864952126861134
5.9882796280748858	5.5953023658178527	27.3143868582154923
7.9596923177628511	0.4935648966809002	28.2649784586251975
7.6070981703375438	5.3650728438126816	28.3838123195174603
7.9599060731489635	5.1601448049842658	30.3101982161555270
8.2718832972574674	5.9071157846521318	31.8745904203923516
14.8808863190962448	1.9238961774937702	28.9540339725043019
8.3262690212435633	3.4368978083310466	29.1462469579085557
9.5010546168456980	1.7806888632350895	28.0937112256146868
2.3019389988748848	1.5019514452634690	28.4992969514964258
3.6272866597831279	1.5229160134939261	30.0451189358289739
7.5156393827957837	4.4003954731493229	26.4729582961900540
0.1369431149868590	3.3275101335855259	29.2652399468077142
0.1521474451735061	5.4749323610315086	24.2925561817848994
2.4298571273615637	4.7092579985020793	25.6979213068500272
5.3176060616785508	1.3976900621962030	26.6478126184763049
21.6070896264463528	6.6558868178425863	31.2671437218941648
31.0540697422940148	1.0147505547799567	25.3225355141808102
21.9195116291115362	3.7071597862113470	25.2834893071426130
18.9500350789997789	6.3483548869877993	27.9127774174269128
21.8723843105901103	1.6066155952981014	24.8352000194162805
18.4548503811986286	0.2869406254938910	29.0359742627125996
19.7230445742812961	3.5158892766471932	25.2901022307171068
21.8562694642273847	6.1295288771257654	28.2919430399652434
21.2656935786070775	5.1962267796889003	25.5840998073391575
19.3196250706834007	41.3559517353441990	29.6497307254852096
23.0764101730996352	4.7843667441938322	26.8829463402737829
5.1962097339688844	1.8340856186281318	29.6926163636890479
19.8063178329174576	5.0434841015664791	24.8065562543972575
15.1250583488596053	0.4447726928036340	28.2485382460201713
18.1440009067273316	4.9168841238771668	26.2694539827208970
14.2832110326181869	3.2527627241288308	26.1323825123872240
14.5025910442068611	3.9850416934964659	28.2210863857516223
11.7656137984314224	0.2157287818005745	27.3383385889037207
16.0044811351458165	4.1744310680516188	26.8478014672236043
17.0345979037341557	1.0636231167521133	29.2076000004373100
13.4901103051355484	0.0421279336591849	28.5300510750812606
25.9901806345545694	40.8602277612242659	20.3534768983859529
34.8243505750233169	39.5641563649765828	22.2659208862230820
35.6199110491350694	42.7677041994482394	22.7801551572721728
32.8403009456679698	42.9306541629376923	19.4059107944057523
35.8851887366906155	37.4832074295365274	18.5212583293563782
34.0445800623494463	42.5294676936882965	24.2825369764142494
33.9695968454229842	41.5735723776407866	22.6030982872049648
29.8933969501442114	41.6607242336284003	20.9602052666789263
26.0224397521876369	41.9860610695913508	22.3067205450940094
26.4805469105787665	42.2666831714709659	18.6092085644665843
29.8975183565392264	41.8892591920189190	22.7465972334658666
33.8695712247793352	37.7243727238066455	22.0597999730214376
31.7881179777830312	41.5378540676002856	22.2145044789503352
28.2618990765642408	41.2025513706514275	22.3802365625021018
31.2818486297857419	41.1078854557957882	20.0561427782737063
29.6794196509196873	39.7020892839649946	21.5569327494600174
29.0985778527679493	37.3703509040227004	24.1275613871504966
30.5639619053703164	38.0793188817524850	22.4815722909537037
32.3449234150129712	39.2417222993668062	19.5469144504578232
31.1879082140286918	38.8134610573534715	20.5707821822449795
29.8479772941699117	41.6767484238558481	18.5188383977842328
37.7504759469989253	39.4529252404141388	21.9111144204743304
0.9554851200136846	5.3715115043886668	28.5636940235538042
3.3160494820048023	1.6488997871968214	26.9833527549540833
4.3095949101281423	2.2233203748250645	25.5630270237395330
4.9674109055789151	0.1428124417832231	28.5280400487750931
0.0444808411163528	1.3427144078324675	28.1579890399903086
6.2234114592243914	1.5380326648660034	28.4039455972223109
3.3937890655872902	0.2951765647183558	28.8905518662683569
1.4683023965365269	0.6432415361252229	29.8412615586162744
4.3152231374137457	2.6174317851393307	28.0025441179043177
28.3396294904262938	31.8066286212599252	22.8983812689547683
41.1508800939865580	37.4535722482248161	20.5470243121242362
42.3074353756275841	38.0610811701854459	22.5314161886918747
42.7294569009966239	37.5032713884098783	21.0813451492853297
41.4522271725342080	41.0441604038688510	25.6364133699960206
39.0446507362161697	37.7659725445727403	20.9541035672180840
36.9610594322220507	42.4901717541658002	17.8003669154445383
36.2254365710810191	40.9011677049827824	22.9233993394392606
33.8915080725350677	42.4593042936331173	21.2113934682670795
34.3101929745273040	39.1605544785902495	18.8831472309820043
15.4474160787823411	25.5905641002006092	24.5176081281007185
20.6960543451320511	26.2814748963715701	22.9627021686876027
18.4866197387583071	26.8395324875955410	23.2177750342639833
19.7689129978244758	24.9878934091321767	22.9220003517630921
21.5097479873866675	29.5697687587013007	18.2629710140287145
22.6834489082689821	30.1788468158362448	21.5769515793289983
22.2371740820836408	29.8415481127160831	19.7277229656152002
22.7897326102396889	26.1000677575655438	20.8414784435922371
22.3293569371397354	28.2423218897952175	20.1219812349012699
21.5838817983600322	25.4069456008632599	17.9691195081247272
23.8583484890742419	27.0359835632905359	19.5281306895711460
24.1655589351709921	26.9747233165013611	22.4202364214521168
17.2768516063534605	28.3802047972727109	22.8453148893173790
13.6535948163582486	29.8398645374304579	23.4869740575348267
13.1525890810183910	28.1336270524816427	22.7688988380627855
14.2985835495985203	27.2271130014893146	24.4361383967497474
13.3533462214484526	29.3524710094929659	21.5721512155823909
15.3453536859378143	27.6801942355113653	18.7360163281728340
16.8943336277375593	26.5381600572751779	18.6815674962116063
16.1687583633393857	27.3622602921901752	23.4862675980913487
15.2310305940799076	29.1117008995224573	22.3200088025866208
24.6318016305347101	30.0332372802402325	24.0183417868010629
31.4057934526291902	25.1973314329853508	20.9567744476263407
33.8669200241263368	29.2701815154696199	23.0190137885196116
34.5941354201893319	25.3124946871809939	20.9742291256685967
26.2637314409213261	27.1926665822159705	22.0652696728719881
25.4325714568113206	28.3119305344126673	23.8457321574325611
27.6872897344598208	27.7254831868168736	22.5768809891934907
30.2542815562008442	28.4334482331443184	21.9414079395146651
24.7344276652184796	25.7060326247819653	21.1652055606922183
29.1604272858911671	28.5804341601662095	18.3629858584401546
25.6600377890985172	26.4433528692964011	20.0693212598150481
8.0975025721318179	24.0185747121373652	23.0491380319014638
25.5452048567360812	28.9688468236192733	22.2423870768333138
27.3762918971969462	27.0819492897885290	20.6611627103831665
25.5187526958420356	30.6261691087278471	22.0485100578714999
29.1696061510128608	25.9609543148290953	17.6758855706205118
27.4071019186788583	27.9663046966939639	19.3373956418203150
26.0140198629416766	26.9511298825930119	18.5975109619626124
26.9377432493364672	29.0776046373281822	21.2714170568508223
23.8679055870276962	28.1101575151931335	23.6073860148976884
24.0412652402213993	26.0962020510165082	24.3689327143599606
39.9121545853234778	18.2051183937280427	17.8963163731835380
1.8966375725126539	31.8577401917197811	22.1747871671063947
5.3834434879155113	30.4844542221343531	23.0514215508818516
5.5533319759627346	26.4611680580061481	23.6621620114230176
3.5776382746509352	31.1267305404992136	22.3976308628856629
5.9222675906639761	27.6966323791328648	17.5864575641710168
3.4982883373132991	28.2460039146533752	20.0338116622586142
1.5685728986598526	29.8475696789577434	23.1854837722609872
1.0742779816588144	26.7292216631935915	20.9163373886918578
39.0477250444155715	22.3305137307374011	23.8276401562266074
39.7698497192316012	25.3652369268255136	18.7117256222348587
3.3135397410506799	24.9741331125882340	20.3477955532368888
42.5256364529514954	22.7836057646883567	23.8196681069694982
38.3892516509074326	17.0568492097313325	23.1855143556008159
41.3454240139353217	21.6674545924782720	23.4237742665737159
41.7146272105860447	19.3349306520927016	23.1750034166667724
38.3907382182970025	19.1202932843383344	22.9781957707588802
41.6971735092193185	17.7189914544240565	23.1903676268932841
39.1652470715370526	24.3709979754824353	20.2632774946467791
42.7868647478161819	24.2294104469936009	25.2213406504781119
40.1950645522546779	19.1237450079960958	21.8985641984782156
7.5660295087905718	27.6723132168206014	20.7339791972476242
10.5971537825426534	24.8426653704500602	20.7910161686629031
8.5442750588888785	27.9167932756767208	24.1403721378869847
12.2733096968049811	26.8901037679522510	24.2978544659223665
12.0345840941460427	30.2365758712025183	19.8506544162235947
6.9438621832959120	30.9436582264372007	23.4504845235947563
11.9761562763092684	25.3956870459335846	22.6860179406678490
8.4724984821169240	29.9817529381054264	23.1151505886793274
7.4584466152145872	26.0156617223810080	23.5403250125176484
8.8951646193549045	25.8592944543130088	20.2066622893081131
7.9141966912552641	28.0089454551524213	22.6610617698200016
35.0854347908578887	30.7090662571343920	22.0612758912798839
4.6061288828630937	26.5499343777296666	19.8406138196789605
0.9966100496180280	29.1334757697324989	21.7174941278995703
6.4130794215172831	29.1290637028541077	21.9501941221329844
2.0672924097460514	25.6947855909363341	22.0685440409914442
5.1561036048437092	28.5064624858681057	20.2791468723595401
4.2124261030696699	29.1885778331257377	21.8072261562655711
2.3094564670285784	28.0847113104624420	21.6661549324709739
0.3999696803036091	28.3864121552006452	20.1150811576343216
5.2239285890546041	27.5412292982258897	21.6490368162835907
7.6222863498106550	36.7109430319236480	22.5793622575385484
12.1223938515180620	33.1072060299108912	22.3190654428156314
12.7552372645749088	31.8031820914221939	22.9205423251495368
15.2303234421089293	32.3031517910188626	19.8052017400300961
13.5087128675347810	31.1868794695141780	24.6459138492075311
14.5067665084098536	30.4588532350349759	20.6126145029561094
15.0020877034247757	35.5504429166822504	22.0915978955279328
16.5337290205007825	34.9075922449113349	21.3393204406466630
15.8220142447155325	35.8720329814159342	23.4474387203678667
13.3560527711365431	31.5757115349999644	20.9705708051602890
8.9157964462215027	31.9543343954807781	23.6704961882770526
13.2890655295658160	36.7149127534001707	19.9563831404161078
12.0743632027652428	33.5036625209859196	18.1285534957610643
10.9630250804718781	31.8325416534476524	18.5387771362732252
10.2956558352296987	33.7443244499035302	18.6443301749704453
9.5705881980462451	35.7619213960363780	18.4504794704748321
11.0617419000677941	32.6701571871175744	24.2054789372301009
6.3429451013977571	35.2681882484676095	23.0106296680699280
6.2617109399327946	35.8298068020957601	21.2396269506109938
3.0152066957604369	37.0904128850041417	20.8525375420261732
42.0851450178338169	33.2001696145892282	19.1900797761918938
20.5077831098187247	35.6383975382284959	21.3137723078689234
26.8033729705079864	34.6126226652396483	21.6490472453033966
29.3149381838079890	35.7142649611526224	24.5320076088455075
28.5062479857945448	33.4566221526002110	24.2206564589671949
24.2838579106286900	31.7737100873763758	23.1241614844788259
23.0965440100301400	35.9600245906534255	18.9118274722992012
19.4190320830037848	33.9474346644381626	24.5676759433386849
18.8698268671988956	33.5040601976188483	18.0888924234306607
23.8647310243226514	35.1418396390264363	22.2818944147843823
21.8483227404930851	34.1605600704425854	21.6117634758878658
19.2068543773457456	29.6677887286185573	22.7229084142302291
3.0875726386410580	36.4050829814078298	22.8316112225179850
22.0096899525639067	31.7806620452619377	18.7529181969552994
22.8891879646246608	33.3609946271676563	22.6944980600655768
20.9021704965819950	32.7326120629770969	23.1508719580210744
24.0372356849275235	31.9598822474402553	21.1708783937548013
21.6212738845731032	34.9743434755795022	19.6515276671452206
21.2783817300498690	30.7001384077911617	23.1822901918035242
23.8860924579873135	34.2804270637285171	20.9407405120294392
23.6323969383051846	36.5998546316962248	20.8515338459878627
20.7442604220131557	32.4335360683501577	24.7079486339493819
35.8116502271933825	26.4323051145107755	24.0538086413347969
37.2627648726904113	30.2573913899603149	19.0688789740185172
38.9917628400438261	28.5547282414447174	24.1391234750880521
40.8202803450666423	29.9412057929377404	24.0720219848583348
36.8732131881917979	31.1783372913517915	23.0219042417871194
38.1783375046016644	29.2460836564062774	20.4049650808889496
40.0163484897605244	29.0905887084519357	20.9432596332711505
41.7847796368757471	29.7699996738191892	19.6604201897922195
38.0803990485575667	27.7292895790567044	20.8794792787085690
38.6044445436951094	25.9134606332028419	21.5623372460057219
35.0812140898916383	30.7190938561251734	19.9734076087449068
39.9616497681380309	27.2973265604910509	18.5900896561653397
31.5776058081165374	27.0969226390068627	20.9692584227241312
35.1908367374135267	30.6506784970805590	23.7446553895472476
32.4334376999119627	28.0851880551308142	21.9693672668668292
31.8811121858774520	25.8920034905987571	22.6429446013203517
30.2764336805386023	26.5495545296123900	22.2980243883507079
33.2220278210470568	26.4751561439263483	21.1771879462584778
32.9861549325527861	27.8683709903714387	19.6388667501694698
33.8197507789647460	29.3980355484968143	21.0272367525707082
36.0526256539327790	29.2619851252080103	22.7498900080956581
0.7059219517682871	32.1200373075122627	20.4105790603438564
0.2382196447279701	31.2553051604424681	22.0849810691983954
0.8568238616472110	30.2795512962783704	19.7539886456714413
2.6037119302017699	31.6970705477288597	20.3137232861175860
1.5366966955191059	37.0852942823801328	22.5795640961128576
4.5862734823850708	34.5776466775856477	23.4646189139823811
4.5559424706105887	36.4839830907850882	23.5861342973703110
5.0148408319184927	34.3363368411167471	21.5090258592296451
42.2254572082354258	30.5074508854846371	24.6156797917648689
4.1295453384513046	33.2345594228797481	20.0259027602629267
25.1421090517917705	1.0780326137972731	25.2330047705779386
5.4165821491818225	34.8040647652993016	19.4312591552868703
3.6819777823710078	32.6917830293993319	21.9180588035965194
4.3183526600975428	32.5243345811349727	24.0250832456529366
40.3462643490107666	25.9839271145675070	20.4380234216278147
37.1591975916667892	25.9745135732382515	22.3081941632916276
42.5569031100891095	26.2050980051451248	20.6759212320019756
37.9868637510600493	28.5254854832912983	18.6892012182881402
42.0790348424872391	30.2318326068324019	22.3151188766175892
40.3213462747987563	25.9237431456819465	17.3524107612267251
10.7900711688091349	23.8485445809295058	25.4248820042315522
14.4116736188384049	24.0927868609461839	26.8757192331538839
17.7293095078365717	22.8489941045452447	25.0268165154509852
17.6085958141526859	23.4128644806964061	29.8968387271567551
15.7845819901149955	22.4542084874844683	31.1544889914972529
16.0584735816304125	18.8378578876968916	26.5483418056782767
11.7097314677458719	23.0121525778646330	29.7923909254721302
17.1757885608695098	25.2552029777447942	26.0152360205849611
14.9516809205818557	18.1968053576028659	27.6286398019826080
5.7070423888612964	21.1623783277895754	29.4823687210658889
8.5049742618868205	23.9700072264144239	24.7992935388814999
12.2533129989252707	22.5853078511567986	28.4671125083975376
9.9966162354892578	17.5302961740565451	29.3637549919658696
11.8071960061069809	24.5573777484048641	27.2051062338054201
9.0118729366372641	20.8645982252800124	27.6657579517207992
10.1934230602381763	21.8070371888171088	28.4221098844394362
7.9192950180779276	21.1374800399706118	28.9387185381425702
9.9893070618996980	20.6164539758398142	26.2993449844330485
8.2882778664420531	17.9572886666906051	30.7007127753423248
7.8717718858541295	19.8318071727015912	26.9762547754125706
6.5809998414151059	22.2331598596776665	30.3467760078394377
20.8197989810690700	21.5412735325237215	27.9420594245923688
23.0789148415872880	19.0133036649613487	23.7745033481003318
29.2171410031689156	18.3921146926682546	24.5444179785746890
26.9618299868450109	24.7357127253308455	25.6552094319000332
30.3878182773654721	18.8177121469500399	31.2934871474863350
29.6144119445751421	19.4118975678459407	29.1919066129227538
23.0422431176551612	19.1916596858454795	29.2235731253132833
25.3543080532918204	23.2106564492655600	26.2768793642086145
26.8717990843043850	21.5665329896506250	29.6895760700578251
19.4095291900729521	18.9601334204219043	27.6321425063979227
19.3184024977478686	22.6007063010113391	26.6736109395418275
3.5171759567050294	21.7074360731508911	26.5803178394388482
19.2911473268556257	24.6160419785350690	26.7985470540715625
18.0472656223342760	24.1478726393347323	27.7759768893748955
21.5471757043316146	22.5137647074008100	26.9314690604579141
19.1606867018252984	22.2340215282463589	24.4681861105915495
17.4539599126574636	18.1030547552956449	25.9762136298685817
20.9881170443096607	21.9305098432769725	23.1853766436060944
22.8874716827666624	21.2322535881543359	24.1836133770378545
12.2015576985329854	24.5438394805465165	28.7859199005190796
17.7877156853191991	22.7298174920823257	31.4025798581845308
28.3522048245617100	15.2870456489448046	24.3515650174696674
34.4750448402548741	15.1611420115665130	24.3134252225839269
31.4900798302101599	11.4139242466256263	28.9324959685160543
30.1155539556826461	15.6052221416907511	23.3631924952964170
33.2791783298928152	17.8903457720948609	25.1727749809550012
35.1774601605204467	15.9107528073679756	28.0369302155095141
31.1708778861622022	18.3995411125401382	24.4341632985693344
31.2741959300893200	14.0577475733862673	23.8721925328417832
33.2605265122248710	11.5560135539671656	30.4224671611616060
35.1198427763230256	13.3013397131274314	25.5218376160071720
25.3175518798452508	18.8606190326242498	29.4608515503994823
38.6750379317908397	13.7742484252155855	29.2719288847152335
24.2065231496941777	12.6780680984278415	24.8953399851355606
26.8734965189310842	15.8519285886949159	27.9081406195732633
29.9113330290723525	16.5635350113136326	25.1005998285621637
27.3862907745970361	14.6165714403763545	29.7841550115726079
28.5011966253649049	11.8508879161264975	25.9621791848929462
30.3633088545572001	12.1214498283124197	27.1586798235235669
23.6124559181101574	17.1878383903841367	22.3758721680431236
25.2006099167060142	16.9348730656586568	27.1807124395063475
28.3577240636283641	13.0120542688567209	27.0959000857196237
39.5432192248497074	13.4590112325543174	24.1768477506704578
2.2272771580437634	19.1028498152808446	29.0763289172528374
2.3323125579778425	23.3168177108183095	29.8802954107376308
1.5933906136797118	22.7965159491620710	26.2673164730631328
1.0424528532521180	24.4727585607311511	29.1861682897843870
1.8817052258788720	21.0041751018458029	25.4173932505223981
4.0736040544493388	20.3524538301147224	28.5958212002386425
3.8305408344321257	23.3145770346759171	26.2192491013873550
1.9879490900058421	19.4840062383592851	24.0042428528799903
2.9989626416400603	20.3299592463802234	27.3422185959504027
38.8902340901944541	13.1655822649512864	27.7197237981667506
27.7241516152357939	24.4897019971896874	29.1360151370201166
37.0834379062361918	14.5949451627432545	28.1097881581584588
40.9184576274578546	14.5309634851889040	27.4303468604046152
38.8168211178415419	17.4197422953457739	25.3032485891816776
40.6972231794061443	13.1113728038291395	28.8653088278372500
39.9132462100840257	12.9865555405477089	26.0906430356993013
42.9785234876458304	11.5647776746639472	23.9466952041202710
42.2418867117947201	13.5629277340830576	28.8439350580088316
31.2360425330363256	17.3144895713591680	25.6347001671230785
33.2318643002321394	14.3196824883997440	24.9733244648289059
0.7860379252521853	28.2985793362799605	29.8693437409883309
4.8868088689844837	26.0546558072223462	28.7702972187365837
6.5548370221583152	26.7279623844653642	30.1908249011131282
9.8393299720008969	26.7209764494048585	27.1735107086349821
10.0451664770394480	25.2184245669669096	25.8166557499524210
9.4049315236349571	30.9545889504433198	30.0995869960361055
9.8167492325647920	29.7294990953845080	31.0379273182728355
5.8373523606487137	31.6737226593311476	24.9845315407644435
9.5928136973168634	30.5131598451110975	27.4107869555001358
11.8997783226972267	26.6978046030134379	27.8527473701283448
11.0513394217045597	27.0058236088062067	26.0279119812331956
8.4184619582742499	26.4301878243040989	29.0090224548226630
4.6991899479805399	25.0599799046704348	26.6239540496895657
42.7350026959270863	32.1119438938660551	31.1574836377856030
4.4230753580236959	27.0211273435072634	29.9787264359414714
2.5135808753837781	24.0527036583783840	26.8333404634964090
6.4045128687163757	24.9504913645990918	25.0072914177635290
42.6195643638203663	25.2847256074151723	29.0981398764862327
0.5034364705895508	30.7600207798772409	26.4398913592449674
4.3701450047287382	29.1767907385812535	30.4140045636899536
2.9756629215928498	25.3043267670761836	29.3617478402770473
24.5003260858915901	29.2282122126767874	28.5154256298865860
22.7210394169535697	30.1284071733461936	27.3027900429800461
21.3217900029472673	27.6096100430274554	28.9482287757914420
21.6486879006103017	24.4453317002677757	26.6291276451053349
21.0789436973860624	25.7468484834182476	27.4745995441745450
19.4223494156981182	28.5579783198516282	29.0062349515432452
18.7205749198618534	29.8048171129177462	28.2725354118931875
22.7906870638520864	28.5131087170782926	27.6574294359046284
24.4845113626436728	25.7776200151648673	28.9846369306029139
23.3891308615518092	27.5420185356482783	28.8748317553858911
20.7659240949589474	29.2946592596554503	27.4449631371120297
41.3719083718831584	19.7461732735860593	29.9245213914841059
22.6083151217251128	26.3191665608432182	27.9143452691502851
12.6618051845961634	24.7440983138425281	30.5828958012323220
13.1708050251046860	28.3790975501217275	24.8497917448224719
15.3738964038846522	30.2292340158798751	29.5362083696154443
13.0529460023304686	27.3351822375288052	26.2497331436267558
15.8041071731299585	27.5365102107031561	29.9377070377694068
13.3114545910137014	25.8730592915763005	27.7864153364944677
17.3023404343036695	26.8746919144859682	30.8407137900777784
13.4738995195978646	30.0469998922755934	29.3964546576211134
35.9072809638363424	19.7815495234019103	26.4671619034312187
34.0506227016252367	19.3828101014341492	26.6793324773145386
34.6478309898970593	20.9556138627296420	27.6188637166585735
34.4111092995525496	21.3497553592545906	29.6160185858405853
30.6048412204806084	23.0450532616309118	29.4206310787644547
37.4290695488218574	18.5935745567661890	29.9002035755457278
34.6299863805517205	23.5013889280606882	28.8732730576407342
35.3101395449850202	19.4630738257660312	28.4576212441448213
33.6508399288492299	19.9243869376036180	30.1870888434573317
33.4526325441083756	19.5661425921121968	28.2921852663523161
34.7411980205764834	23.8865532910146676	26.9997956340530969
35.5885154268767607	25.4708621845324039	31.7035803635870685
35.7835543847043240	23.8742439882204387	25.1243266429997760
30.0898487692023870	25.1187840409814811	30.2332345565175906
25.2650602021902380	22.3426032417744338	28.4379205317393016
25.7898066694872270	24.2381250703783557	27.5292487312609993
26.1114447619134005	21.3152217830249846	26.0894011420866221
25.5303045911532038	19.1178607477552482	26.4672779065297448
28.6808362937092944	22.7260601879662687	29.2589496344780500
31.0910504101559653	24.4929134991832029	27.5874082350884962
29.3785414536259317	24.9387325640573074	26.2472551825300862
39.6900696324796769	23.1215927787225333	30.7135855053470195
0.3596751847111742	24.5138426392291535	27.0670402154449512
38.6380857981786505	23.9725040376434499	29.7697081046101033
37.5433190486704618	20.8847977083025107	23.9333564556569094
40.1901992473734140	19.1572128902132874	28.1174175983175587
39.7172918947980236	20.4638197890575704	26.4832557322814459
40.5997847749774792	21.8246887066659738	24.8787718169545187
41.8150111890843874	17.8851145742495881	30.6085264957697305
0.1143861773131542	18.4780373727306930	24.6901134993484099
40.6928593210167051	24.8734367364043081	30.4160814983772347
28.3525803261849951	15.0260321184247800	28.3132444439090243
39.1829155877276136	18.5343715831526090	26.4173378599290700
42.5802190528297615	20.9970301992581909	31.0420361985259134
37.7079950961473571	23.1616460456226285	24.3091552315289228
29.6906132517736232	24.5787184933927918	28.5251027791204876
34.5340530411947668	19.1398759581086395	24.8365945100339189
34.0769504215966137	17.7827233721411488	27.3016997335377312
34.3392321041401445	25.6062542746387827	24.7231886391754507
31.3409060568386160	23.9661808974049286	31.6159177732414101
34.6161233010777067	25.6053390678742581	28.0246833393031487
18.3902308444143792	8.2011722384264427	27.2733400992233221
13.7494634388405625	10.7651749437880166	25.1013920762579481
12.9508161306626146	12.8733129414062297	27.9539851491215146
13.7708725883214207	5.9004958896217374	29.3042737281090773
16.2322740567313062	7.3933627413725231	29.6257300202866247
11.2935248545986440	9.4530427291211527	28.4618648605671645
17.9294849765551696	7.8217384614885921	30.6480719923543070
14.9887444249839490	8.5430641938100660	27.3744716244653361
15.5558454313275618	12.1789704387446776	24.6838747116166282
16.5836948636044639	8.6165496508582340	28.0997208040999134
13.1420827857434279	8.9978355385405795	26.4695371561317998
13.9441767731350055	6.1282083752507734	27.7164137046853440
12.1692624205811661	11.8091829329875733	26.0663721398030965
13.1065427113123363	7.9695484105610630	28.2057856783409733
11.0680176144614304	8.4124751943291294	25.4080520130092573
7.1818317530982831	6.5152586061325453	25.9085393549041179
6.1422789715437798	11.8704795380034920	31.9331935608855773
7.9347989075509044	6.8279490456721605	27.7258978925515862
2.7896272355310718	9.9067074033134759	27.6065508265126525
2.2922570872874855	6.9461927714951530	26.1672977779058300
5.6264623018018440	7.3506401537497821	25.9104708827717225
21.6689714701796738	9.4883274783997091	28.4765789611727804
21.7043085495583519	9.5051891330060396	25.7746261359840538
20.1020844928573936	6.5276752818605512	29.5398672833998184
18.6166824850970265	7.9573849139428541	28.9471222872324994
22.5032612501005929	8.2706323044939367	32.1849761957157554
19.8696040526844904	7.0604445662364625	25.0675858966430418
19.5096477762698086	8.3345065820600794	24.0766319808343816
21.2393836230916477	11.2655398756867697	24.2088547225204316
23.0293963155181736	8.9982219512722512	30.1103760098921072
23.6496995748066468	10.0988179603494910	29.2137063603527345
20.1026879273356194	10.5269796720700501	24.6592362737530308
3.6214885818820721	8.3736982288682587	26.5241828001282975
20.5423173642591514	12.1169521525704429	25.9676458498101752
18.0833022057755244	6.0359501655028271	29.8966446310412231
20.2395627582929158	7.7095821563500762	31.2973803073081811
23.8983912519181807	9.2562131406076720	26.2636588719537869
20.4415452789811489	7.6827881239351736	27.9845868346695248
15.5844168934578473	8.9990114941760506	30.6383537288885108
15.0693325287376645	12.5820932687729172	28.7362525534703686
12.8535317550298807	8.9064040959909487	24.9043066854678443
14.7499927429817959	6.9545991495557251	30.9006404177924878
24.9786603425825184	3.5541487432205385	27.6874481708882030
40.0046509124493426	6.8901962762011211	26.8068659580021382
37.5209671585233551	2.8986205542548453	30.3217340924584384
40.4877594333333093	3.5131715251201681	25.8226187661706383
29.8614881204384233	0.9218578013332968	31.2920197647038663
32.5941855293000700	2.3194864490117397	26.3885256266753778
30.8040939036680115	3.5923135258150869	24.4993723094222524
34.3051665276508615	4.5319700144738642	23.9666316016636642
33.8818085799103770	2.5633281268872774	27.3204786021869452
33.1588340580969572	0.8980156572749690	25.7999494234406868
29.3743448319904772	0.0176491140140869	30.0850480739598964
39.2515575056235519	2.0889463230354512	26.3491600118295004
29.5198576816422431	2.3109104530254161	29.4016623401256503
26.9690215074282413	3.5947285009838370	28.3314575108368842
23.7220635240722331	5.0248791548373246	28.3591475306569230
28.4494094947879397	2.8232685675907385	27.3677124090167041
27.2085325350402982	2.0625870232787644	25.7393496084004418
26.0068072071137806	2.3864455504006239	29.2962029422164214
27.9059980637088039	5.2858777990093744	24.8163516656976491
28.9994793123570815	41.9803656044461704	32.0541444497872021
28.8115713808710794	3.4402349410854010	25.5873181556883829
41.3663735997458843	2.2462754727470196	28.7676867849058269
5.5386984493793356	10.5406523342264720	29.3636071862910768
5.9064289937875847	6.9557326030661084	28.6341731306211251
3.7406134949456282	10.4463736018498210	29.8660817351407424
5.9571578791901052	11.9584193160416294	27.5849282698792138
1.8476223976825732	8.8765066922571521	25.4221534761936070
1.2516595547888840	7.4073577613386066	29.4588417886215090
4.7453266281337010	7.1305661948460966	27.5299801914783586
4.5305650037049947	8.9621746294349567	28.3669637352128845
41.9062306339541308	6.5876808807051752	25.5714088075126575
0.6548835224519891	10.8448524311998167	27.5970647227586490
30.7348182681881070	7.4115634468189997	29.7753403925934883
39.6049041788342677	1.0358142330935016	28.2832235857806076
39.5946167603959509	2.4370291449086094	29.8293932849199273
37.9198054820638717	6.9063886749708763	25.8739950529737399
38.3588517474669644	2.7727881880826635	28.3831050429184693
39.2090202356756024	0.1205400889454647	30.1657455275634980
40.7213864255481610	4.7205997801779720	23.9963265339357861
36.3279238131855067	4.0909017695457166	30.4451232597414112
39.0785980914336051	5.9604452527864513	30.1391639619288902
41.0056334636113533	1.6391276656883762	27.0535092827938790
12.7138147141431723	15.1814395782878719	27.8796208263550938
16.3599950563509289	17.1459634109781653	26.8093638345382601
17.3726728471034590	18.3977533730635407	27.6409090309679009
14.9497535595699294	16.2255931643733433	25.8170492359730801
10.9856819420497924	16.5889658876547159	28.4278804762906603
7.8291611908386392	12.1562695371191261	27.0057601642270377
8.6232516961120300	17.0114209823991303	28.6778949630236291
9.5277888120098133	10.9462990247205223	28.0603701475602030
7.3701530303718252	15.9541010252470699	23.9215583229121158
12.1138805462026280	13.3928705501375216	26.6070834303534731
6.2063389637443649	13.0823422811880636	25.8383446320073276
14.0273033301024146	14.1062454316032753	27.6510208893987759
5.1099673874365852	12.6707760390110273	30.3578271868660252
0.7673119170899113	12.4620816168133572	28.6709792554191090
5.5660136891415881	19.0843709323039761	30.3884528577875876
3.5638559147744662	15.4176699156993866	28.5409147000286936
2.9053981099033472	16.3600090610682294	29.7007209398862031
5.1875877880969687	14.8955673654020266	26.9069066774508912
1.0675979351745530	17.6662221168593412	30.2846258164812063
4.6035540889341506	16.5112955576214233	27.9947084292331922
42.1044982363417404	11.3259298741944594	29.0432356809855570
19.3878710310314908	17.7494675676494644	28.4891512447733248
25.5831937224196473	15.0908457411328847	28.5234033336797133
28.3143444549856369	14.9774194548584259	26.6582490726159698
21.3870577451324522	15.3264185984496084	29.9676503048741445
17.0096596297018330	12.8256207772528690	25.0540787600781449
20.7539660026672230	19.0573952960540147	29.5238229367747671
20.9877976364170031	12.7067064106427132	27.3759796786048248
19.8985431874352621	17.3634929222760945	26.5740977903304305
22.5308541747473861	13.1952236317946081	24.2701173964884980
18.6240470338122002	16.6031762873976234	26.8711268113277981
18.8277842727847258	12.9665991364677176	26.4394264706991819
41.7159643650514127	10.8259611445822017	27.0385891976785260
19.2076625096981779	12.4426255418628742	24.3820950423758411
18.4838317375499095	15.1307714911043139	22.8566868852256562
22.5911717802194936	11.5971414472721239	26.0960377803442576
21.7805532298075910	15.3963926556016180	24.5038534776311785
14.4600602263593370	18.3220640229973277	25.6176778989014906
15.3226633618634605	14.1865540491824227	25.7749353135840700
14.9584352165366656	15.4261345563568675	27.4799336166487116
16.3599475455764853	12.3505016070855813	30.5157855576585355
14.6133521991219322	15.5059040817656424	24.0824617203139972
31.2955339560400319	8.4739731723883356	27.8908026068889114
34.8170971778187521	8.9044739794202847	27.0217010644418636
35.7820129545637755	7.6320723614870953	25.3175167450742471
28.8865371693482444	10.2521204485315121	29.8110470443229474
29.6537001773780098	8.7383009098302811	28.3451839878432317
25.6582412202692645	9.5219956331098565	27.8117261761811001
30.0143558070366154	6.4795035546997877	31.2578379887037237
30.1350818534856266	10.3289051328316308	27.9847240815211151
25.5805501674076545	9.4459863386351035	25.9002921670626201
24.8157600043540114	9.2035383276421125	23.7617066291012442
26.6516867200589900	9.9011031990016320	29.8852790538414972
33.2600759374081321	8.5899163284211042	28.5553236994681896
28.0403675689053564	4.8251418605140248	26.8449636028440040
29.8485958439816947	4.3091308045173067	30.7112648505942403
25.0578956560797614	9.7250032101820025	29.8986755782913249
28.1405116172632610	11.3738160084368118	30.6870317001684647
27.0429374038472510	11.2109592232413995	26.3337205263758385
27.4600869263362632	9.7457158053425381	25.6568865897122862
27.4678511773654002	7.5086875797320332	25.0860288410600667
28.3434313784080700	6.9398149024599176	27.7332469275995415
29.4923843377938013	12.1002088242237615	31.2382034610165569
31.3988425320843163	8.0020917269731591	31.7921500020348020
39.4274604926080485	11.2563787046093591	26.9663457311691843
40.4058751475770705	10.0549950279127689	27.7043989738628653
38.9488585861878960	9.2663739138733145	27.9941203640993308
41.3556238325977930	8.0688282346540561	25.4573697240324748
41.6685888923986454	9.6810607156040831	29.1829109882499971
40.5710974875123469	7.9456295183891257	28.6465831291041972
40.8180831870755867	8.0266687509520764	30.3360811053341948
39.8644006294605902	6.4020369496440548	28.9395892549155143
32.8862518320995747	7.2247251709668818	27.0691679724725098
0.1286808445128429	21.9019814333937077	22.1554495599519754
37.6207495395751792	6.1774180750285863	28.3793052635037562
34.5402217769821718	6.1806331357368647	24.6375935568487066
36.2821850397847570	11.4803913286917716	24.8590124318936070
33.3693342618500992	8.2026400229044540	30.9283337450619236
35.7554738827421730	5.9003943357761983	29.4597537466888895
34.6927853754529210	6.4631004663589380	28.0648128891210327
33.4054975414512327	5.9344382647703471	26.2111984981463166
31.7261444249252094	6.8784776651388002	25.1449646251098713
34.4466867274435060	7.6654969357410430	29.8090542076050689
10.7193212570346645	32.7878836155363231	16.1718652700814225
17.2680482175396399	31.2823183729559986	12.0042875021550621
16.3822572014628989	30.7806949654363571	13.2886260976097432
18.1133945501689624	33.7934339730829407	14.6280024892813962
6.2773197789016812	32.2168914317938047	14.3294478618517118
11.6042005546570746	35.3101796152547394	18.9831955355038531
8.3403090094174139	36.4871105940686249	17.0475788885845212
11.0118773880332945	36.1768847432201710	16.0201686636087537
7.6084290345019099	32.6625316649319259	15.8764026304909027
9.7200392044485255	34.3004846658646372	15.5038460463673040
9.2139039628275352	32.8212153412879530	17.3818146680661023
12.5656869183816280	36.9410486929470423	14.5538292334734685
9.6237675142594874	34.7055828375039042	16.9618124472783620
11.4938725615816448	33.1574012209468307	11.9583601037718825
7.8772514394123689	33.7397634160213471	14.1819608769246841
11.6819928803479911	33.2387394577462771	14.2547027040596692
2.4186247327316726	33.4863577155629386	15.2016738546168675
4.7079910760518553	33.3844870333926522	14.9825272379070871
3.1661373874022103	32.8715676980598701	13.9040368277116659
0.1046510017997699	36.1098180112847160	13.6681675034942103
2.8350230388506228	32.0730487141887366	16.2584488859569305
22.1067404449168947	34.0582817598630427	18.4040290757636527
21.6710101955931194	33.1387337372647721	11.9475917074581339
24.7273619421988258	35.1557560690578867	11.4046402267081675
23.0190775067254911	36.3635532242939163	16.6075765973339244
20.1126235508894133	29.9514697832483634	16.4614332526970770
23.3036116424257855	32.4278356195323312	14.7380661572428853
21.0634713184318940	33.0834331975213942	17.3690749597750695
21.4887023101082697	36.0306984438906497	14.7862299845548133
21.9015591939292591	34.0824548841659052	15.6453632333123469
20.5820361747385299	34.5297436715126196	17.5177483893132759
21.7202533106227769	34.7789980496457929	13.6138570874469913
0.7957790232811732	32.4427732859024189	15.3159149406715205
24.5272159230176605	31.5070254809186068	13.2947433306607294
18.2430520868910229	36.0821994375947668	12.8260820078619524
11.5995242002309347	34.3508318997592426	16.1533892408400206
12.1633109700349298	31.6787187999197037	16.9601887615076379
15.6912765647456176	37.3499050206330736	13.2509643294863260
13.6426218155116903	36.7298939150907344	12.6395838287737430
16.6000983678759013	32.3561637346848556	13.8297248780048800
17.0229593672986468	34.1806088043915679	13.0438329596047105
16.9384891511545916	33.6406936270172849	19.3864915932999615
28.4794129983513535	25.7973669978804594	15.8067331500134944
35.4896219217292099	28.4022472144613083	13.9080222549997004
34.1927618324778493	27.1674090379626065	15.1391938895568021
35.9889694897088432	27.9959977775874407	15.7242439040311304
32.1568059198382272	27.2474310434046281	14.5277653026474489
31.7143047661618240	31.0353405751937181	15.6686997716917418
30.9658672110353947	25.4306814472431775	17.8610994477173257
35.9134144130796713	25.9716654045593067	15.4154050490015280
33.5844462549210405	25.2853745844745283	19.2442222590958814
31.2529349521842370	28.8313226421110969	13.5233734615268837
34.0221663458741546	28.6936053198592482	14.4639503626139785
34.9746362996960869	24.5145670629856163	17.6568878186534661
25.0122858390165064	27.5436350067461682	14.6356428535539944
25.8177093674117373	27.4600809192894602	16.6124945128705690
27.7312090150800294	27.2440918511396575	17.4867430568507913
25.4848332332462988	25.7666274587643329	15.7848270888664146
30.4786257354172072	26.9069152211808813	13.2962638012030467
29.8419472095851646	25.7598417707117164	14.1110096153333995
27.1233594266425406	24.9745310119370991	14.9325562386753923
28.6989375616762992	29.9365872580529810	14.1381247154337082
27.9895323927738033	24.5324561405175103	17.0979702677431220
41.6102545089184446	30.1009142748181908	14.3951789208111798
42.1477068394094871	33.0228889600590492	14.3330198971554434
1.0375481632710022	34.0257669076767044	13.9771908676145671
3.4135106525367584	32.4301031936446122	18.4509088751108372
38.1854519580538394	26.1655577955605949	17.2280483650944909
42.5699747165621503	27.0472306035750840	15.2397741949953307
41.6728522695286401	25.4695999972051581	14.1756748753254715
41.1752398547064402	25.2730629441023034	12.4977435787440641
39.3142700793558504	27.7469550919657628	17.1715831378047596
41.9350873817876533	29.5651129950021669	15.9876210699467816
38.7116648591048289	28.3172095410150035	10.8198817238978400
20.0972305584301125	35.0207271841429133	14.8369666424289299
36.8092249457997340	29.3775001178715094	17.0815047583685029
41.6353381859529108	31.0567799726169262	17.6300017632039818
41.4954460855904514	27.5120887517363428	16.8693653062875377
42.2832400383570928	31.2048733600838517	16.0967469898787883
41.7471993437782842	27.0430682085491085	13.3864331885241619
42.0180493446949939	29.4669398911065450	17.6753287189255772
37.2426985004215823	27.1791948439506932	16.3576723118169838
31.3436477728242266	24.8835141664803139	12.5862490402269973
31.9040566647743482	25.2699193112694509	15.7934749619532084
6.8658728491298646	40.7238303747871839	16.2725888654881814
13.3772871468554424	38.9359276186711085	14.7066159460595642
16.3014721043759749	40.7183255171553995	13.2460587942877215
13.0493295795648585	37.1499262924237428	16.0762961594736957
17.2441482606394452	41.9582616918767428	17.8652704053431535
14.0669136989638552	36.6545141224197124	18.1110468547180439
14.2800053306831636	40.6847574027733714	14.3565017786053719
16.7666940939197566	40.1045240574039283	19.2190862352693692
12.8669825661481880	42.2967475536317465	13.6847267909951569
15.4662574930575722	39.8536686027684723	15.0377309777725952
7.2444902546924670	38.5875341106695942	16.7122112390108484
14.4316508100266763	41.6241258800644260	18.0613021162902854
7.2817669050311107	40.9665276936331040	18.2035979620852828
11.5808602169923684	39.9721556822061999	13.8991011551137493
12.0084088824888493	38.7556790852693922	12.9290193150010673
10.8134581067107813	41.4835784707689896	15.2049485273028822
9.8709238863389661	39.3371700980173600	12.6900283657922266
9.9842482461574775	42.6729320875640639	16.5686987291847174
3.2983034049568083	39.2287090872619189	16.5252381112284361
5.4548756957634801	41.6341398389175552	17.2689193913410364
3.0830813300083966	40.9758520970241165	17.6942868152483470
23.0079482838201770	42.0148612175781793	13.7673656784236123
29.4706661971900559	36.5919226236086743	12.6586160336277640
28.5176799943849915	40.7900637339984087	14.7848270534162882
30.1494647939416325	42.2489018076446783	14.1523346388048719
32.3535342352774222	40.6973238447880945	15.5205765445952473
19.4345012950042388	37.0287469326966345	14.4825717589072251
24.0601731493512041	38.2931749999396231	16.2718408931961847
24.3972064598760277	39.9781671492896891	16.7606638226949052
24.1725188005475893	38.9381802600559368	18.5814848218680773
21.4637056780371758	36.7528859809714348	12.4979959591444505
19.5298968481023572	41.1972786099677961	13.1513137627684049
2.7947100238676077	40.1455411103696633	12.4045516406764449
19.7982632718762375	39.3301221909923129	14.5501270715266298
18.7077451204320511	37.9384423262005157	13.3359804469832728
24.0926609942370753	37.3489994463462835	17.7190560869702907
20.5142641430708323	40.2078310146566267	16.5942146238554606
23.7716041421226940	40.0508391429862911	14.7784083401044661
24.3667333255516922	37.3126656253605304	12.0747035637258442
21.2205269730994956	41.4679664124509131	18.3677344087815477
17.2623391187471675	38.8223884204629712	12.3900318721799216
17.3813476841023586	42.9001552296990525	15.7000395619998869
35.4896944672657213	33.0182915305730802	15.3004953028775184
37.3714871505446879	35.8487723592949834	17.7826653165074013
39.6548633082885900	35.7723789918324968	17.6814275769393134
31.5513455047541029	33.1036685906876116	15.9843241801418205
34.6280961823932358	33.6070599928359357	13.6244215933287780
32.2166214184060991	34.2425063279172051	17.0375063134850357
34.3386108900845812	37.1577453783276397	13.5364639118842920
33.2522849638104745	32.6988517978537843	16.0068608699367090
33.7278695500934376	34.1312577606499161	15.3782133233659284
33.9490672096066746	35.0112859537930845	13.1948608746448439
32.2986009850412614	35.6005541043555951	18.7107160583098882
37.6655972079849093	35.6994814219558734	14.8733675610979184
29.1176755795818778	33.7365344610906703	15.5023310682417996
29.6443944153561354	35.1669678440732625	14.2085191067421626
25.1824137807068311	36.2794601640986158	16.1367198776681633
26.9961394039780487	34.8020464384811206	15.9258432916108283
26.5285195907963960	30.9884718025910040	15.4523712702458891
26.4849041148869127	32.6010390070185991	12.5609130716307877
29.5330283025442526	30.5777710369700877	15.8121722124638477
28.1712596554402062	33.7269342678291721	13.7181306028165100
30.3860657320729821	32.7492323650830457	17.0474391508181071
37.4674420461825335	33.6396148302544020	14.9890415762841638
1.7156438498243114	41.5035316807875532	14.6014999822660663
1.8007749298173665	40.1827469455439044	15.9860720947495203
3.6066798326543714	37.6216405606306736	19.4151132598403180
5.5406236944869676	39.7680324722599181	16.0465608411237994
0.5741861646351367	38.2982621042620011	16.1615611417181206
42.8817090353300259	38.0789634068770084	18.1860381831309148
0.9053134691613953	39.3529066373305909	14.9272145142846657
2.1120744681081924	37.8092978249812646	15.1135580082380283
4.2702102556536943	40.8640549401844737	16.3656304273213067
17.8133509199594791	24.5168154888933074	18.0264858269250468
40.0656026607446876	33.6994391943855902	18.3290294121963875
36.8089711641611217	33.8076929894047922	16.8718978488292279
36.5616410411377686	32.7379997922133370	13.5344615156447698
40.9166297245360369	31.7331694481720135	15.6090476930967146
38.2104033301255370	34.3681902261280428	13.6957673373593920
41.1106289195413552	37.2289634481918412	13.2399492488367816
40.9084320444238045	31.8830904894548510	13.4682091591107334
39.6862980412792083	35.7869097177383324	13.2878782785140270
36.3686049319271305	36.5926422149868813	14.4929215893216661
8.2768994072716229	23.2148183282846787	13.0156748152162631
16.9100351813382410	22.7871849928882675	17.6030626041379108
14.6812176464191015	21.5040531303335172	12.8311417476620342
15.0959649775064726	23.5330577538039272	18.2223361280168739
16.1020774981890469	21.6028027282163144	10.9299304225578737
14.1286394770518271	19.7710713598438588	14.1151265950587756
13.5712095393161398	23.4234085950548554	12.9623169333932875
10.0222670152883424	19.5434114798821170	13.0118804586658996
7.5049368619541212	21.8571052513450432	13.7386977904390619
10.1523110516051460	19.6462972131955063	18.3263777302261808
8.2385971034414585	20.1173666135963423	14.1939485016240745
14.8094828924215545	22.4001355717628030	11.4370489670591127
7.3501551251363200	20.5179670031689128	15.5439867331424306
10.6762418852823231	21.6435238772556637	17.3620365221705235
7.0458550304217145	21.4654750311160178	17.5565399092880661
6.6228720457804888	19.5311276611439517	17.1359787478273269
6.9460431667783311	17.7443477355527186	15.8927355467504725
11.5492014600210045	17.9264316436943041	18.4615207034753261
6.6259443100956137	18.8205360147619452	14.4229629914374282
9.8346069066643000	23.5617096619512161	17.4093106769549806
9.1538104123289532	21.3383506859390906	17.9137073793535180
19.1929258167816599	18.4430486905101532	12.6252358260474971
31.0521020201104889	19.7853533806145876	14.8489346510454823
30.3709155730993565	21.3531294864180268	13.5338114413240760
26.6227564195904414	21.7928854516355628	16.2404079540296244
29.7585505255235496	20.3705627516671761	15.5512999024507543
26.7027011037703090	19.2932335877769390	13.3690824187414243
25.5332178616908045	20.1299417104717904	15.0588807725124045
27.1530211462782347	23.3539878139073274	13.4140051525100059
24.8666732694270642	21.8569212395031371	15.7721516140637146
21.6872137056448508	23.4613379433743461	17.8075624619590585
21.5049323692481806	19.6760391931189105	15.6341193536602443
6.1021503688096930	22.5604469011121580	13.0769163791084235
20.3845846230402685	22.3161531344051447	16.8522718627806860
18.6081150271514169	23.2151890738985003	16.4951725222579100
23.6018748051093894	20.4661897220142386	16.0939602618894142
23.5160717865112510	19.2437484443899045	14.9202481515342935
23.6379869407933079	22.4664605750237243	17.2033028192975799
20.2155280588351545	24.2261253417501692	16.3023556725877548
24.9528497896969945	23.3364337859871007	11.6963782599445345
18.7172337444675847	24.4385797296713605	14.7259107094048503
11.6155105131141188	23.0508055244674388	16.4599742444296240
30.7373690817676817	14.4614176704636233	12.8692337159063879
31.9020620209236867	15.3195987996788645	13.7968198693416220
32.8792421819583467	18.9010987524536809	17.8465378371670020
32.6527511727798299	16.1742341103724065	12.5880116781990310
37.8954484527073987	15.0673279271352172	13.2226343465501834
35.4361033323619878	11.5201283161308847	14.8020496765065666
36.1646450663390127	13.5271461957850008	12.5896394431670267
33.7274152839359331	16.1351202653729793	14.6912805120560925
35.1807891607677732	15.9380986057728151	16.5274181790598966
28.6116224438290985	14.0630331700162916	12.2435700128479432
28.2592990160552056	15.4588518996742064	15.7514701275043461
36.7437605100514659	15.3303759359687835	18.1255081311684485
31.7736378095296566	12.5121254227936909	17.0416097459447080
24.9912272860601163	13.8254230230836406	14.3813665652664184
24.9033544868793690	12.4715134820285627	17.2641776952682662
29.6645322646625509	14.7185870237250196	14.0942921109736794
30.1156646184352752	18.1975131014717881	12.0523928596398342
22.9625631701097532	15.6552075922390674	17.6481585582849050
19.9460845419165835	12.5029472052957278	15.0910064294910580
22.9441513618667230	14.7588718409114126	13.9915562981309733
20.7223113089643469	14.4741052003109143	14.4031802460760634
0.8296080400894356	20.0447566758445426	15.8330798081207469
1.4096751783423120	21.0151271009403580	17.5342591667823271
1.2294832077020514	24.0695009764511738	16.5510481108767067
41.2622438847720900	19.5821421793178914	15.4584101791884994
5.0073247061130397	17.4443836190018402	14.8491554979695071
3.7405710891729163	18.7122317337725903	13.7640305076687532
3.6890055052628972	20.0731615507743442	12.4907275036061574
4.7554820455332676	24.0176512874619021	13.1078448786872013
5.7793750163081823	20.3993666664349398	13.1589496304615494
2.6466372254060850	25.0747601635016721	13.4804255349364386
2.2273625346052657	20.8902197128592810	18.9340136866694309
25.3491572279508333	23.8946305055676724	14.8413351353131500
6.8082174689916242	24.4517727330109231	13.3980041706168276
37.7688801088805661	17.2212872423871204	13.2991148937640169
42.8857707116831435	14.8804043492437437	16.7666997559021951
41.0905372694634607	16.2990520684331450	17.2403826831540492
39.1129023971512026	16.5227033786006530	12.8719336029683209
37.3667139889920890	11.6121221206918754	18.0472859452865073
38.0896640829434716	18.5290109746948382	14.8442753067569431
40.6279714243843628	17.9131922375198052	13.9636903256230358
36.9601666488904073	12.3875994663426710	16.2965113185885926
10.4031380916995673	30.5724690680931310	13.4031737429044497
14.6286850694230210	25.8266693569400516	15.3139919694806252
15.3735026290273726	24.4465716566997955	16.9514301171668258
18.0399198819988520	29.5114035875295926	16.3010057921593123
15.5505866216399244	27.4625511429845481	16.8729947660573174
12.6907815875533974	25.4144031758760143	12.5772749661462608
11.0962793154708415	30.7376832177444506	15.5391821994762953
9.7733713926326597	26.2353192187979829	15.4998712505419878
10.0178490481252958	26.5303036054951171	13.8925753053822270
7.1030625937637843	26.3119698195873255	14.2822286532256388
7.5850997473080266	28.3151677139746276	13.1853757312535205
14.6496603673461916	25.7826601760951633	17.5677333758227263
7.2558545588194558	26.7500338056310021	17.5754682836984095
10.6210611812469296	27.9840853549592694	14.2585606495198576
8.4613497328100955	24.9331051357331646	14.2285318183407252
7.3745737433880398	26.8454029849005309	12.5005532167766411
8.7911385969898994	25.2878667744650585	17.3529816372496981
9.3492198454084008	27.2992089599397580	12.3480545463582629
6.7087879334351204	30.4387327936634797	13.2348271098220600
6.4726962327045374	25.4418611897708509	17.0143835195812549
0.5250677284464899	30.3255347916226263	14.8852282062437649
21.3583570439038866	28.8543773812660298	14.8777141505876198
21.5765032359555882	27.2646201269576274	13.2478407725800835
19.3009023358565415	27.8446657344405963	13.3298629774866590
21.2522759414439761	26.9376953377746240	16.3097638206508897
20.1477854627486046	26.5084831818047171	13.0341766549152247
23.6543505885738412	28.1463744462044794	13.5986888136169846
22.7648831845304365	28.2415267957664362	14.9581841388452990
23.2386821370961094	30.2985452570458840	14.4991923606044715
20.9139108631597495	28.5254617094634355	16.4281991518467834
23.7042999856689605	29.8130554894629931	11.9736247470750286
19.2176428351917430	28.9649594511602437	14.9294435187406229
4.1154763875600988	31.7869378886951850	14.8874692327804024
19.0715874288628591	27.7677112103824157	16.4421150310515358
18.3579579946983742	25.7112071345209898	12.7604512074294369
14.1113886809047067	30.6541763309613131	16.2302192736183990
16.2641043910372893	30.7609128403058882	15.4788974700003124
17.8921513472329465	30.4663412557325266	17.1958032168813233
15.2920214047333172	27.8170997024176998	14.9570807555788914
15.4935445306482489	29.1529567421228144	15.8256037497024167
17.1746201635374334	28.1558182717884300	15.6121600740562076
17.0406423809126331	28.3576516839426063	17.7710550772605522
34.2838423378960897	18.9604721383530261	12.6731994058537882
0.3568903488574132	22.0494872698277007	16.0317291869054301
38.8555267473476889	22.2666587887563061	14.7353311075575579
36.6233588898361191	23.9954330566894143	14.6479452519654281
38.8593777085044820	20.5834781110094021	15.4538552212556848
39.2979711134940004	19.8722867625880930	16.7550159786128390
31.5477793575143899	23.9116233029071665	17.5542108172271512
31.4519502437814680	22.4082805752652483	18.1617196361464579
34.0033319482445719	21.4289211975303147	17.5513392757429223
31.1811718691103437	19.1257350362896510	16.8770437469991528
30.9377353760764784	23.6715313454189236	15.1302068389108673
35.7010371549267518	20.5645909004950518	12.1324291774726856
33.3337116004893019	20.0256833793297417	16.7299100815186605
34.1701172601444298	21.3222696425618956	15.1513841986798816
36.5574115151249259	22.0231571408032778	15.1721457207782144
35.2938744436248797	21.5056079922789216	16.3945243733895616
32.5294236689477785	24.6324869193394740	13.8531199509242455
25.4989741528539078	22.6878041337245122	17.9460034544828773
28.9326553085806317	24.2000977783119886	14.4538814658841410
29.6505762214110469	23.1509547283108468	13.4186677968095740
26.2852611563937160	21.3229036575130095	14.2192660789311649
6.1631119543930470	24.6476632273748280	14.9130763916439193
2.1437360892372230	25.4385198941596578	15.6191486345303669
3.4290997541558679	24.0293459665543025	16.7754924203404450
1.3833864302652157	26.6333368109584292	14.7143961786814454
42.7692060475673088	24.2204415032724398	15.8430795177840888
0.5346973715875830	28.7019229895818455	14.5266989018602697
3.9520850110075245	27.4025226802163573	18.1598550820293703
5.4900711322784277	23.1137343883669750	17.4675598963784608
3.6355223018160188	30.8263474738821373	16.9410695764104133
4.3964175749300622	29.1940368786095021	18.3963162600432426
28.8216321061068790	41.5327850243130285	16.4528275658008063
0.3275695886184094	26.0731396406679110	16.5815927530884792
3.3101844573160615	31.0410613337582291	12.7607538814390598
3.2992239656312474	28.7808514642923434	16.9181430037286091
40.1908784479308707	19.9924023372981416	12.0240528201588770
40.0467880545006523	24.1392585364338110	14.1492088930998730
37.7051482087894740	21.6041919220237340	16.3672103198203516
40.6700619537437831	21.0002706662901559	15.4508093030884393
36.6141502752615509	24.8423720475852221	16.6177925986849537
38.3073872119055068	18.5413690193576137	16.4505342939086212
23.4442237367419253	16.5006633097834481	20.8775070072055122
28.4044593662755567	16.7269387923844661	23.5353241820433041
26.4771579108380095	14.1208157477228742	22.0465189694709025
27.8822957833693756	15.1596216663060925	17.9566179170647970
29.0198974374628307	18.1027106514922984	21.8675101289396849
26.3510199754843839	16.8854311544891829	19.6626741435966927
26.2571270692199477	18.0695381504231847	21.2171706910196285
28.4599142388864763	15.8908793853041317	22.2304215377094856
24.5203738164798466	12.7489678440059429	19.5560311824978257
20.3570843514585711	14.7660297795249473	21.8155697578565970
22.0966028860013459	17.5784476863658128	23.5958069249589961
24.6789752821706116	13.0569352376423851	22.9329208849606054
19.7151432228391812	17.8672433501252748	20.7062127959990789
21.4541103631508783	13.3811981161772966	20.3723052251272776
19.4575940620814549	16.0826881725898012	24.7669967447277628
22.3193782560773144	15.6799963415939683	22.6876124717450978
20.2150419243678208	12.6436546143291739	21.2169932551332359
22.8768637336451839	18.5619095471312647	21.1900269975680118
20.9295168510821625	16.2623147244226196	23.3332229745839150
19.8520373539779129	14.6529545087372632	24.1167006027544737
22.6908302593843949	12.3689112791673459	19.5175686284671386
31.7238266754198044	15.5432059376808844	22.3296175614196457
37.1483169824536432	17.1079250173238542	19.6069260959439298
38.2473918015999033	13.8338513881339136	20.8355962526972824
35.4727008914693300	16.0885180029074952	18.7087969769470668
32.2435059959015149	14.0646413971121902	20.6422382759917511
37.0953364834194801	15.0550071748505996	19.7661765618933636
35.8752708274781966	14.2100337604084697	23.2077451607691998
32.8653304857610848	13.2906279246589172	18.9551734093529021
35.7860250723810580	16.1516723570197769	22.7985280225492239
33.4248492198514526	15.3116511475594947	19.4071462000235186
32.1926053417602631	18.9277029567609318	20.3385453881543938
15.2933900119638029	14.4208354563095469	21.4581722015943726
30.2843110190037947	16.6151739413837909	21.7028577066432895
31.3347406265495572	17.7807971986138718	21.2314727992938828
31.4186658881180492	18.1660466391560931	18.8300233218040987
31.4918462038988629	13.4784172240125848	21.9928336229263053
32.9324004521340115	12.2737726728263716	20.8218847457853578
34.5504690349879979	17.7636672186129871	23.2507721230380398
32.0528543711228338	15.4056560248586720	24.4912260131886050
26.9900781262423557	14.9396422830235593	20.0944726789611430
30.9462668680772204	12.2487020982083763	20.4585267356837726
40.7383998827097287	12.1160341172569268	21.0837703896188629
3.9275528143268610	18.2600091041239594	19.7561557452516752
2.7119877415679032	12.8312846035365276	20.7441588269286008
4.8151745326204551	16.1982834325941951	22.6624677946271085
1.4036824371854437	18.1928344521925389	23.3379788325426460
1.3771802161924287	11.8691664535883312	20.6420514318332238
3.9694058348248764	13.9086879505826175	19.5014705152834154
1.7845650908947899	15.5896002179913609	17.4179823719668256
5.9281319359141156	14.6786829824552125	21.4276187429142198
4.7096448449138748	14.1280863228504057	22.5964643596905219
5.1624727378893098	13.9217113385363600	24.9096541250980117
0.3023033219577670	16.5464675183340511	22.4231048327951363
41.2263657902239231	11.2768297938306894	22.8349484476575455
42.5951273021521502	10.8064040770427567	21.3142157199699938
39.3594864925424659	11.3018059124144195	22.3222447091984257
40.9301794673718575	10.4835480654800044	21.4521721919181445
41.3777900383978050	9.1104682062695321	21.9734652223643181
39.9808428631064317	7.7215314178370340	20.8334079181703871
40.6863904037215747	11.9781817518226816	24.1887678058203015
36.9341772198382472	12.0607774030758943	20.3220451257580201
33.7117897420863457	8.4718356676016366	21.1132016138119027
7.1935280155389636	18.3264005044231482	18.0593918962580595
14.0196446435695776	12.5202875764307393	20.9763878639623051
12.6637634078822323	13.9786151659627862	18.7789156576072749
17.7513501143963843	13.9957672174001218	19.6737632132704441
14.1657587454272740	16.3353574192502577	20.6108833232813744
18.7986588614047179	15.6999548180284609	20.8833340128102094
14.0023868063215602	17.4134236892607888	24.3516456252142213
17.1772972640444692	15.5024215476461968	19.3590097819406850
17.0885332435753341	13.2943123693367884	21.3166199290399518
6.9452876561956947	13.1192316060413496	22.0057581918153886
5.4346627678286392	14.3555687254881050	19.2188143107133733
41.3759610270031786	13.8028523616828220	19.7232979960544590
12.5273373377945116	12.3429313857330225	24.5766113316727619
7.4161819382864742	17.8665791052630674	22.6675822680813539
9.2959022457505398	18.4360939743965808	18.8519006073422943
10.7802657984128434	12.7389388554019227	18.6943239783131148
7.7136705434773889	14.1437323090882696	22.9957577559772517
3.8389386713552001	18.0968861623098860	23.5685272155341181
1.4134197999277256	12.1775297877644899	18.8080251278600805
4.9813950560085472	13.0726945687835610	20.9313987257525618
0.6745193159869917	12.7411557021307971	16.6317416984926076
23.1088730205982813	23.0815066283322636	25.6019947895472413
29.8775452531209673	22.4192838549896614	19.8387767506017028
24.6055125106213310	24.4125986160846509	17.3449631162872606
30.0320641182493162	19.4640591938423277	23.0473903664180853
26.2759059596098155	23.6649566474529358	23.5288485200890669
30.2972272227437180	20.6330143342022616	21.0468569163789283
28.4039187733650280	19.8013031964945476	23.4522248175388413
25.3314590268093234	24.5235951611703413	25.2396199864066411
19.1360927552875175	21.5308338777607808	21.2052508302337692
23.2469598419374783	19.0095629213642532	19.2037511900475444
20.9666768870563587	22.2123214226987677	20.9517804304843338
27.7666992782969047	18.1458007227257845	22.8932135591835753
21.3739938106604441	20.0060427974354660	23.6521524707061808
24.3915011681942318	22.8144734247435466	24.4375365652662282
21.3444762182671042	23.6355959798143047	21.6975100681993638
21.7599742106452254	24.2250445024168179	19.8058908694618090
18.6818194803012858	22.8930118846387671	22.9014688442573586
19.8526164323907430	20.0878002368502138	20.7871952127909729
21.1142897545233943	18.6321781164166502	22.7783743299450911
19.5095883366328877	20.3965104209514614	22.6422652205319217
21.4046701467839533	18.9603609558937620	20.6638838191508860
35.9792392508161072	22.8073815286858625	17.2466632870596364
40.4601992591411701	23.9466683370295463	18.3865471273903296
38.5682390155226642	18.8181014725566378	18.6792783232785133
41.6430696921201502	17.6993275934616818	21.5554063790226671
40.1178502610588552	20.5117855885559273	23.2267997459042057
38.6746786765362245	24.5148594684523147	23.2010491667193293
32.9014106307000915	24.0369967969453775	20.4975102181446687
33.1180229460474109	22.7099019197832845	18.9686934570146484
31.3121944219759882	23.6406443861780993	19.3212008163644597
36.4276460207972335	17.3026321924710906	21.7450158112090044
31.4774894854896807	19.3359041778872829	22.3302878078426339
15.9652652650915119	20.3786409799271375	20.4072114264724860
31.3595338473555181	23.7995474951196400	21.6768223485188720
33.1235153805975528	20.4833216405305194	18.8941735654326131
34.6318672752771448	23.8827651360859257	19.6334965009559710
25.4506860775767088	18.7619674222902582	19.3888736839385771
27.6975849603613256	21.8213328716995782	23.0639169269052324
26.6710704906301537	22.9305041470514652	24.7326912196237565
29.6013225864090757	22.3717976763992397	21.7748688436760744
29.5363224404829445	24.1676761594083551	18.6500030856450039
28.3771603611557914	23.2808155220017348	23.1900718067587626
2.6409468438363199	19.5288927287760572	22.5382832879983006
7.7422591941121359	19.3618884165836995	20.9420241712798187
9.9137918072399884	23.1166782524168575	24.0690145874485566
9.0359230187156321	24.2085470915808116	19.2254190620180481
11.4873972974276022	20.7561457549295696	24.5883823538588864
8.1130816992547903	20.1804261964971374	19.0534015476570850
1.5294880050038826	21.7129100356056881	23.7975679035801697
6.2828151326204997	19.6233107440040655	19.4678346798435165
5.3841090458298266	22.3974680531411856	25.2210962467022348
1.2521662933755442	24.6955291070490759	21.3601360101746103
3.5995815497573926	19.9181749579086969	20.5676582279321103
7.2487246867726824	23.0804481374898849	18.6768602708675182
2.5936902681874194	19.2981794753229643	18.7306040356367731
0.9568678656003318	23.7911485571210477	23.2782409579003833
38.2563208474219749	17.8854950210434538	21.3651781158473675
37.4676051371224261	18.7073880332851772	19.9602981811757800
39.4041685086559497	19.3713027351247398	20.2026626156162799
38.8401505220199113	15.6293845583375504	23.7727162109390129
37.7256924932997322	15.5711024206805053	21.7820343520944277
42.5762679006302065	15.1439809656657527	18.2414788506646985
40.1424422212200227	17.9229412479098542	20.0403666278661703
16.2068215889270206	22.0803556275956687	24.2360588790654319
14.8248905986171042	19.7820835457646638	21.4871484257684209
14.2492726465758981	19.4396094544761198	23.6422748019306539
12.8003934306925657	22.4481794295576407	20.5914320671766049
17.0519535123819423	20.2742501825186494	23.5269563489892377
15.8347764744192681	20.5186769990596716	22.5475728954963053
15.8328597316498048	23.8938215847010333	25.2787122249845133
16.9560903133091117	20.9633028166819564	19.1786583095666998
14.1209682529731602	24.6873200141909557	23.0636575584938477
17.6776534914719932	20.2765438838492251	21.3851893915803615
35.3045540585692734	6.5998290812867406	23.3097866838425496
14.6864988901263089	22.8032312296398167	20.0448004415183050
13.9571783572364367	24.0569282291572897	24.8779816292476994
12.1560433979412803	22.6577123164600032	24.2824771131424875
12.9639441567862619	16.7452269119789108	19.5821119551661695
14.9201829269370254	21.9693643264150325	21.3278294281369938
15.7915396526825553	23.7945049739483814	21.7125910000732141
15.5812369246195761	21.6100736524233810	18.5754994891074645
15.2597608332422947	19.3492528322858490	19.2300199548320236
12.4816700008044243	24.4433362070251974	21.4964827706020714
16.8030470057623056	1.1441390810659606	18.3888825139033401
19.5142197103261168	3.0687435703844401	21.7131324355963109
15.9194402768293664	4.6737186810901381	22.4989256265907898
16.6975597336625512	5.3710970051857725	20.4957120481753954
14.1254854443330373	5.6347640152480745	23.4047214182107268
13.6283562665595319	2.6046901917964682	23.9723319347264763
14.3948115805604573	42.3859511973774516	19.8112833039852418
15.9970150016367771	0.6241229330448020	23.2140371341395060
15.2457840836259795	2.5355080712301130	22.8624459118912142
13.4196037304928790	2.5726321188507422	21.8238773037640215
16.7913236032502518	6.4034618156967742	22.2556480894482114
24.6995951250253363	4.3259768466120940	19.5161032363178997
12.5525885241893551	4.1133393099616899	18.6542284903987436
14.3081933191385300	3.3202875892609107	18.5581089193784265
17.5772867737438787	3.0836015489967390	18.2837145900899003
16.5780778201502628	2.8348514605152793	23.6915888567042003
6.7121179885202062	3.7510379906610258	22.3846002467382732
5.8774529311734378	3.6445708141378890	18.8968382558996666
9.2596042869187798	1.3225089108193406	17.3993971760674455
11.1507520873341104	6.2550267737509131	22.2540338854843753
10.6292935259420585	2.9077081158835534	22.5143527711108185
24.6601792637846202	3.3189720594176477	21.4740263161292901
35.9818373937386156	1.1929165586770614	17.9692075728005491
28.9932688076463663	0.5380986251515827	22.1161763388197627
27.9011500121152558	4.6676426826566004	22.5955838264303033
24.9369081537179405	5.0836505076530063	23.0710388352028026
28.1864775396876119	5.1819442254485573	20.6176877806346468
24.0753461504145569	0.1524618525301179	23.3564893205599233
23.6168751892359090	1.8462926552168681	22.4422971811507388
21.9414705636856624	0.7329740213358205	23.0626386545202777
18.1459090120792972	4.9310907621122722	21.4292944941180039
20.3609186403313700	2.2333987310777816	23.7102619427386543
6.6255786780707684	0.5149643769400121	20.8888340855811947
23.5514308515357094	1.7474761062087021	18.5035957309058965
21.7054333572662941	0.7235535959648257	18.5755101007886374
24.5699555238572138	2.2120801810506183	20.2725982248023691
25.1110234827143870	1.9887910109390576	18.0863414242573519
18.7598432385257610	6.0407834027347347	23.5135361656619466
23.2652007966766661	4.7743850238444594	17.7502429914175508
19.5749405417726088	4.0995515009327912	22.9407277680444146
22.7938080527218681	3.6042851828843880	18.7034858499009431
23.4028371564445443	2.2337330390405334	24.3247556730899390
30.9264755426963198	38.8888523062534048	15.7195723899078796
39.9819087186977455	37.3801477113068401	14.7957692694338849
40.4246743359733642	39.6208107868309582	14.0259115750711576
38.5350327977198788	42.0050472737811305	18.0763572634373517
37.9080661423927765	37.5663033899751895	15.6939523493565254
36.4653904719661170	40.2576066723845969	13.8803963633384804
35.2899480275169353	38.3768442146602595	14.0458996956702400
34.8654827246196177	42.8265692473872548	12.4423742629399587
33.4449968289181356	41.5170587411470251	11.1042690824519870
33.2443167114899651	41.0223426575728851	19.1159757126137784
34.9577388591282698	42.3008801026752010	18.1055349811842454
38.3244757323011029	39.7551866358217580	12.8381330691930735
26.9407141463849769	42.7603765571611589	16.4353670735258497
31.8596082994492882	41.7881749731544616	12.7831755459119911
25.2795169477658064	40.7346546793577389	18.5615514663048558
24.3327613867705530	41.3674087376804636	13.1349829964874036
29.4571538997876949	38.7620224763659493	14.0874565667845246
29.2857303700786851	42.9636646739228709	17.0447798188593183
28.0916434667428803	39.2407935559161984	13.2156756100300328
27.3618682368262398	38.3811132934051571	11.6064589809184326
28.8689751981636533	39.4182577862835544	15.5222070377288848
1.7117955686329618	0.9494742748375504	18.8222690135734467
8.6769187454817391	4.0794035583449482	23.3368880722977856
10.2513227862576386	4.2370440717021811	23.5149232761177664
5.8067460944717952	1.7252655523694984	22.3714710958900547
8.6842854324696948	0.3843407406005293	22.1388614553393772
12.9211167788525092	2.5211725856735652	19.8385926488265731
12.1451047662247262	4.4061696240647299	22.1196374734097283
9.1230111305057111	0.1635730883182770	24.1291044663805039
42.8177308265264571	42.8851809331964233	23.8268407833040818
2.2329543041559194	4.7885348017627800	23.6685410104772878
5.7281852082771261	2.4820921402066118	20.9019963444923960
34.5541421210180957	2.2543984561173951	20.6267228897114485
3.3751918744928191	42.9225410005771053	19.4969649711136057
3.3165563955574253	1.8780842108773632	19.7287573287565650
3.5708454519620960	3.8383360610703976	24.0698045051456013
0.0646906475334582	4.1114287437014116	20.1432203971312589
40.6168615790988667	41.9442446278968291	14.5724342130284459
39.0857567514015543	38.6343720509771202	15.3518399703421160
41.6572788988718727	0.2282577490524185	15.9189195836080781
42.4523108758802863	40.1324078184370308	19.1542685981330898
37.4922016991316696	39.0310769098139332	14.1802653852852014
12.7226043487953557	6.6215990636536501	22.1316671055190533
23.0430794406279489	12.0217577576041439	23.2772062575521410
18.5138691204059995	6.3250788482555205	19.7969906323143832
20.0908849231940430	9.6743441615022210	22.8096345280240094
20.9218810031929259	7.7201601762843959	22.6668962373095155
18.0645190384981440	9.5048537542183453	22.6806570050038658
21.4564944752637139	11.0138175321169953	20.0847417221321614
19.4522729588774048	11.2330710844305983	22.8097103061407154
20.4718119896106394	7.1431713839864539	20.5638166037229375
23.8470008440977210	3.9062534884470321	23.2147102138182326
18.6491738724740586	10.9403541220101754	21.4666093049910423
23.3680290693345114	10.8959906774547886	20.1784699003944326
16.9577663141175137	10.1125354353125463	21.6056969383019464
18.1830137234330174	7.5771505803898300	23.3610856218868896
17.4748434207784342	11.3571615427971011	23.5725981819333690
16.2384390667630107	8.5246644012016510	21.7865823396635356
14.9867094635533373	6.6941256181897852	22.4011315659357280
17.4958963327821628	11.7855023693428240	19.9210813473765924
14.9133319898761521	10.4403640766177350	21.3056055535644617
13.3959122830374362	7.1104719229787099	23.8336288123489553
7.3420981880815024	10.8802325459087950	18.9499472512409461
32.6227080490523562	6.8539314758871805	20.6093828499512526
34.9428912718580804	11.7540324036817729	21.5134907659821728
32.4939309827306175	8.4478251201810828	19.3634105395356535
37.3831381833333936	10.5666952797085845	23.1623794789255300
34.6542025392361879	8.9968331071968635	19.9332833517817960
32.2437746332647990	11.7919953613521606	18.9372356519960974
36.7914599872010371	12.5520896317299329	21.8735487954938286
32.3374636774752133	7.3126488835117875	18.3103199822288651
23.7220722996706641	11.8934362945718011	21.4453961795073695
30.0604045320029165	11.7162771211072219	19.2094911042794720
28.6476708300578942	12.5033217829861485	20.6073340383033887
9.8444667488038515	11.8822983840276066	20.4270005496477580
30.0511849364420129	7.1666795858127506	23.5816169926490957
28.5855718994031989	8.6570209357020502	22.7498590674379244
29.9202485981414625	5.3899499753405253	19.0854526562260851
26.7301520402528290	5.8504449037687198	23.8400763086523106
25.2354698879547783	7.0849957458006632	23.0547487292617461
28.1291157997732100	10.6883784254803906	21.7601432923175047
24.9140123755486798	10.9258307785347597	22.1355304378762696
21.7325249214882916	11.4952947777919299	21.6105973935494831
23.8804451396431539	9.6775568105899108	21.9813910939071526
32.2594838829118302	42.7023391721452370	21.1393148169366860
40.1671896823098962	4.1889155766707180	19.7453969271280307
41.8226853734488060	4.8501425339665243	21.9545391123213598
38.1337648434880023	41.5408504613336405	19.6083382242052231
40.8186881716196623	42.7977601211754504	24.4087001465477798
40.4124815785432361	2.3783263429232253	21.1808831857627951
40.7831801978229507	5.5968946509172497	18.0744237545659310
37.9282517697931567	4.9704902813970380	17.8835695869613645
37.2772755064641430	42.9889132810043861	23.1805692479954430
38.8070714266136747	0.9703042639161067	24.5595369119495643
33.0404386256067255	1.2582646640895616	21.3449375607167759
35.9813041964692957	1.4887292107876351	21.7267017832487959
34.4598273009094029	2.6835556085788443	22.5315581880942020
35.3238232694691092	4.1216433548544709	19.5562184174044162
35.7685516793620621	3.0163698115843895	23.5210729840441672
29.7254326787028056	4.9623406970514088	21.1696001847406912
37.6265270633856659	2.3142532248322394	24.8141915941979185
36.8272488460428136	1.5418508554860662	23.3450726495985883
35.8787768626471433	2.5294671272960421	19.6760354876808741
36.9846789328343633	3.1611340756371433	18.6149064862576239
31.4012780725643879	4.3283501618575775	22.4857486975963177
5.4651581340687265	13.0277402910653013	23.5240920394750361
11.7184097010464221	8.0528193898306437	23.4601272912991021
8.7092407327017174	12.5659193217516041	19.0055325428324799
8.1661561895964319	12.0315620068756903	21.9764278358769545
5.5945587536244270	7.0925654484419205	22.7458054093188551
5.9279890624693845	11.4878043733831348	21.4186037309715473
7.7659866700426807	7.6593455466916920	25.4393723864041590
4.4635089417183442	7.7446468479543773	21.7519544447384803
1.8129070517353010	10.4477051008098485	23.7035557929018736
2.4421325059747603	9.7471831511680733	21.5898244522220750
29.7899389380098860	26.1653902640449161	27.5474505105195000
1.7059078678006043	10.0620968796938026	19.6981944685394943
3.7696684423692308	9.4845937448877251	20.2935871402959584
5.2797044056235922	9.2193970253618520	21.7064008259870747
3.9266554661999202	5.6402238155850917	22.5467020856560048
5.4695887275566415	10.6245588511725053	20.2097589343655670
5.1994837135824481	10.4920725692582124	18.6646563146912428
4.9232207259907472	12.1813526478692253	19.3098568553357843
1.5487564381338628	11.3703644717184602	22.3094756453799086
41.3442420845456837	0.8741985761040100	22.7022132425177574
24.7460703901829788	8.3049989979019418	41.7333714225963348
31.5009365403370225	8.9721021302850037	38.5735097005769703
32.6847567563129289	10.0331034102236476	41.6303655671459509
27.7631711425673657	7.6464253795012640	38.2144184219268013
29.0706543852191324	10.7382163406345459	42.8611566336141365
25.5044375963050420	6.9108224816858721	41.3345816112388889
30.4429915507206239	12.0596770339172217	41.6771152744973890
26.6220663183402557	9.2733466750519309	37.3136168160620798
29.6523714137287264	7.5595716317529176	38.6630041529387398
26.9971358428407733	7.5316738026643018	41.2410827508663616
25.5273934354791869	8.2150813013729280	37.9374455219770113
34.6407605412488380	7.5216753990519285	42.8804772809618129
18.6595273246359348	9.8027326195171103	42.0870195297290124
21.2771524793328588	7.7609080998811120	38.3522316666778522
19.5078327808214809	6.7715293367184062	36.9472439356864157
22.7889524126196541	9.2610975089378016	42.3685834365574436
19.1171355129229958	11.2480719691561752	40.4820774390054368
23.2930866346656877	10.0175765917769919	38.8612387943996538
20.2322341034235862	9.4357126334502013	39.5398657964003704
20.6162564821426280	9.4252222866330726	0.2306154024927452
23.5202151160779493	7.3736248976785213	37.5949546919751612
39.6539967807588312	11.3808704405663139	40.4056702163551691
40.8510737182835797	11.1174117376767061	38.7251862022234121
37.2589746017651606	7.9423283539238918	38.2587419572894234
42.1831942767316690	11.9451365047116944	0.0367362615112767
42.2724167189388922	7.2873364795793334	37.8158914589830317
35.8877049344481449	10.2938750490277204	36.8268411235846500
42.6534196739267415	10.3631040906030218	37.7693296638884206
37.8095384749254180	8.9422204548552813	41.1437962965516704
38.1405231046028277	11.9433221014490591	41.8784111090015116
40.0392305157186996	10.9526347994201050	42.8990676742312189
39.3766912174229304	8.7363824928757410	42.7731935726998813
15.4128476075279472	9.5959594047879584	42.1581832774244063
41.7142726136287862	9.1716816781059087	38.9207974674039079
36.0241695905151289	8.8290378366887836	39.7743285490646699
35.1013457393643904	9.5105125920536544	0.2110820597057080
35.5916792119919450	8.7478204636041124	41.3704395042123849
35.8304673977487909	11.4085854647302742	41.9471673168934061
37.3368694679963298	6.3126380251912009	39.8006537921292320
32.2450371961927971	9.9032497757854685	40.1214627303199123
33.8219623207134887	8.3721145403675727	40.4911931977934714
32.5908717080075832	11.4284871921372719	0.1622625006973474
6.4400707137031379	7.0040297158316882	40.8833552402804088
5.5699915410200358	12.1654628007432724	39.0747451991505130
7.8094365950893616	6.3257676644535357	40.1480566989278529
4.3809908492560190	7.3485745918879548	41.5510645237877867
5.3976528058387023	8.5412228481070240	40.1798799415259964
5.3191867887395228	11.5460976776417308	40.8703773216469131
2.3282406714896342	10.6498514845216157	40.8057021377298668
3.6134989823091748	10.1033148367224346	37.8002557469345462
3.8272858034448283	7.4776819171740980	39.7096489586603525
0.8142171950928679	10.4355748745475623	42.4288294842814508
6.2476501238333659	10.2526475173853662	40.3551913561638287
7.2590319483279480	8.4630807035888136	39.3371902615329674
5.4655773437071566	10.0583149112856116	42.5012765342529590
1.5227578308979270	9.2358207199441562	40.6416884982046369
0.5248567289206201	8.6155355666926479	38.6567581734180976
1.7454283270780007	9.9708550384135144	38.6925344231152408
38.6264898401665562	4.8497023365697203	1.0186435324283956
0.0251402118304053	1.6816617873786841	37.6817167052179656
39.2718949776734192	1.6470127470373264	41.7170230128986788
42.7362949311124112	1.8333585365881708	42.5692934448008629
1.1499525572530802	1.2227493341105451	39.1687439104475672
9.3067688216141669	9.3785471696393206	42.9384914674282427
14.5145354234757580	9.5801223643185160	40.0716619150962785
17.3313912027457881	8.0441908886224258	41.0892237500239688
10.9439942896876179	11.4128430381038388	42.3469757850032380
16.2734120750738924	6.4351191117465421	40.1473281932030943
17.7697127361981018	9.5790519762560464	40.7113866757776535
16.8441787862310370	8.0619170866333079	39.1132954774470463
13.2771035660954624	6.8210910831784384	41.1764066265885447
13.4653660750968687	8.0218563012396853	39.1639476647335982
11.7223919920916178	7.1366470986215189	38.0816400788879506
7.2385478404332435	8.6993916253422423	37.0246044020818417
38.9841419111689760	11.7939562027121010	38.6628936562313896
10.5762141110725043	5.4167956390525456	37.9383949292952067
7.7778393847793756	7.1366210677833530	38.5152946959745890
9.8615868724041178	11.5541899166763358	36.5929324882765101
11.5080195086698271	9.4065580910859570	0.1547098905962568
7.7238837459250202	6.4131479901142852	42.4892282447553953
8.2357736036075195	10.5871605287955095	41.9876856856234326
8.2718342360690293	10.3504178736504535	37.6731197273839413
8.0566992171804319	8.2857345894670829	41.8072092112515108
9.9769149506268473	7.8913508509364751	0.3255544358677139
27.3568566192047236	15.6448232716013056	0.9151594693578228
28.8811794939049875	12.6189341292827528	41.6027659258363158
29.6292620909003688	14.2554506791595959	41.0144185107410166
25.9851971449639443	15.9659814498609833	42.1827206061336568
29.4509822829949393	16.3370279093378734	41.3175723914874311
25.8670467580458947	14.7466922094828163	38.3262639920086343
27.2163974482722217	18.2569253525050392	38.6913063624590663
24.4932961385167580	10.1081418264425302	37.3793591535040832
29.0376271370659786	14.6017772103042400	42.7949689145117489
25.3598439120225372	14.3264661510282991	36.8437409948803563
27.4288134779475179	17.4779488111501458	41.5177021393550234
31.9529895356242370	14.0324609160251672	41.2204982427141573
31.1562572377266100	14.6988859531149387	39.4811688667827099
29.8836067554834450	13.4476907439749667	39.6669965216463609
26.1495052201629257	17.1277064127097560	0.3782446232225538
27.3608105287988685	14.3435206579195427	42.2133266908621323
23.6726375701319753	14.4760680638663022	38.4277148209336517
23.7324000644920758	15.5877014038229511	42.6906981365525908
21.7855448240116623	14.9915490800318807	39.6804472607062522
25.0787232019729736	11.8713690857189320	42.6995385527491749
19.7964424678081343	13.1279294051264941	37.2178155026135187
33.4246090940902292	18.2402834912021881	39.8117756617559806
38.1392497423631625	15.0005678205246102	39.3249334699633408
41.6364759230731067	18.9136274420583561	41.4344909143616746
37.6389299617817628	16.6856360680326361	40.5964453436143771
42.1684893206827880	15.1796070701003813	40.7959984605814938
0.3202974604369925	15.1193232999599321	41.8980437204280562
42.0296792624583873	15.8521508998267091	38.5698932710126243
38.2705269105751995	18.5000149866936567	38.0627472890754888
33.6103225031743378	16.6556630691920269	39.6257877815934521
34.2081912952824680	11.1952304947981833	42.4724264640201881
31.6071264379223997	16.9742006397832697	40.5557734977792848
18.5112636424041952	13.5156773567649431	40.7814218768792287
34.8225604988227033	17.0351736480415674	38.5175464257427649
32.3259853859834934	12.9917251406476311	42.3360353222561727
37.0436699562800769	17.4954705920814106	37.5810144220222426
33.8153308969251114	12.6627967666524519	41.6264600350874971
30.9610239940277872	13.3576556646071136	0.1354330257177879
31.3071820418171782	14.3361601132670557	37.9413369972348207
35.6096055791751027	15.0913472923758931	1.0663624055691439
24.8848293481000553	18.5070659028700675	38.6739152194939706
30.7837161347562258	15.3699138794509480	41.6437641985194205
2.8592568305200023	14.1272382853163734	38.9881279127732654
6.6465261175727308	15.4985460874957859	38.3624328291498529
5.7168197103471003	18.5373237181734396	42.2518442027853638
10.0321350023450861	17.5708048653043036	40.2356315103357858
8.2559101626601876	12.6252229790184440	41.0063764357283205
9.7206423549193754	15.9970092673935547	40.5383418852522865
8.4955317264390402	15.9709023938325405	39.4066563830151750
9.0170090725926162	19.2663391621533613	0.5471653686172659
11.1395366466572714	16.7152109774347650	42.0352202138738420
4.1125987915346984	13.5030151420228783	40.5128593330894873
1.1779945182462350	14.9839861250877089	0.9545321279068019
8.1401789329458509	14.3944992246359948	39.7115546995675075
4.2352375040553945	15.4953880225760692	40.1529350019990119
4.3218158965052798	13.6542772490113471	37.8871207492071775
4.1214333502387595	17.7126695743666183	41.0964093871842380
2.4702567940570748	14.1904492687503101	36.8310714299923063
42.6915276126326475	17.0025577070240637	40.4864128115586155
0.8476499403526163	13.9048230863772417	40.0722763011461538
5.2807422670050999	16.5987384242375065	40.8559253077634992
38.0736542821487518	6.6261355181765200	37.8056549897300656
0.8921491091116788	7.7220995625456759	40.6732856791678117
14.9066862672664886	17.4294780540589329	40.1851817675891994
18.2995761443179710	13.5433951855508337	37.6261841563602317
19.7069446959484580	13.9573169930726557	39.3102868344420884
23.9980639437401493	10.7767679534865959	40.9609134844309324
21.9487247618525849	17.2600222978146647	38.2361099662749311
20.4959217434212242	15.5315290214342934	38.1678661550525362
20.2716487794831259	15.0851568078552631	40.3984193358754382
12.7941854826359211	15.4688737152026903	42.3704214099287384
13.8854925762922310	17.0422919088098119	37.2909766780561398
16.1703454945087302	14.1732169374586814	37.8336084246655844
41.2595947133669796	5.1275358730369600	41.0280708231732731
14.4068852340887013	15.0198598842362756	42.4287985537881838
15.1162463955090391	12.4114220965781445	36.6199775182565119
15.1499516574689324	16.0273870156206328	38.8199618126578301
14.9413114236223343	18.1335122747313378	37.7520223612226431
16.4512543619747866	14.3401985543927903	41.4695979017128806
17.7577371153347023	13.6683266791766815	42.6629237787776390
14.6438002209480356	15.4100245630356181	40.8218412485344189
14.4872349711877924	13.8624895727330877	36.7382940432666629
16.2319939221226086	19.0234107269444124	41.1255339246977627
17.5442009464674378	38.3132204810191581	35.2001729323413457
20.9027514375436851	37.3900935739647053	33.6543226292354305
19.4315768710335490	36.2951195973018415	33.8918437712777560
22.3452582025969484	41.9194275877993263	34.6173702331515400
21.9927962449774235	40.5817596693882905	36.3571154511320529
22.2752430561693480	37.3543352136646192	32.5995134672385163
23.0361835203729477	41.2025341220446606	32.5283832712733343
21.9176949301855259	38.0017574481427474	34.8909734896767603
19.9123111575822023	37.2870409335510402	32.2704184578744488
21.7686400877340418	39.6806181343207598	37.6958329216886128
19.7152810724215755	37.2233800222107973	35.5100459486313156
20.7899708756652863	40.2574400523140596	30.3541538902908314
15.6108970785994376	40.2584902948950258	34.8735954802484045
15.5979570969330013	36.9930125910763650	34.9070967790429734
17.1028908514945819	40.8083182938520963	35.1632515327622244
13.3499765609141079	39.7121607297100923	34.4236013524148845
12.8580154732224266	42.5533429568792272	32.3671036745073977
17.8703555221714012	37.6454421315016745	31.8702645958860842
16.2531111986627259	38.9608926852001289	30.9859027063970736
19.2565903240714320	40.9757528591854054	31.5956432484811316
16.8878719283032694	42.7170970859852162	37.5685121969850115
27.3339942168970857	38.2969673397856027	33.1960298006352161
31.9840580298515533	39.4732204707038790	30.6661897340239626
34.4774329210651374	38.6698753926612255	33.3008814169471208
37.0639608987119473	38.1005435681343201	33.7867008340689452
34.4592836507279969	37.1228402785207834	32.8785946369015818
34.8579648896625898	37.5658936455141088	36.5179747117096198
32.6952491637486560	36.7614716202327259	35.9855620020091251
33.8390309145920654	40.2916156790777222	34.7839571214400181
34.1256833078426922	38.4739561109762960	30.9753524196687060
37.4097969554151248	41.8609341438141769	34.8815681374960675
25.8365083091178498	36.7690217763641414	30.0064575015260644
16.0721264013370941	42.6285321257401151	35.3559957516798491
26.5312551061815469	37.5733106205942420	34.9483608236973424
27.1389602174408431	39.5685342910187074	34.6820912234009242
27.8031236998705609	41.2320840225114580	35.8843456031488302
31.1155687674357893	38.1760025751011298	35.2346546561959784
23.8930742045546438	36.8236643555212666	31.1433392876897237
29.6511988426026072	42.1883502749989603	35.5924389003119757
31.0601088257194284	36.7328890051735328	36.2360213120766375
28.0093342286063844	40.5351084919324336	33.6240400854707815
19.6067666145619377	38.2785256704552737	34.3918295450423201
31.9304139887759284	35.4796752792314365	34.6011721883888512
5.7119624786059608	42.5188267884476758	31.6673613049072422
37.8800545992514088	35.1305363222230866	33.5677966788666282
40.0403266843388792	31.4507292186159830	36.2536275020239884
37.0245061360766528	32.0710616786641438	31.6107868062338859
39.6869015025056555	35.9327769986970793	34.8322246987088349
36.1684769782971784	34.0383093673669066	34.0041638896309379
42.3692380255193228	34.3694540530261179	34.5143219331352356
40.3701519616753259	36.5719927987545645	32.9501373331897724
31.4140878519935782	30.8096807683965217	35.1501837768598620
35.1267004055974823	31.2390830694088102	32.0276404630696661
3.8004811007337818	39.3979218967183442	32.6592005807038888
36.4312714224242455	34.1711556109750276	32.1736359332243751
35.7946641555876752	32.6354505336763907	34.8293408923160186
33.8386376508409867	31.3452445176447156	33.0249230902680324
33.6375885094818301	31.9370262212870877	34.9092867139847911
35.8349497620604893	31.4253741304967136	30.0968269238053026
34.5718957393122110	33.8749947286366933	34.7609780341541281
35.0119656841502191	32.9487209131834859	33.3480999668596141
32.7818625102627053	36.1628419662867771	32.6236424521421000
33.9138492807753238	33.0576993903879099	36.5627927334235068
1.4294054553775357	41.7802255129639946	31.4331224672008673
17.6371985818180086	39.6841784500424239	31.4753680444404047
10.4476070624748036	39.6523233815863350	34.3116402474040214
8.9437573400144394	38.9183935170096333	33.9702041865388651
9.9661182216648516	40.0136056695579114	32.1505973946333512
9.4202177923529469	37.9100226999705541	38.6256370006623158
10.8008869959750502	41.9763726726272992	36.0367358222832337
9.6823261041689275	39.9927136111863817	35.9496355293022773
10.8974159025846813	38.9632227985179966	32.8499691429013154
11.4577883536185041	41.7266916884738350	32.0492443600166510
2.3098845777705512	41.2664655847003985	33.5797280932106190
38.4178860503197654	37.3849645980592271	31.9772217517603607
3.9334086908156278	39.9842630909916110	34.3949414916500515
4.7916057519325275	38.6209265184893056	36.3038622980031320
0.0825847179390886	42.2475874621973446	30.6370814870364612
4.0742172522873066	38.3824002791340106	34.8104675050289245
3.7979197511212401	41.5239147730076468	32.6353044233085399
1.3466167265548401	42.7812180653433032	37.8464342932290023
1.5797827085815053	41.8500183361619236	35.7628328444281323
4.8566865618101067	40.2371737561629956	30.7344728602290438
0.7659029712100498	40.9717999939567221	37.4237139823412903
21.1321000215546633	42.8969394279864744	39.7977494368788527
32.0392937483927724	2.7367674446360484	38.5566278925093187
29.7692737541643382	1.1128348538330401	0.4450793582384292
26.6820752558702594	5.4006330534140554	40.3146628089281691
24.9751254738602739	6.1541559759734525	37.7067340136385667
28.5098562925526267	4.7770212697517023	41.4443280582991065
27.3908356164577000	0.0769279853995344	39.6835114107967328
28.5417297817997095	1.8952805175821885	36.5652414447524663
28.6346076635845783	5.8272261007425801	39.6909735883019650
26.0815059771961906	1.5514233806253974	39.8960142632230941
18.7336023219421755	2.5497699727764478	42.8216349799893905
25.4371578123309909	3.4337709233555755	40.6553614048358796
22.4612856564747005	1.5573343301909870	38.6821196125459892
17.7991923705927526	4.2918626024771820	37.7881872119834910
24.0440529036240278	3.4242873283873516	42.2584819281085089
24.3288095362863430	0.7638437070219332	38.9427439125541355
19.8314358480269277	0.5038923699087174	37.1367913465910675
18.2060400071209223	4.6711386245316380	41.1033457885667204
19.9936603252308025	3.9672611252983234	38.1416282823135262
21.6439793989971818	5.2103074683557864	37.9583092355249434
24.2377135935302057	1.0954212464981929	37.3446636950437068
33.8324757057513921	6.2629588208375502	39.6773650576230068
37.8621657016422475	0.0718620829304368	38.0809857175963984
39.8727738034894230	1.0410428786672008	39.6589325855060295
38.7590853113054479	3.4564091671381498	0.0847934196762901
38.3440331140849722	0.5704459191755090	39.8671879549233878
40.4476485301565987	1.9120607590761907	42.8162446750496528
40.8838169155832674	1.8036828639462081	37.8210112717303915
42.9399889262336032	5.5578005768868746	42.5007461909374342
36.0012964918353759	4.4524811168529341	39.5542127522263485
39.7575085079130659	5.3747160414193544	42.3113602640420581
30.7318541946660950	1.6283770442882759	42.1160616490926500
20.0175022631115631	2.1327903832322819	37.0323433242217419
36.2370384827800223	3.3630751424452701	37.5188792457160147
34.8775644215848217	2.7103442028613158	41.6713407737978727
32.8343624127489377	1.9364849214850046	42.0982312469754660
33.2630742841557918	1.0960844452229874	39.6713193667783131
35.6073664263957284	5.7269138106289654	42.7817009497026461
34.2681787832405860	6.2978410169876229	41.2234626832565780
27.6519633953272788	1.0020617219184065	37.6457678054766234
28.9266782408425804	6.9542791030507214	40.7496886299973795
27.0432270695208210	3.4688697704157723	40.8599230689880670
38.7029201819675919	37.8880665668276890	33.4838460900361667
3.0373299439356929	4.2275358598063244	38.1547409589744788
7.0346916299716638	5.2867857503542881	39.2635940331411675
5.0943494706682610	1.1562922065104837	38.5860918892270419
1.6098131881506610	2.9933567157419234	38.3819849506858617
1.2491554747908544	1.8865207511753592	0.2414298186392352
4.9462536046979775	3.1327454972660105	42.5891190073381907
5.1497514039341263	1.5484664413932798	42.5655828810209513
2.8533493935665528	2.6582597502837202	39.7315849393669538
0.7779182645035495	0.1686189206500624	41.2745881886755370
1.0223785889825738	3.7656280086158218	42.3000652669079784
3.2529644654577288	42.7295633442913783	38.7467640970649683
41.0829966980719732	0.3991786399870544	30.8684897971905734
42.9064915431152656	40.0600870072082103	30.7441719487383160
38.9078977059011848	40.7994554331371191	30.5511903729433598
37.6680900333344653	38.8173614909551858	30.4694946696576920
31.6373524978925253	37.5744018027749576	31.4655575075672758
31.4861887009858279	0.4007496763562701	36.2507592867087851
31.7626142482713121	40.2919534897956737	35.0081270718111384
37.3025097489916604	39.5370729404174028	34.5482121461844542
35.1943996454132559	38.6089449749221032	34.8315797339821316
10.4990042152307392	3.8700219612724753	37.4759493302072357
24.4806231752317416	1.7888950859707839	40.9952373067426024
17.2534993082008548	1.8064627557176980	0.2269007110480889
16.1604145364655380	0.3954612040287048	39.0085199279670150
16.9348191386896829	3.0827625263721474	41.4379902513517067
16.5162018620259943	5.7715336756054247	38.6804383361976321
15.1892331038772284	1.4306241386680520	42.3821480085225346
15.3783946195709440	4.1875341291822812	42.1837010749177139
12.6449026743310959	1.9343227755845787	40.5758361892607482
16.3311309648927399	4.2130821073488836	40.3205885080980195
39.8797493705703445	15.4478379205594312	40.1809809631932922
11.5532007302284434	2.1394339902983899	37.6955176337344042
8.5627304250655349	5.1046803180362561	38.1437325609058462
8.5605982932421902	2.3100858170305023	41.9558374492542256
9.6990259175550513	1.9590854281284251	37.1718093981773308
12.1999964116371959	3.7988683542806130	38.4948744997338039
7.9057483104388080	4.0151508926864938	40.4825831481238225
8.7228166221396588	0.9145376382129953	41.1529936759739599
7.1442074643659339	2.3306940620232401	42.0792304476020220
6.3312687641323464	3.1230728118566584	38.7552996817471040
23.4984581666085717	36.5340296708342294	0.5021731714897057
28.1894527169934683	34.5787834313221438	41.5542067003209112
27.2944527253885667	35.0921154349559714	40.3148604627329945
29.2271470951630690	34.3104167792919554	39.5439694311117407
21.8636276264051794	32.1012288796176506	38.7372742650837694
20.9690513566233250	32.6521361423148093	40.3224626671377635
24.4454119178525815	33.1585063465492382	40.0709888752993280
21.3819831146733712	34.1728205508811200	36.9702915036642281
21.5070864380892388	34.2729455947400936	39.0334491598990141
22.9203524930966402	33.4207496495482843	38.2733464273771844
21.8490937867304140	30.8555127650631213	40.3726794595350498
29.8144351371881378	34.1796480975019463	37.5364642842520624
24.2750110571645301	34.1950495663444372	41.8722779395834621
19.6042700626888724	33.1274242616094696	42.0619459369372635
16.4994218508064847	31.4710001408886058	42.7347277524911817
17.1078415227655896	34.5105488244732967	38.5430264034466816
16.6993770037954796	35.3780582014420730	41.0472443294173388
14.0157139137520730	32.8349244695385565	39.8740268981599542
16.2047782495934740	37.4007090995785276	36.3824555047824205
13.5244250341630377	30.9011311359589875	41.0559275573974602
17.4534249115611040	33.5395511957643109	41.9555435779194994
31.9165800452197352	36.2488402129868277	0.9392780122250727
1.0634791299496436	37.6394507561089284	39.9561903424710678
41.6459952762443564	35.4665353187830306	40.2672688314147962
39.2148268025582709	35.9768910744761001	37.1729132189679490
41.1079830492135514	35.2177999105733264	37.2361322934393684
0.0194459594078525	35.1243042087285815	42.1926998403317839
40.4144233020560790	33.1374852148179926	37.5705975882510543
37.5456552902362475	31.1003034839443977	37.8361003707136874
36.9382883267552060	36.6901182700262609	37.1763941012973191
31.3860898932939598	36.1861957209847063	41.9596277744562300
35.4930652780182783	32.2269389993169142	37.9351774069701051
12.8526278817343513	33.6025095358213335	38.0975654191544919
31.6828009484423454	34.4857147430956559	0.1139644847690549
33.4960795778317930	34.2118318721124268	40.4152958509868583
34.0854165963178346	32.1758168290217270	39.7695386245586917
35.0447315417215677	35.8590809389316405	40.7819284999470284
33.5106837249021510	33.5033545041086285	0.7613665527217650
29.8320749733770718	32.5061446800094842	38.5742780895038777
30.3097087149599851	32.0283707097481809	36.8354234413452062
27.5917675168949366	30.8785232314929630	42.7473799747855168
29.5625489860134074	35.9326950967005061	41.8543323100014462
38.9189986225554634	30.2488652801480775	37.9715849253128326
3.5755847805762442	36.7192994866756450	38.2831222057783336
4.7837863619286205	35.5100031752216765	37.6324140596701113
41.8877639221697748	27.7872938897229922	38.7811668185560592
36.0083455784477380	28.9989891123310066	39.9756884367355596
40.2088212504242790	28.6930582864665737	38.3889431062088562
40.1624863572234361	27.9656964883341921	42.6674747132366434
38.9692045743563185	30.2413414050893579	39.6454273300071591
38.1092111940903422	26.6389558994388551	42.5395325345535227
39.8814378298385890	29.3778149880142543	41.8032746773231096
40.2767944812718426	28.6051957259258351	40.2395109902467567
2.9672389730492941	35.2482673427162538	39.1091212483548105
40.0866820380980116	25.1941788555431643	40.1117647466707155
39.4102887503292934	27.2143990420036772	41.1748300618079313
36.5426515276395349	25.8519895403786428	41.6795246360023839
38.3207177756690882	28.9791664259752935	41.1514135632754403
39.1804310536549920	23.6398894863599267	38.9613339831864423
41.7357176152990235	26.9042178241439487	0.8549955867887317
39.1907947816098812	27.1965738144293816	36.9865455524383719
37.2171381835480233	27.8697252944053950	41.3627148101052313
31.6736348516263071	30.6235984058520181	41.6022068221629908
2.2580085456751213	35.4679895395984204	42.2737468937836027
15.0604602020187421	33.7128029681686598	38.9806433285823104
17.0924436646217437	32.0752759109333638	38.1574800193394879
11.3120094048003992	34.9126965223552688	37.5716559558909182
15.9479910735738475	33.3566886759934960	40.9982714233563499
8.9456656420008169	32.0595385358015577	38.9051962933082152
6.3368400407426622	30.6934080357453496	41.2202150264399094
8.2713301634124701	33.0600851394042010	42.7210162575684578
8.4549907355933875	31.4059049543869335	42.5870564030763532
10.7031248929038210	32.4176840776908008	37.5675976253138089
7.4368513476925218	32.5061561872448905	41.3744256972445896
3.8020874580921280	40.1591823821064580	40.9100434525121699
7.1063970545920201	31.2048566321827252	39.5851108238743734
2.6150004678540202	36.6331058609734512	40.8750136923358838
2.4487793909403468	31.5910597830142592	40.8484806268208587
1.8748333684799694	36.1334844703984359	37.3012213463872087
0.6027294081691172	35.6995021083413775	40.7957457682951272
1.3012664181519935	34.5745878514639244	37.6642562724596885
4.0606563885905835	32.0109565228271649	39.2521787688032404
42.1498855841330240	34.3142747147398666	38.3045185684030258
5.7406354657243766	30.8570840600446488	38.2861371291948203
30.9464224817447757	37.3900573405910279	38.3075465641394075
37.0156578049696208	40.4929861896958769	36.1785452542582533
35.1982122474237897	40.8081903125250776	38.2113766538194923
34.2901372920402494	42.0620650662238162	39.0100504137185169
31.8753930629528064	38.1573459244392268	41.8983376100385527
35.4808253894020496	39.3954503964054297	37.0684356379165152
31.9196534366973346	40.0387869343532259	42.0633602130857014
30.9840070335109523	36.5388066533304539	40.3858400906167176
25.4014254746002059	0.4160746632615827	40.8506331507929801
29.3833629567147732	42.4436210000520617	39.2503555304228584
30.2409223211660994	35.9060839984484303	38.2748085286934483
33.1736963803978497	42.7098494335154939	40.9340020152675308
26.0026816035632145	40.9192513330431851	38.6231132810211832
30.1119697067016503	38.8436769398156372	41.8916827085430299
30.4345181815502670	37.4824875557517103	0.4143622945127912
26.1932121054414999	38.8255193952389348	38.4115324696367395
25.6879642694598438	38.7908070676589745	36.1741169294456171
28.9843574774131909	42.5778147849237172	37.2184088236340287
25.9663461190469711	39.0087056470193048	39.9899511286864779
26.0690822452794784	42.7471845623269857	38.2913880163857172
27.2111695803443112	39.9842609332348715	0.4785098370521949
40.3570993938907208	41.1006346709183958	42.7490288336128685
39.5678471005727133	41.9666948297315727	38.7815333073390676
38.5567613986390612	36.5087015934306578	42.5168985365586707
42.3469953539398816	37.7677745766326609	38.9949508557665609
38.7627191086892466	40.4626206661214312	37.8238748133066522
40.5358395078253295	37.1801776755138462	37.7241198768115069
37.1783191790560110	40.8321892323690250	37.7803583104611889
38.3181266416694584	40.6584622842241288	39.7559322275127016
37.6180612435180635	41.3289869721927658	41.9287822942830957
39.3165047196569901	41.4191855351849014	40.8157328430183099
39.9363608558694096	36.8169358758723249	40.7988865428366267
26.1506167166711698	36.8316939873906222	39.3256975460620666
38.6069265355243445	41.6675847801010164	36.7154611641642177
40.9734000859823198	36.0838753981314468	38.9076253140858341
38.9389195241675452	37.2013417952515724	36.4255609929401203
36.2971927213976571	40.1350299979619223	41.2220733949213525
33.5278731751051069	39.2564479845584700	42.7299233980403699
33.4497589811856884	40.1451058287495854	37.8331458826318325
35.5708213326514269	39.1240851697746663	39.2607848681141505
32.8544707929646194	38.2889436443656663	36.6038186275855253
36.5638466907010908	42.3920278332856668	38.8656876152886781
10.5971522938591285	41.5288795332186851	42.5590188315212146
17.0394359577190997	41.3399820749650644	39.5086927368015850
14.2768274123854333	36.7895142877019765	36.9045587397176149
17.8005926248519941	42.2868874948024001	41.1000860217202515
14.5504047395436338	0.5519528671264924	40.6105672141187739
7.3263925062681485	38.4876918363928056	41.3454081483427061
10.2396818217308798	0.8224523311818258	42.4372404403162093
5.9327420011663383	39.7062361498567711	40.2409823327480254
6.0830388552707477	38.7374612464564763	38.2732181685159887
11.3292797867510853	37.1335565867127286	37.5463262607447064
7.8357271269226265	37.6922481831182310	39.0638170373808222
16.4078018106922450	41.1129567889953833	41.2550203958638733
7.5769805868108175	39.1581484214263824	39.2326683453616880
9.6213023953977999	41.9021663172048733	40.8828273888264917
8.5686944810053376	37.5904494780396163	40.6079103268699981
2.6554586035591057	37.9927826186294766	37.8336739599461112
3.0972612402630717	38.2855268844430441	39.8206802680056100
3.9676190420041024	38.6894842776428831	41.7762202555058622
1.1701333244133729	36.1398874858301795	38.8538559275544131
0.8252040037795977	39.1300114122847660	38.5115412126214451
1.5398798391570245	42.4921368876235803	39.9279750731590113
21.8838730346457773	40.4745624531525863	0.7852348156751989
25.8408713644263131	36.2816089568678350	0.0398327360800966
19.3999998581243354	35.1795565171992095	39.1538366949871985
23.3343366654286157	38.8027587496591266	36.2830727455817552
24.4470905800148337	41.8476328398722686	39.4489506920883954
19.7394491256036382	40.8453462428132141	42.5773011041314220
19.7899118463681241	42.8186194042183246	41.6438503731358125
22.5014059536107887	42.6203931429170666	39.0919028443894874
21.2666787761562261	40.8898884143110948	38.6081646265453173
24.2894459644786309	39.7483293510210842	40.3137339833488326
34.7126942958301257	28.8386834670587398	42.5377718733433881
14.2852171080320005	38.1625927922432382	0.0812360875086444
15.3533848380857059	38.2351900211793563	38.0154195274526359
16.0029024051213824	37.4350384304970376	41.6934626377579676
13.6337987662694555	40.2057317212562921	38.9855226974852371
16.1982209364627217	0.1855031628543411	42.0719757212359013
15.0550151203664040	41.8298273039343584	39.6910793299616884
11.3512350087774951	0.5097204559622486	36.2633677279138453
13.3074538159323037	38.0133286212845931	38.1382423831195396
12.6055626720430318	35.9786843255863786	37.2460414673150879
21.3652479733542719	22.5512739181154593	37.6825435857241828
24.3042193363917853	19.9229434586312841	38.5905769885409811
23.1387296364324762	25.3012617476948307	40.2649172837741460
27.7625449452451321	19.7356005204565008	41.5217807675665469
28.6774051168596031	18.4355752939048116	41.0806434182002889
27.7070331484097743	24.8465066494731168	39.0358834123889125
29.9774703371777882	19.9196998344197631	42.0341967125642810
26.1574694863067201	19.7234673981857398	38.1967307066594728
20.5786736323179369	23.1820583681174419	41.8804572373144097
21.1511642840549392	21.3382636497799325	36.5424695966969466
21.9716822870550708	24.4972547334050752	38.3805226733602964
27.4935871667854279	21.8053380894811717	42.1419598094842343
23.9651108329864080	25.0317023570168935	42.3609080383701908
19.4826882703739308	21.5511481758939460	36.6227956104605070
17.8864349120054982	20.2289695947071877	41.3681152889066865
20.0815236672281685	19.3932431831243690	41.4205874122808098
22.8995374494829171	22.7872555115636892	37.1025159180044071
18.5504522222190040	18.6662744397180838	41.0831346468222236
19.8842965311588209	20.8572733003174093	42.2053014308609420
23.2346071095882003	18.5295563474518303	39.7629945207666466
20.0057388558726643	22.1789559601163013	0.3289415932722050
35.8671543920536067	18.6155257102691536	37.9505238861146097
35.6504189930698203	22.5646680132693831	41.8671183295810323
31.9073505316483015	21.4814501034144314	39.2792358782343882
34.6211375785135971	23.1995395796714199	40.6433709304680377
32.2551806926312139	23.7436948270142025	41.3162674426528440
37.3387294816559248	21.9163843403193397	41.6166444402683027
36.7667768743730932	19.9991961266621736	42.3081370804825028
34.0960778857494091	24.1598607811294208	41.9657506084958882
33.8546903773174463	19.7549310356363215	37.8492405696498864
31.2102138039399577	18.7135750985897964	1.8556227153047917
31.5656097978188832	20.1525352374192934	0.7245178976089527
20.1206877003073004	21.1200678426441719	1.6039339338180234
33.2094787114592478	22.9700507749299589	39.9249150566910629
28.1931086546389622	20.0139168950486308	38.1358471669456662
24.0053101984125163	20.1551129844721508	0.3505686506444400
26.2494247877291791	21.3442708962327288	38.1530230802796311
26.1816572596181700	20.4443148142167992	42.6345287960006516
30.4956140058635690	21.9916330702499252	1.7131995446246930
31.2834124421990332	24.4962915805633621	0.3581568886940216
30.7066400482516322	24.1985508646593921	41.7985479893040264
27.6651548071929696	23.6041317878673276	0.5919729548075525
1.2691843837352399	18.6599134326771754	42.5998613719280499
6.2212598959984646	21.0439271187586066	42.5431887671719693
12.5011499426673485	21.5810889990932253	39.2668637738862927
9.4715300919274998	18.7946608718790600	36.6472045937646556
7.8825877704027718	23.7740873570130873	38.5543888528121244
9.9296158477056959	23.2120116888845907	37.2991874666523131
9.8512618278498287	23.7459972696621335	38.9785547973504123
7.9031103744101250	19.1080134763116085	37.4781060826964136
3.4491294228734377	24.0191563303950595	38.8353313027355682
3.2076376131281368	19.4612555397370031	0.8192719654533065
1.5138578876579336	24.8872878225681937	37.8949008047336875
9.8019779481280409	20.1223464056019417	38.2187573440788881
2.8465088133358503	21.9099242988587974	39.4806833927042149
4.9530971575070213	23.8671148024751254	42.6183901461816248
5.4044113314271156	23.7301926594498553	38.9120851150493934
3.3103105853452925	19.8188803105107567	40.4415979732258251
38.9213261855268513	13.3863755239797779	40.0803994734232347
39.1163569072861250	17.6495797590302317	39.8704945003420477
42.6044209160131828	17.2523606165773273	41.9802428701784365
37.9915925628253106	11.9899268595083974	40.0115788864374977
41.0529717249871737	16.6102752431295819	40.1552916134864688
14.1630717549903107	22.5680870575121197	40.3627678742127358
21.2859142680055733	23.2291277382990735	1.0152444002970018
11.8697050139151390	20.3565082522916896	37.6991140301455729
13.1152006677303952	20.1203525695212520	42.4503804913068095
14.9257201276408722	24.0735147781039593	37.9179508868921360
14.8329182097208001	23.9190773687525216	0.3004608858288989
12.9445643403335779	20.6776749796282502	40.5436758312382040
15.2931458483749001	23.5687191933959213	41.1035258890492088
15.3450514788606309	24.2032825691050952	39.5670412342999072
16.4462576701586265	22.9139790952557831	39.3189111686024830
16.0986725338526071	20.7553293900730900	42.2331477757557749
31.3730195256414603	24.1629322630501662	39.5810495138245955
14.5937843770645053	19.3981068827152008	41.2278662659982942
13.8608959648281793	22.2423586696230338	42.3031071166077197
15.6055111912137008	22.5461655726447319	42.3377037944372390
6.7738568275165640	23.0987042033404890	41.7534507989492170
9.3692301116869441	22.1547932931249285	39.0041957019984480
6.7956166275011798	24.7770170204989917	41.5886101320557842
8.4296996511278479	23.5959791046316063	40.5031659874021557
10.8600253264547320	20.6444790034590540	39.3638298210474318
11.3077557000119153	22.0341921955997897	37.3849787993566807
20.0331885827867566	25.0960822523625815	38.8248370401772220
30.0259417323788931	29.9377234741215652	37.4443445924153835
28.1821783065640687	27.4971567740290368	39.5015443028879289
27.2862967598695008	29.4000131387407677	42.0467594866103553
19.4872062337578598	26.5435426211305874	39.0772980385672497
17.1620894164570181	26.4826567516818052	42.9452521325202312
23.3682149317929486	26.5293974779415933	42.1636843619309190
20.5490470159028469	28.3551802688620711	39.6936539922420906
20.8287279232340694	26.9634704498069588	42.4776543364576682
20.2116195084900703	31.7619979093013569	41.5013217649249597
20.4574264739386962	30.5140719700503453	38.6729486073222901
29.4742171989596144	26.4122773178534089	39.7502075693546217
19.6604497406791872	28.7272562295843130	38.3594699210520389
20.3817878059170248	25.3763724130495127	40.9116168565388421
23.5835086434415970	29.6234560315881303	41.4769797084078178
20.7676912586715261	24.7426974312734593	42.3805190995515844
22.2571725938487965	28.8030945683131137	40.9747683855999512
18.5027348876511049	25.3278330317427454	37.2889419905524235
18.5537525666434853	31.3603863225905144	38.1096985250473139
16.2469035451363126	25.6943744231201876	41.0235559520057222
15.4560035027520630	29.7298844445598256	36.1180742711586262
31.4383071609056159	30.6318192063387684	37.0384527420623115
35.8680846166567022	27.0591382069538859	42.8220112831177033
34.8153233778610911	30.7093388844502613	39.4127625806741264
33.4422447091841732	30.2767317915685155	37.9582274969256304
32.6501376671939525	25.3401967828203780	42.4267069375516144
33.1543470133982581	30.3535716170604104	42.1367392425894991
31.6597952960196238	29.9173341446999252	0.2416327475547813
31.5626255359519803	29.2872012452147494	35.7758496337745129
33.2622324817017727	30.3359007858041849	40.1044111369633924
35.4748527685440607	27.2951095176682728	41.0875977259601228
29.9269685924023854	29.2893670499485168	42.3791301644430476
16.0657815475376928	24.8461202666828243	42.7094741549481896
34.8524201122916821	30.4691218284695182	41.1324701141523690
25.7901087404316840	29.8215362168248639	41.4852033583463324
25.4736054676767871	25.1990105319585247	36.1066841886136984
25.0221802510456008	30.9619878249102349	40.6450000009088583
28.7197664510743316	24.2978840525223667	37.0747095679402676
29.2793354498463145	25.6960575808704625	38.3485633024938650
27.8045797691163799	26.1096186658932616	40.8690633699579990
28.7588079302683539	29.5015913771478253	0.6629945049668720
26.5532810142934146	29.0546816833220092	40.1417871092503020
39.6314386063329138	19.3348069898949859	38.3040407149740219
1.6791753522421622	29.6902247764593845	36.4547541249475273
2.0407924440512026	25.6948213223528761	0.9333315935235500
5.7909487474466541	26.9871511785811613	39.5564690127163630
2.7429106398870258	25.7949512975208037	42.4536281462104270
36.3714418796674792	23.9992777164084821	42.1695004141282439
40.5569360502037171	22.7157157765829396	39.4989364172785145
42.3486236837849006	22.5707319962519364	0.7285179138079850
38.0854517520594982	22.5667531043550156	39.5342092697868708
41.1092585637524692	20.9543196535920444	38.2610607401141394
41.0282633097815079	20.9488475651858792	40.2765939626452365
3.2907086087342776	27.7421676952518403	41.2182973464909068
0.8427597769262843	23.0397415950445676	37.6045296114994301
41.0243999964675226	20.8815092448842208	41.8504537043136864
37.7812004938853860	18.5321605656407407	41.4824267009232344
39.2381921788477896	21.9282021591562675	40.6241733352928307
33.9416631457027052	20.2898376638271856	40.0920858194697018
35.1652300134365632	23.5561845982244584	38.4504759169349697
33.5010251008059328	23.8168643428147568	38.6000103305033235
35.7427237064214225	19.1233675298575321	40.7903176965624965
35.6166388149127897	21.0321967953538831	40.8986563561528769
10.6127627592755349	26.6230248626864920	0.1777065974400970
14.0161244283755888	28.7927044959795992	41.3600479610907641
10.6207917203088602	25.0108958080002814	42.9594886941604130
14.5095877407759417	25.6370933434334809	37.7132192960569128
14.2974714319102816	25.2720476529840141	39.8772697191359811
12.6772071955968268	28.9447592278738277	42.0702859629868300
10.2163091405484021	30.8179819427538746	38.2504091928235965
6.7864356146154146	25.0997448262383642	38.6379902504473876
10.0003401116497024	30.9665346207621361	36.7415529967112420
8.9818481916211343	29.6649015725078549	0.7847273655312353
35.2776864599709725	33.8895659439326309	36.3260341512307647
8.0483770592041957	30.5687350577473147	37.8422745548742796
9.0280822870432615	25.5214072488024684	38.3271606776582416
13.0217819918472966	26.9301916106300858	40.9166836576587372
4.8246286692832552	27.0136602048224397	41.0921820768455532
6.1046902283131157	29.3243257822296783	39.7649111445645502
6.1967468667820533	28.1610632879015341	40.9267081689939758
5.1772361098847872	29.6608799094376003	41.8316399016770433
4.8080924438846946	25.7118026559865704	39.1923705648643832
0.7850053685107591	27.0476914722465693	37.6348162838508458
16.9440873586451310	5.0290663211079210	36.5255459844459125
21.6874596164218829	0.9124638079423492	35.8933253209910035
19.0546292375216453	3.6437229938149640	33.2702239558965118
17.8327329012290186	5.2496848413532771	34.3978857358093819
25.1342061348526080	42.7606189168194888	36.9402670029314493
18.7619263864464507	0.1125937474369166	32.1955829293960605
21.4133656342026768	3.8778436994096523	36.5717496209540656
18.3741970083595483	4.2546671975259587	31.3930557701340440
12.6754026048534492	3.8588404078922403	31.1542790309253164
14.6059095575765898	0.8254661192830260	33.2738516383896368
12.4104548148494054	4.0600263885760679	34.5671698103545211
23.2613460873001827	0.5152168689349159	35.6892777293972259
15.2451961693268938	6.5908247353203464	32.9632024874936675
16.6178463801922334	1.0847365940446481	35.9733280510067317
13.6549725365276675	5.0659091978372786	33.0305073249725680
15.9339985082168987	1.8919707555324972	34.3591670902889774
15.1217102352975790	2.4910296746196128	32.2961808715221679
17.8089718497894935	1.4394010236395496	37.5656771974340558
13.7323366575902952	5.1398082090078150	31.1919582259113888
9.9034197587212951	5.4291196884970088	31.6545660421950217
7.4234782552672556	2.3635521850076966	33.6522535297106131
29.6807568603688381	3.4343135766516344	32.9366238807024700
37.5783725989802448	2.9854746696698453	35.6616822295269387
36.5251719895051821	0.8787577885058219	31.3765823647768158
41.7922394123749115	5.2162297339198460	36.9180148685177016
36.6500222926376793	0.5405809550800256	33.6770401912979693
36.3062481776843526	1.8275628159959980	30.0448283148754918
34.0235229937125183	6.1407321810612219	37.3777240992605186
30.1454637329948589	2.7506656728172909	31.1596416722209781
31.9081062083861760	4.4060440561668033	35.6247542785000419
30.1561116818921491	1.2461383245854265	35.9409559515113770
31.2347295261909395	2.7578543188338553	36.5428808354095622
8.9371059515887215	2.0611152598950206	32.1993893452969289
29.9773759201605721	3.1562273889056169	35.2245965471589315
27.9402964808152525	1.0630963660368440	29.4890133568758550
17.2100407630531116	2.9547708702611470	36.0000869605971090
18.8247454958496476	1.4348711332807256	30.6779953329109709
20.8131244197389016	0.8878502070695178	29.9609484828184449
22.5316280378807043	3.7537041184966955	34.5341142287734115
23.3984072773827592	5.3875286527241153	30.4970900360372994
19.1903477862893688	2.2753996387354536	32.4197843792395304
22.9770851029515519	2.7468865010634098	35.6356279613532152
30.6108833718647269	36.8870454840180813	25.8801546030886449
37.1945695720139540	40.3582585164882985	29.9138563429004911
36.0368376214294557	41.6724827295493228	26.4264986716120873
40.1817200988577667	38.5158214137049413	28.4021009257676766
36.1201160607231699	39.7739513297127374	27.2022413422865945
39.1952294694848860	37.3402946456464448	30.2292915628416665
42.0271258908010736	37.9574238390223826	30.1371589324858249
37.9007263007376878	41.9290030281273332	29.6874896571102802
42.7451252382936246	40.1505191204742999	26.0597889239736560
34.7096188302640130	41.9281763444147231	28.0178754958038674
34.5234425814692614	40.5870106788400093	24.0731242553529370
40.6201119429194719	36.9908944536798003	28.8173711638492982
35.4917227998046272	39.8452910969276743	25.2096549075191270
31.2835456913522663	42.2291901301487655	24.2125936941357125
30.8493571809596823	41.3536660430441998	29.8199178798841267
35.9476889892110520	42.0991737481942820	24.4409965411529058
35.7413735973259961	38.7665199587410925	29.1766432332426113
35.8998810005923659	42.5178880028352353	29.9188311581144220
31.8198219502950330	38.4425992967940218	26.8760949288877100
35.6495154194616504	38.2660519250362796	26.7590446941497220
33.5237380660254516	38.5902556617068058	29.3910912958872750
3.7674002307351468	4.5792031370571129	32.2186424478883708
6.7479836952448338	1.4586320496415153	32.4706466456044325
7.9506294342565047	4.0391523065390693	34.9418995120175850
6.4228961975177254	0.4717071715288940	30.5702221252255519
12.1498537567070226	3.7746755050599652	32.7094736244921478
10.7321100535760614	3.4260314210108898	31.6927961935137041
11.4599471288964807	42.7170706150387716	34.0816637640568061
10.8123712499066276	2.5846125549033188	36.0525064945005909
10.1512209098186190	4.5675643395690289	35.6656518641719131
9.0126173516322670	2.8712989583491568	35.2353428513473048
42.6303042101745078	3.1144581734191168	37.0137062979788638
42.3374794818985833	3.5211179984053462	35.5429983114513206
4.0973357217951678	3.2802536399558724	31.2168669019067799
1.3002775380892448	3.2992486732635249	36.7718097900896694
5.4327836974154398	3.0724016137404915	32.8804232540471020
2.2529559692026866	7.2788403816342813	37.8663000859131529
6.5840046048872143	6.2936229712394436	31.8322821013386843
42.1183670549496441	38.8685596703837746	25.3722369701574024
37.5083383962377255	40.9233415301935040	27.9150130590111338
40.2722221478587272	0.0158520556570757	25.9408378663279677
41.2304282863441287	40.3306793924628337	27.5996159720991763
24.7108731917748301	10.6131857697579601	32.9970199165716949
29.2583334585425092	7.8487183852266780	36.6687400682783746
23.9175803540759127	11.1922020361874992	31.0580218570615152
24.6370207102428047	4.2245280357407315	34.7129939699873944
27.7796625547420604	10.2310729493528410	35.5070841568871813
28.8451610236521141	10.8130910386862471	34.0787693664720663
18.4079411318153028	10.1977124225161031	35.4005435902096295
20.5700080837907606	12.6782999396458003	32.9185166929477333
23.5840290668356367	9.5189692631197182	32.2214813125661408
20.7503639376848099	7.9935096341720557	32.9808905858581056
19.7771257423222124	8.1000650260699079	37.8679410896504152
28.9728522122574077	8.8514029444126869	34.7222910017307242
18.6608478630964250	12.4123837446944236	35.5724009906127279
24.4575758765017426	8.4399971819659196	33.3741183777477772
21.5933101505133926	8.6218253014291300	35.0942852499977320
23.1605234918816443	5.5286370111614120	36.7573506907159810
22.0734821579723395	7.4829062079715021	36.8215749448140244
22.5313661777285290	9.4797958645006073	36.8050533929899970
15.0923573914739340	11.7049933841366425	34.6182229328167494
18.4759164188616083	4.8986203362406719	36.1361086136257299
18.5688948428448910	8.3365649717396337	32.3934156723425062
33.9167028330671485	9.6104829283643571	33.5619904229907391
38.5213195750521251	9.6311588588967663	34.9532884729270847
39.4073402066699430	11.4057517402072151	33.9899899255895974
0.7377124685353937	10.4211696000393523	36.1515929945324856
33.7132462733392728	7.6285191691581655	34.3812920693270954
34.9442349655909368	6.6316015512863613	31.5442632349010381
33.8773599544544837	11.3326729734526559	34.3363805162241604
35.0859983134692328	6.3904331152315228	33.6811308889791903
34.9971603019811965	7.4071647078663636	35.8765806493084796
32.3432666596869183	8.5661063630192622	33.0007485421978828
36.4191215009558817	8.9152389430237342	35.2952707702174138
13.0533262217604022	9.3435696463620470	35.8167617681793047
33.7630877755443208	5.8737924518046949	35.3692645765327924
34.9736343369334506	10.6880340541244205	35.4497152310812993
33.5416431889080116	9.1231331060746204	35.0574589131134431
34.7939598915416894	8.1652658416560762	32.1987114262285701
25.7924301084105032	9.3210460682453657	31.9332585085937239
28.9981171180427495	7.5886181855296666	32.9612888128041490
30.1679677152709864	9.2234658336549664	33.2245756141130144
25.2841868018324583	6.4119883437686793	34.1798883602762373
30.1303258492162449	10.3021345049827939	34.9285790221516947
6.4017437289389063	6.7733841485401376	33.4229856249355208
4.8154624320479140	6.1567099747549499	33.1812217237477824
1.5414322380805907	9.1150283634916782	37.2901703270276954
0.7090780414242160	8.8734648938756990	35.1685163627098873
5.0997516387806110	11.8534344720840856	37.3419645912191100
4.8374611072284983	10.0722219445384997	32.6438723092144940
1.1211504631938114	7.2856089188444475	33.7900039014205333
2.8720816257846056	6.4142617839820790	32.8769088103213889
2.4385201110813814	7.7433196011642940	31.3658249286401123
1.7178483904773445	9.9763662110641391	32.6933239540178917
6.0246951157176625	5.3392627818437326	34.8693337934231238
6.5916126125279657	10.4447753952378104	31.4966024458372544
38.9582505529701990	1.5370616231692744	36.7471748387031241
37.1984314502613245	2.6724244082615916	31.9487479248176349
41.1378205647979414	2.1135751649814232	36.2384534242431400
37.9890411542069799	4.5951661866622331	31.7231921394352163
39.0709413762997642	2.8085289522230799	35.0253213142283215
37.8651829212304207	3.6962634554049374	33.6125576831952770
37.6709939821519981	0.3389420692006455	35.7529970800486652
39.6548473871183020	4.4604164736936811	30.3304568018021001
41.3546067089991851	3.3262141964119145	30.3725265565447060
11.8062972176604237	11.0800080537421408	35.6568776438035329
13.6926107460334023	11.3261683865074225	33.3221824585788013
17.4375870600529481	8.4792503302927944	36.5158976551651975
12.0590503758368364	10.0484191898188921	32.4173208213707440
15.5055522802283647	10.5672165594859297	31.9922579349091585
15.1520026861927430	8.7726195097089139	36.6563974934367778
15.6076816656946082	11.0129292496321387	30.0323039509833549
16.4265012946707394	8.3996348510221512	32.0868176774718918
9.5594339395455687	6.2735170141659733	34.6337668350988110
8.0182172205994036	7.3429425878775598	33.4668858091332737
33.7928695520428306	38.8989348972132234	25.6044634923431325
8.1567583071505059	10.8417093619370579	32.1174972389853224
9.5430969707163325	7.4190562505001516	32.5764547462737752
11.9385130809749835	9.9460462704809167	34.0942669055730931
11.9363980675863512	11.5372718525621263	32.9791188962439676
8.4656737221935572	9.3127443330359387	32.5416076536496490
7.8250962310302166	7.6093056750307726	35.1230624112391538
6.8228625233383955	10.8020476011448672	36.4743879528962367
3.0903426932970515	8.5841048856601265	33.0730661781265951
6.2539304848508781	8.0046508429775560	35.0778360655893522
8.3652606642843157	36.7108984097418087	24.6097397801462918
14.3738007747729792	30.9634467047559347	30.8324810762752151
12.9007239894080890	37.6274151854048142	27.8936272714283469
13.4794164277593840	33.5687614579847065	27.6667096990278516
13.4474332187512946	32.6369796842609574	26.3001674410358142
17.3671743405855032	35.4194688872284544	31.5046555266867898
13.3857241403935046	34.3497716674198657	29.6645922565240916
14.2848441742752446	35.4007519405902542	28.9020898158807746
12.6286486557317712	33.1395498321027091	24.6449699964108468
19.5258979733249944	33.9636504653375084	28.7063287221069423
7.0326940004885810	32.7032094914036264	25.9974772327505015
13.1201923889587153	35.4926585793808371	24.5577937181688597
6.6983548165897453	36.1589481733073939	25.9030978187945848
7.7281027144382790	31.3362573425796995	26.4334807686578159
6.6230316303591987	36.4372035948045294	24.1577904789310374
7.5146719342074055	32.6551310744806003	28.2290324751747725
6.7970853842738368	34.2811747860839660	29.7036479607249007
8.0804441566715468	35.2407843169190897	24.5841408438523459
11.1768972251215466	30.3275596181040683	29.1240233403599760
12.6857531512903901	34.6996549843664823	25.8890760495093843
11.5884429184223272	33.6913710330814027	26.2548976132375991
26.4665029735537303	35.3295402792986408	29.8153735526061645
27.4856098765104342	30.4712833974490422	27.3640109970684797
27.9147725429663822	34.8690776024362208	28.5898200288172042
27.5950872501031697	32.0665855711334231	25.8944909875632092
24.3005618107139227	35.6033385855412519	29.7490960669424247
26.1413458371316985	34.8835953670640038	27.0880038997151296
25.5955763360842141	34.0019496426689400	31.6967515705753335
27.4376902526967292	31.5758642649011847	29.3144237579740263
28.8883450604205620	32.3622188182040986	30.3935981381965838
26.8592201978372316	32.4132458156622292	27.5562950644628550
24.7402679306974171	32.1355190583245260	24.9024098665411380
11.9914325580500929	36.0210121359182551	26.5387837013955235
26.1176157070996204	33.4547708770204366	25.6186713391704757
19.7253919480234643	35.2391828634258033	29.6930563737234650
22.8689826362846098	31.5057204889761913	28.8191319690062784
24.4589804154130057	36.2656481168019553	26.7046420493291627
20.2234966961764080	33.1697125769775241	26.8363235426147853
21.8446102224508145	35.1763807355521436	31.2004635478837464
19.1361517303451194	32.0140062204117370	27.9363488471355872
13.9547732561390010	31.4203221796972016	28.1282215021576647
18.3160243481687850	34.9537903686136318	25.1867160120446663
29.2573239523995419	27.5992892971186272	23.7283078657442417
31.3296188025378335	27.8983116631556172	27.7396487861622454
32.7973783187608205	29.7094123230926499	28.2930921894729792
32.5633842331847134	25.4211924380527847	26.1121916975885924
31.5519761176383327	29.4083279514262053	29.1840579806729501
36.4522241356813055	25.1021354015121361	24.2724351445072841
33.7519851317208293	27.0764049049142344	25.0470545957996684
34.1756180851599964	27.5520070591884618	26.8052679645579346
34.3066248930117865	30.1244543002228191	28.8577338842896083
27.0609578302290501	27.1366001563122055	30.1987125640767289
27.2327322201720357	27.9610728098706929	24.5337572512267634
30.3861124205731521	26.0812337471671931	24.3732872502780076
26.5024420041719573	30.3329058895734143	28.6851583189518706
27.9153997923861965	25.9269023189187919	26.2393396357820876
26.9739105447473762	28.4193218215835763	28.4884600576452449
27.7334075466484826	30.0403522354654378	25.4038401857989236
24.4882095926644539	27.2081630159401371	27.8160135811322853
26.0117098640484095	26.3989934951593277	24.9082535958229769
26.3586900735373533	26.3195513528094054	28.5813889874630469
29.6148991064643461	26.7324432682216582	30.0607099729942888
29.7228436417338280	26.6571898915388452	25.7714357163187024
42.5028409735223960	29.2494173435569067	29.5509798417014906
4.8369723747564217	33.2721115362051734	25.3916399195253177
4.6021242738058943	35.0613795435525262	26.3199435836040365
3.3387677724843816	37.5814349156792602	29.2965278228459916
6.8631821418668233	32.6153740860038184	29.7432010823478912
2.4015908639663639	35.3974814585191808	25.7605310374018366
0.2806828634193123	36.5124002704557995	27.5151901047025191
3.1711772715751390	34.2022700985020762	26.5427190487777516
5.7998976516759466	33.6675225590099174	31.5689341793420937
0.8690337939046724	34.1912248928084210	26.5572817644803614
5.3285245447651439	33.2976195420688441	26.9759313937383318
31.1707035181884820	36.0728789900047744	31.0011263317936674
41.3373787532753028	24.8836562762771045	26.7348131004337262
39.3535242186784160	24.7759909233695979	27.9078469238970222
36.9839545447840763	30.7672175986120564	24.7559506558850586
42.2924182774158339	24.8261830817967848	30.6605822796090912
41.3609818287708180	28.2204978520692826	30.2298757826506659
40.2239705441332660	29.4260563428673336	30.1800382897397768
37.5573187337011731	26.9695460954409043	25.0673779493725029
32.9956104791059133	28.7317137610424886	30.0748303250942328
33.5644574674758047	29.1302628985841991	25.3054877360132302
16.7700538296602630	0.5287483162948778	27.3719300493790492
19.5103910431636471	38.9379262678919602	31.3461582016628348
18.7176608966733440	41.1155023563580144	26.1219678135962283
18.7015875575649915	36.9296953679388196	30.7135025179645176
22.6586749365577091	40.4476554007177498	30.3649333299091460
23.6167942760202401	0.3341934038345539	25.0398039263302969
18.7226676370188549	40.2082034613229595	24.7565486158839292
21.5904521134210547	39.1122004383745789	26.6085145287919467
14.3139842868480009	39.6803481205398754	30.3461031977563991
17.3884787564217334	39.9147785968011561	29.4447120912221045
14.2242784387812673	42.1760678253317138	27.1238957443016986
18.9279348105375185	36.2816181545738061	28.6234539104859564
16.1303653158888558	38.9141090262828371	28.0138792365308689
14.1109815589775760	41.5334469472155234	29.1416350035576812
15.4349465559067216	40.4666387870927977	26.3120448889956045
12.9861838668296521	41.5275207340184096	30.3679600902499942
17.6201914682548768	38.1372930220025737	27.8867878385371917
12.1909676375394600	41.9731799062752557	28.3093829911515122
16.2859530397699181	39.0093312615077394	26.2184571640321522
14.9085584396751472	38.0563494673756892	26.9618315927886698
7.8029256692863349	41.2688675124956745	28.3534763688691065
30.1940225621169809	38.2702251047876345	31.0727206369250872
34.8747324768769502	42.7461207975165678	25.9182428241473701
27.8997943051147033	42.4713728685661920	23.3109774445300708
29.7091862357009084	41.9092760754616407	26.4669871849775191
24.5154039361084735	41.8907301302955517	25.1310263206500331
30.7505164135706117	37.3369263002057039	23.9419446249998558
25.3255160582333332	39.7558121275867791	25.7102774337899795
28.4975677368168334	38.9064626756989327	29.7376558502203316
26.3672205729674722	37.6877285863206524	26.2182651559569564
28.0005099776849669	37.6865131692137041	27.8678292535494911
29.1433160374280966	42.3184782314271786	28.6434950974249141
5.1361886007994988	36.6783887866066607	25.4909218467606919
27.5679682984719818	36.2120053738199417	27.3686339997725554
27.9434611290685631	36.9973811896334084	29.3642164103922880
18.4835995207345363	39.1447809303303984	26.6438201431570967
23.0279640250673694	37.6623391309764699	25.5445014852647390
21.1926469195983493	40.2710781486463318	28.4943051311724531
24.8408393020432108	37.3512245555432898	25.2042140311896894
19.6957204469094691	41.7384996463036373	28.1116790530475562
19.1644194005148840	39.9238922966072636	28.6854113529201058
19.8841530441804970	40.1574447034187614	26.9808982790320968
34.5794155577467848	37.0136477450410126	26.5188708689021198
39.7872345776303149	32.1572161032841493	26.9245749885436076
40.3742074172030243	31.1904961544145607	25.7985286520673149
39.7535774489442701	35.4488245580138894	29.6591206874942550
40.8508340236163718	36.3830127343684850	30.9383350251130409
42.8470118833716498	34.7873061644138133	28.5142340699202244
41.9252046876033688	34.2302259724628968	25.2994305435560634
40.2300015556080339	33.1220648640419171	24.9821329780530199
41.7516657515332597	35.8049536753486706	29.1884373156459631
36.8044778142939748	33.3140258436904304	30.3191933708848751
33.8552152055648605	30.8114778807230927	26.7275509216640934
41.1495200563123333	37.6682819493570094	26.6764515452064863
35.7117612693347510	35.5902355539770454	24.8083345520760439
35.2617278048579976	34.5750376576808875	30.5872184380939238
32.4077517301673623	36.1751788920950332	26.5665197750540614
33.3616506187916784	33.5528703038734264	29.7708966730481919
35.5035270098251488	33.4839640022128791	29.3936421140627857
29.9757624157700029	34.8005513129754291	29.5928062780817740
33.5553127181044601	30.6131729228455391	24.5466535144566933
33.3135531405592999	37.9908772036324009	26.9542197768940390
32.3000798738059842	31.6295258772816261	29.1278062261149167
3.9533058110444674	41.0878052235051996	28.6476949143989827
6.8931245899311255	41.6146600868808534	29.7827735050374436
9.9905602223488454	38.7275515978100984	30.6803854395178952
13.3308679429367789	38.9347052655055208	26.2896692054467955
10.2692981916380770	0.1883790095627733	28.0521034272249601
7.8311949974806803	35.9483381153576644	31.1325220287546536
11.6987978613694885	37.2587225749856046	29.5275956286348027
8.0101658964062086	39.7299009526877143	29.9176204789978684
7.0452670761253255	38.1173596452731900	23.2714997471204939
1.0205356426154868	38.5169823216661911	26.5123011891741953
40.7852632465683129	10.8069296692005921	30.7395097320787158
5.3682018906087636	1.0322348901264760	24.2921123878738641
1.9556058756805870	37.7132993096337685	27.6041922676837359
4.0096529905444447	39.1645735862030477	25.1184930188666975
3.2633028641643693	40.9090777414046443	25.7917408833821469
3.3804339519163493	42.5968150678681283	27.3322648175470952
4.7056378481084735	38.7356332039934941	30.6799148923543505
3.9374467816530188	39.5253762370463448	29.1418997523311809
2.9957567092207760	39.5633399526513543	27.1193642960429884
37.8831505814889908	35.1607636479303522	24.3678269767396287
18.0321050360504387	31.6295817214614381	36.1303489451614865
20.6316124582275080	28.7402968704701181	30.5993469615920617
21.0577701759710934	31.4980090607885508	33.6280547137743895
23.8327201914123741	26.2843999200295571	32.4803732159559502
19.2073686482165940	29.9696012603833459	36.8968880200939253
22.3075241650696263	25.6328796704334252	34.1026471597137899
20.2131323332331014	25.5056637177938406	37.1355196947808537
15.5637505565347727	30.5732764675871138	32.6747705064662313
15.5203003168195384	26.0066296524191500	31.3523294208214089
17.9344760841510613	26.6547125397660025	34.5252790839479218
15.8819622791878601	29.8497876712582446	31.1455363978406972
19.9007710049032625	27.7315974021899656	36.8024178860163858
13.9712791457483867	26.5782445213989433	30.3655842186389577
13.8410556456357448	29.4845542265235672	31.6559108778303866
16.0912068466071538	31.1787397802539168	35.5481106732308305
16.2836019029183632	25.0382211639426338	36.6646088884412507
14.4217613786359315	27.7799762161827353	36.8831095678470788
17.5478582143626660	30.3410043396544751	35.2748086358430939
17.2195062984162597	28.7954192262183533	29.6603190992989632
16.4356462684182070	31.4802905328108587	31.1755508223427498
11.9965327571455216	30.2994509014892159	32.9378777932433096
24.9373493057101818	27.4447912294600087	36.3056354800833105
38.7691759474616262	28.4395258943113127	33.9498326405237307
37.6345217969628649	27.8756097178263111	34.8463797911286690
33.1945126445552674	29.5590135247392567	36.0101967830556404
34.0495203767256811	29.5394716591543656	33.3058483028147663
33.0462467420508048	31.1055478878202010	36.6334262572542926
34.7677474176533394	25.6185484167188129	33.0356098980273245
32.8203689058259940	28.0157117893048735	34.5606074767128177
26.3901217887601760	25.0509773782757819	29.9113625768436613
24.5167303064809339	30.3712298526951869	32.0593387334000610
29.3980357582485752	28.9088165991017974	30.9388901672183216
16.5382160033845551	27.0832652477702105	32.8096866784123620
28.4808904652413020	27.7051480423876342	31.6270823978100815
28.0236617204945446	29.4885192279174042	32.6449045568310154
26.5136480331517639	30.1175894561296076	32.9014896466261391
24.8346020678400876	30.6612899614845418	33.9416743394309819
26.6811574127521745	28.0680768649738681	32.0821190852434270
25.0214792953205531	29.7229335460477628	35.8371307539056332
26.3847760115321499	24.7977530457609241	34.2752298127663622
18.6220740690145163	24.6060441027250043	34.0815135528624324
18.8163847832366429	24.7060182288567134	35.4457271169876762
0.6620043999624902	23.4555806738006964	32.7676896936051918
6.5139859527795183	29.0916458400808864	33.0061142622287491
4.9228832343315494	29.6212364985527934	34.3885617548082081
3.0858257664313138	30.1952286165939370	31.3254777875394872
1.8919840430225838	22.1335890053037545	35.7723252660166864
42.3906019878571314	22.3810811882995324	32.7507653094384921
39.1292658431765332	24.8212311325591664	33.7262787607275669
37.6844916505251959	19.4846971522248360	36.8625919644570388
41.0797502368532221	21.5757079933235332	31.0558827653217797
42.6043996176729394	19.2267832439245545	31.6981845243445086
42.0651628156033439	17.7600403647821103	33.5031770277015966
2.1967688030144035	26.5878491064764049	36.8476205654611206
36.9876594832881906	19.8663129478976046	34.6254646954947063
38.7821084573800619	21.8621799465437441	31.1484037011510821
39.8021706855287931	18.2589056694219494	30.1267033971832383
38.4558471363219638	20.3428717693068570	35.1507206437888229
39.7931335265911201	19.6425568105055000	36.6561943145111542
31.2802983513299715	23.8320719611051359	33.7926385959114839
37.9145812681689236	21.2551094788906028	33.1189475701803175
33.5755472473483536	24.3071935569936493	32.2165751600189907
33.7908233274624124	20.6523178004918684	35.8668652954354243
11.9470199462564128	24.8677723165758700	32.7619902806478933
8.5214805423751887	26.8180873548012997	33.4643541220528391
6.8520400256206662	27.5592469029136282	32.3898942029587289
10.0195562809863841	25.2193398302022018	33.9423898379715538
8.4789328064837406	28.2685293223880301	32.0431397774857274
8.3876947619120585	23.9250198246233197	36.3375347220142544
8.6990979568117570	25.8009705151059912	35.2133714028579163
7.9485397481885984	27.6103002659236871	35.4197793973924249
12.1921447174413657	31.0887803001096508	37.1327209039869288
6.9566856671955533	29.2662830931029312	36.4065115277659714
7.8426159668792783	26.6233238908214211	31.2303691085517485
37.1626016350025381	26.8790726278490339	31.2253102394123800
12.7013831275323508	26.2894488165606788	31.2662264398097420
4.9310701126448127	27.7675719683966555	33.3408460420150590
2.8058948828039165	28.2565832877836485	30.7687718058678108
1.7108454507915523	26.4475268965632573	34.1474529541402703
3.1540725115467372	26.7229300688932554	32.4953902252045452
2.4105327799468896	28.0318762940664925	36.0767615547773275
6.7647439282503896	28.0091254787376549	34.4180675668217404
3.7449534276139045	28.6653992429123612	35.1547004409408714
2.8147042763532704	28.0848748979659568	33.7482289165244751
14.1320648454367035	35.5144293644249913	31.2483313312267086
23.1196342902334884	34.1437692771151688	35.5015166496791821
19.7243527490825734	34.1940966003866578	31.1458719449376567
20.8040896849397114	35.6786180697316837	32.2803066975035335
24.2488339073800034	31.9028847913006004	35.1315213413499734
14.0984955018320015	32.2181071441720235	32.3886916422073341
15.1158903034398477	33.5121807751437260	35.4592913396200586
14.5366923563153101	35.8461462469697452	35.5024626752309871
17.9644218939197238	33.5953395979921652	32.5018668280461824
16.9307613093807845	32.5975740229294715	34.4032699625755285
14.0024986709613657	35.8277884577267116	33.5645072708928467
19.5780196099099300	34.4231861594789734	33.1784599300590770
15.0915275685025776	32.6994100818452580	33.5741130553097307
12.5869131530695064	31.1062907725455666	31.6356430008971756
14.3718370871910945	31.6920196615029575	36.6019812563583145
13.7032591720724479	34.3611635162141624	33.0705756558085611
7.8378102901227189	37.2419593679698764	32.8016319929138191
10.1807733776009499	35.9896422017217290	30.7317396632082165
8.5834370295238003	30.8773427971330499	32.2913090285480280
10.6305629313100827	31.2017858753796169	33.0360762078262837
6.5052097339806307	30.9300813810588728	33.5112069540530655
27.4106828290421340	31.8220326224359198	33.2847657093535787
34.7196998620455659	35.0308471305782163	32.7252586855323671
30.5203534910786196	35.1028899292667376	35.5634759899973787
25.5669357210147083	30.4275333929943450	30.0178976079064270
28.4099930836886507	31.3628547322776186	32.0799896933079509
25.5322287379171797	36.1285594260756895	31.7313173384966412
24.7896036907480486	33.2507312747953279	36.3449107789647741
25.3820261380527477	32.3293198383246150	33.3029410302502811
25.6995285314517226	36.7163441559342232	33.9315804277491040
25.8927098890520142	31.6547951730880222	34.9713986693693997
23.0694087535014063	32.3291715562971049	36.6968300068237170
8.5535149584421841	31.5760864900833091	33.7860465148007165
28.1910638344352869	33.7433381794020306	29.7851024997774516
30.8918544313325896	36.3602074715120054	33.9471926710647054
28.6018493029703222	33.4000753764487470	32.0675859231215625
24.0457273038514678	37.7802959029793328	35.2158709977194064
23.6137608653915620	30.9675615658605707	30.8921154340212141
20.6458571104128659	33.3942322931293347	34.8957484827245636
22.5039609028897765	34.7939010971100942	33.3791139707718614
20.1763257108447007	34.9612298223835367	35.2177787595205984
24.2675988487575687	37.1157630030431349	33.0142624418137203
37.8236684641901419	26.4398211632730487	33.5241882700238207
4.9528895649890359	32.5346047465166990	33.0001390968285264
3.2389775363186817	30.1128726492460004	36.0687149770102593
42.9816845859039489	34.5775601885046484	36.5793666373225790
38.5409646961639396	29.8836435391353064	35.8737234098461286
41.4800636069598880	27.3568164108196825	35.0189355770549824
38.9851784347161896	28.4597286226785400	30.6493266834687645
40.4473541436803359	25.5209165113012553	34.3184379029931321
41.3745794326047616	24.3175757997515376	32.6025358887883741
38.6487217888548287	30.7020673949557299	30.9520624448093322
38.2880232640234155	27.7094568752091099	32.0907137278114050
6.9708002386964711	35.3173841197567029	32.8131440052795398
42.2395168134324592	30.8317211116972523	35.7741831760274493
38.5933443683536979	25.2642245797500422	36.0795366654155458
40.7345959233411179	30.3681998081605151	35.2760932458277807
0.4751266142125213	27.2283742606726769	35.7074063083417172
39.2846368356695805	26.5388321940796743	34.9947691123859030
42.6915702942897113	29.0446391249603622	35.6080181890193046
35.6482357949424795	26.8606519234691383	34.0940239447434763
31.9717994901533977	29.0533445459738715	33.9256420317763627
31.0632835841630026	27.0733893620476493	33.3831383333914431
13.6398113547400097	34.6389144991783198	36.2028972486519081
7.3720012525920886	34.1403161831274033	31.2892520760054076
12.3373080198485532	34.8354804706947476	34.7931648745637716
7.2297903612126575	35.0220959592815007	34.8338019346420538
9.3222718729075016	32.5755414029333679	35.6460404592702460
6.1191058323453094	37.2785114871030814	37.5951379024037280
9.3049312557086683	34.7639430763519215	31.3991195843806707
8.0835348342352251	33.9696703502128443	33.0399748031584437
11.3512291346516747	34.1301451078173343	30.6574003147552148
11.8081794742733415	33.6325055082949120	36.5151367185447953
34.8492587077285663	19.8158811485347570	34.0441411002062253
10.9124363992323588	35.3766314049341943	36.0424833811088163
5.5639111670116801	35.7965034997958398	36.2585602995173986
42.4748715669477903	33.6021254705353698	32.4258153079222495
41.6709609579570994	35.0531955729856932	32.4113160023830460
0.1806439636571880	36.2035727280978321	36.9941601658504382
3.6916059467112521	36.6991555702838781	36.3225576852413710
1.0584547956975552	30.9645566433340065	35.6999166407160331
42.5244949493643816	32.7140412509460532	35.7814600009567556
42.0750087428265260	33.8695474393117379	30.3820908532778411
22.5351882178507914	14.7666259717529460	34.2939804041650120
23.6664509235477531	16.8953174382496272	34.3093629301372687
27.8961712515987550	12.7374701405476127	33.7614436396517519
26.4930582511336468	11.5302386157060823	34.1482833429311015
30.3363934913848574	13.8106081704575185	35.9812557108674298
20.2595063533615907	17.3033398747348599	34.8020237516500046
21.5133681207676446	14.2005233813662457	32.5184222047832421
21.5780595284221057	13.4297710602624747	35.8255755383630259
20.2598895371879593	16.3285961133061939	31.6850802327001340
17.5366429400566304	15.1405992233823596	36.7018292281698635
22.7253401299467015	17.9759287569130244	33.9115527693625864
26.0948265337880265	13.4793462653946978	34.8267074756434312
19.0031239223927386	15.8463325806369326	35.3106465964766372
20.6348894658502182	17.1171775804501465	33.0440534866608360
21.9352186879302344	16.1854230566735744	33.8496409419118152
22.0926197547927003	17.7834424579058705	35.8592737214151711
21.3671481065867468	18.4628653298343401	33.2906177107053196
20.9459717650809054	17.3176242487044085	36.9219909964598543
18.0133466746955904	19.2430992161391323	31.7029656506977062
19.8574201804750565	18.4887006307727120	31.4968556536899307
19.1236390130118004	13.8966294084117195	34.2187935328754449
33.0662719058211749	12.2642882511878977	32.4426079746288210
35.3163382261421077	12.2948875414194205	36.0028629037928170
31.5845209411558514	11.2501193114171354	36.4219032882884477
30.6692971859338748	15.0601726823415660	34.3601148110816013
30.7755172210878847	17.1872930285990968	32.9265695391229727
35.4969900470433330	14.3206778832329640	35.0406721181748608
34.4787592519878459	13.5131950417539919	33.0677057608161036
33.0458773047939545	14.2077751281942284	31.6968626403286642
35.3142549046224516	12.7717312926489459	34.2992758028177533
34.4522222541512306	11.6252672810760096	32.4415276456666533
34.6515152765490697	18.7779869783243569	31.9368750267609762
19.0997585832685850	16.1391455090652727	33.7039933646483831
23.4772694856347677	14.7661445979909089	29.3033712094938217
31.3596661826161451	16.9189386636943944	34.8385692453149645
26.9913478284886352	18.4254386166976509	32.8336707303553297
29.3561385165203248	12.7943463865796172	33.0265288443814455
28.6199633527379547	15.1735651494949906	30.6721818272139224
27.9454570532368685	13.4820306316383647	31.7183425819526370
23.6642942783602699	18.7431700125569236	32.7549177770070514
27.0397650985835902	16.8028899567046679	34.5149921733869931
26.5934772297571875	15.1342751895296992	36.0844442597057267
3.1564861211941699	19.1193911997625818	33.7473850127140267
6.8124318690350067	17.9573733788664605	32.1246008211445684
4.6294190966886886	15.3217755891288938	32.1915070534547709
2.2271133955129230	11.5815536478397014	31.0816272453683276
5.1028491810882146	13.7944368914928113	31.9755162470917647
42.9516417267110242	13.8553587087252126	33.4550077359942435
3.0983318642321729	12.6232699742759511	30.1961290882598661
3.6028773209882123	14.8131021039034358	33.3746148593687693
3.9789159932206570	14.4126748799278293	30.3237880386072298
6.6436353546768787	16.4721401858740748	36.2765970285010724
3.6136636319743127	17.9804914926954282	34.8345039031568362
10.2601996419842703	10.5272060218478600	33.1401367903301818
1.6435028955295927	14.5671790289231371	34.6611670758364596
3.3521158265139395	16.9892378969059088	32.9377640843758925
41.9565903920236778	10.2060935214878015	35.7032785597474955
37.3247637611675103	7.9355645441555112	36.0918224561941585
39.8289667284273037	9.2683114333284795	31.7514565041067556
42.4017147914510133	8.5623668651513114	34.2381820684949147
38.9101596023109266	10.9811799453773684	31.8956908977040392
40.6723855545573230	8.3753699074652399	32.6934680148103638
37.1751142324143373	5.4818195612997771	33.5244714222239821
14.1683740613109723	13.9722150148124715	32.5520447490690614
23.2564546672505550	11.3059572174817315	36.5082157470267745
20.4598101340496505	15.2666687717308864	33.8245158777262205
13.3839507638767028	12.3610516825739332	35.4006724982111720
14.8335059479567484	12.1348595711788469	31.8185697292226450
14.2377863507765134	15.8979187033858125	35.6644231351323455
16.1639410964433416	13.7287715203570251	31.8944722862329044
15.9811928243380912	20.3454526849265562	31.8259988743414226
17.4255907270503592	13.8178659213620367	35.5361013942229107
15.7185047591088249	15.2460758414613071	35.5664333441540919
31.6046364104516364	15.3094916143527247	36.2122093532242459
8.3336655232456049	17.4602620704937550	35.8982659172723757
11.0621379654874872	12.0469429882289525	34.7101577534368104
8.8189398085691852	17.8541242387964836	32.7368147122691369
10.7511382793777450	18.0986445563929124	35.8314458393726625
10.2696827413662799	16.5433966650473039	35.8635453077842996
12.8149585330496194	11.9257494675108706	31.6185849042259939
9.5224772895986831	16.0429198695495678	33.9885461547468992
13.2842871234773714	12.9049117926717685	33.7905932768235502
12.5574752885764696	17.2184627166979247	35.8294233648502853
23.0633526213673754	18.3831115839779216	37.6950665022589888
27.8003324174102389	22.5537883220536877	37.4226143623029444
23.1433857459616235	22.1085682181937031	34.5759072781811057
30.7818779667659754	22.6068575677057453	32.9423123794975439
29.0953388190393945	22.1459372336349958	32.0683135772201098
27.8314797794302287	23.3267115073547657	30.7870761373976229
29.8000115470165703	20.8586666582301810	33.5360850800543702
18.3916336411054679	21.6581434464798797	33.3792641637654199
19.2927283493412638	18.7459402007947276	33.4214442510217751
20.8073594891270268	24.2053009411864899	34.7127098569753798
21.7384745353768452	21.6783479308097178	31.3221143550384475
30.1742233336147159	24.9788541627609781	33.2574615930339874
19.2671709394296649	20.9331541395293428	35.1231312289590889
22.0285262168445399	21.6697195251822130	33.4152134213858290
23.0164660909779357	20.6635458042634106	31.5867024087528279
19.7252598006875104	22.7824399698094133	30.8577615921176829
22.6498327132826951	23.6645257165208918	34.5391606072669504
22.8038381287466443	20.1847629643959685	33.2088490173755417
16.8590812922041771	21.5414764707475683	35.2766948926408404
13.4223554009518455	21.5195516764058645	34.0878991844864103
13.9687854622781646	24.5007278569606157	31.8117245734063943
29.5475865982916730	24.0691679590751804	31.8088628669929356
37.0383009263310186	24.8460824992971361	32.8406133289127808
37.3776825089573705	23.9607440304993169	37.7315376281825294
34.3472899436727701	23.6538944006763501	34.3220228464308690
34.8057290828256285	23.7597585146418631	36.6096182501627467
32.3615516165228954	21.4549860108020312	30.4357819810168131
35.3577359687094699	19.4257362548609649	30.1419461545673357
37.6903601198650549	22.9781435207107840	31.6633929853690752
32.7958912547651167	23.0567600609466083	32.9298450199716868
26.8596323664647336	19.5264564927125441	30.8317326702712222
30.6848681617723074	18.7209821049815730	33.4621470419912370
13.7293882078085296	22.8472518498626229	30.3823444102875087
30.1314047040921800	21.6250232257899313	30.4611054814506232
27.1332270432713685	23.9010533481184027	35.8691240069280397
30.2034076747458684	24.9120986273873406	35.4343152495466072
28.1187466965258110	25.5077125495140500	32.8898933096394686
25.3748237044002813	25.9290579923439815	30.8475943034622873
28.1595487918896552	21.2643810830872084	30.6781889768120983
23.3537522723162567	21.8493908681488875	29.7177933293874865
29.8781655972304669	21.9023368077139828	38.2148848884442458
29.5819854705245504	26.1280966653974609	32.1578392574142811
42.8619349522839670	15.6967680378460059	33.7027279613342756
2.0583860873782287	22.5838700170106357	33.0944109597728371
1.4927256393916388	20.3631527571461426	31.5126608120292637
2.9246014985944666	21.0716340081919604	32.6188610812824535
3.2167869918755434	20.2978698826100974	35.5855806845274785
4.1707334305957113	18.9865377924167547	36.0073938893607632
39.0700871423649119	14.5639651355232402	31.4455606402727419
38.4282357041919767	13.1087654693338358	31.1886974946619233
39.7152415394168941	15.4624532402840860	36.0677528136258942
39.2504724584979243	17.5604045221099803	36.6320049018315146
40.3730993180503077	16.4410655112391488	31.1124938455085100
2.0445702145600948	22.4494245565191335	31.1918774595960215
40.6850345337861370	18.0447317727030061	35.4087749943104626
42.8932219847011282	17.3289333644388108	32.0959402057680521
40.7060838260834714	13.3627388434539700	33.3338917753190884
40.8533714785285937	14.2350750309954943	37.4702643990208983
39.0168110175351401	12.5060142151136713	32.7467491632894010
31.2479800779249999	15.3572278649861786	32.0212149398672636
35.6714524069980925	18.6792500696319692	33.1884768290499892
32.2759119611407428	11.0281320996053029	38.4706395282671636
32.8289667406319623	15.7200679726085930	38.0081941675616903
14.6733289669680982	20.8453909176052363	35.6007049484404376
12.8894976876616152	19.2232849791087190	34.6494088555736965
13.0424207928097005	20.5048583003671858	35.8288130033049228
15.1810870547596455	24.2022173209818980	32.8611168554919928
16.2048332101083510	22.3025163599984992	33.2281959242275136
16.9115641575347304	23.3662468234563114	34.2451185964205749
14.7119265317381007	21.5255015068816036	32.0628145230679280
13.3494844122962260	18.9816501033997227	36.4334310761549673
13.5030775065082782	22.7791074502531181	33.1245881561610318
14.0384229641083262	19.7528668212496115	32.6733310006695206
5.1116433722124874	5.1366312383707502	5.7082250163441373
7.1301737872278128	17.1115010969345036	34.2347567904972223
6.4169433248337473	22.6465746822529290	32.4585854839698982
10.1031918655956652	19.8213164923886644	32.9783950158818797
11.4576599705271178	19.9853616146193183	36.0511907473698798
11.5746411238006779	21.5349946125879086	33.2454999212380002
11.1606497633639474	22.0675513027737331	35.7522557701936634
2.2818311259823347	23.0779509391354303	37.7936380403331853
4.3204816774956623	22.5383635281145160	30.5410689154975934
4.3162188191522093	22.4074406190290851	33.3913643910058440
33.0834320493278113	11.8761123024440227	8.9011821180601274
39.0553516302952559	11.6369086725399757	9.1581484831926723
40.8670740617737351	7.9332310183273798	7.7622827290460403
39.3350674153848843	7.0122981665197459	11.9765966877376204
36.7201786527045044	7.9601325945113626	7.6604054894791576
40.0367319411706148	7.3572914079429577	9.8674347033999226
38.7893828991485137	8.4839557432975834	13.4709638205466042
35.5684265840892806	9.2978473985121788	11.2839890756286270
33.3949224785711110	7.3880078423496593	7.1863503265863624
2.9271513377958311	13.0401586967202778	9.3755107683051211
31.7204826263643405	7.9395673244840834	11.7994830635020929
33.6695311754121391	6.8233062304903429	12.3677881556993334
35.1830802930157276	12.2289835809943082	8.9531969356789887
35.6394406517806388	11.3246706944381934	12.5115954010897319
35.0520993535349490	7.2355777856485242	10.7005194026075401
36.8582459036949999	10.7838825745586817	8.9126342359171336
30.5729948008729266	12.5733282507458650	12.0785507104252012
30.8551830603378967	11.4579056754393687	8.6449912217068778
2.6576066044231390	16.9303297210358572	9.4166305833596269
9.0038656474547061	14.5933111103252866	8.1765373072180942
12.1798320545157299	18.4317918964602576	7.6960223704516517
5.2305022375796408	15.1655204999763100	6.7290961187467673
4.2202655381382224	13.1649613881091589	11.3538341063231378
1.2534386261819106	14.7531621090006944	6.4401625266115508
3.5213702702009497	15.0092929183476596	8.5935193653917317
5.9636306202547198	14.2858119504673464	12.0385413366583531
3.1256625410027601	14.8103332032639479	13.7533226209699979
32.5432225953338374	6.4890036695580520	5.5282136031113351
5.7421101501222047	13.4445584006611227	7.4245304740015650
1.9532291871528840	13.8236506029974588	7.9370802750940115
42.8442359056086062	11.8249940944572582	6.2431971008397547
5.6457054511971174	18.2373140424344982	13.0718646035993391
2.7777390007122458	11.0622582588940954	9.3539535072701110
2.8976534021284412	15.8859480553085586	7.4708854419946631
1.7576411497139626	16.9889431626738272	11.5704130888196186
14.6038111596274334	9.9816668033642024	8.0334482556538802
19.3358868988363710	10.5180516066569751	9.6555516355721434
17.1541176457062292	11.2611188361035630	9.5682828971897980
21.5630519403677461	7.4774703904633393	10.4200265383812063
20.5160964924165086	9.4828967142529201	10.0133989882242034
23.6985365199279379	8.1190886706691252	9.2991934825301215
15.8653182159723247	11.6941562528537588	8.0008898613746204
14.2862355935333021	6.4283655339316201	10.8728461558109064
16.8356436889720769	6.9498331081986846	7.3563371388429397
24.3561137852314538	9.0868694650980615	11.0760677301272707
16.2800151612278654	6.3223187954181101	9.5547800763522499
12.8831732808314214	9.0441466334957283	8.9881363198401516
14.2945513074110782	6.0865931777895801	9.1149730217797380
15.7444749241928861	8.8285416987887899	6.5832925342272839
14.1214728333164707	11.9324759569279824	11.9892833170785771
16.3661830382395799	11.5278126961679241	11.7627181173850559
13.7446392164254654	11.2016209911216329	8.3579067989541613
30.0698079990639684	7.9387942171473238	10.0698185478715807
35.0628089850633557	6.9491826262463574	8.6704506406821285
38.1974307936839139	8.4274268311386429	5.9058140538413486
35.8677828709704798	8.6764521387157494	9.4020045797243927
33.0961411161661800	8.2908934316341387	5.3365439113095112
28.1823031916862980	12.2143539709223976	10.9428178735831168
23.0807101799698380	9.2569718477467156	7.4721318571788897
31.5180999734617906	6.4982224922759650	6.8075760453065906
29.7724525933970412	11.6670288754625258	6.9826244016603614
11.3427573846781691	14.5317296585512317	8.2519840205605721
25.4006283399879607	7.7304821849050676	11.0360926090342346
27.7631702825423190	10.1031478717234773	11.0914169008730497
28.8163971107445001	6.4824462665654128	10.6959236476690958
26.9743418059384936	6.8122694926997509	9.6049412011797379
23.7801680728553819	7.1185073502040161	11.0076365942818164
19.6808045007675076	10.0477094392713280	11.9209099345582015
17.9689612438725774	6.0033502804487702	5.7857158449301735
30.0625380938225071	13.2629905722197456	8.3704345864480789
33.2421079404228195	17.6670113036274330	11.0826873243400783
32.8418426779791517	15.5262164321838014	8.6692995508887538
35.5867543044940717	13.0651494944393036	11.0930977309500438
36.9961048651492277	14.8528020881288025	11.9292008136773671
36.0353308514067407	12.5528892558974423	7.0106769974066117
26.9618108102912117	15.8455028749104336	10.0218205470470565
30.7203469756099175	16.4065639792999036	8.6285536307993471
26.8806376618103542	16.7430775823770759	8.2179146334931321
32.6186666226277566	15.8806477585784052	10.5046074465034920
28.8466022798295469	17.8643456360211630	8.2254352053247093
26.3029612228114047	14.7420807278709471	8.3204584655704306
26.3889801545015814	16.8586222989748578	11.8626306922638829
27.6731846134215083	18.0353558104310352	9.6499484559288042
29.5736142157397950	17.0029623106504211	9.6674637284517271
31.7406101114264096	14.5254321847096435	11.5772307651609072
28.0621840070480353	17.4603550024901715	12.7568416112293743
42.1844828871162960	16.7589011222350202	7.8862602692645760
39.6124203772767061	17.6359283915922909	8.7507094408763280
40.8476335758423161	13.2995046228131155	8.8708266767533672
42.3315773317615083	12.9089796154786214	13.3876804974086578
36.5483146895205451	14.5975895671378684	7.6957287169970909
37.7372917523130624	16.2950967655225121	11.4502384377243978
0.0003984669000161	18.8849459551301848	7.5456163097892448
42.8402289316419811	13.4327550202800481	7.5162833430238738
39.0531278974078333	13.5287579378108056	9.4801308001096238
18.1091582728093456	12.0972704061419982	10.4661646534342250
39.6039667801210200	15.2460235422741892	8.9418528116341207
38.9723992070860419	16.8270593743560894	9.9388514957683132
37.7384847481387311	15.4226072096480582	9.4100832970606838
36.7845710119514067	18.3472475179757097	6.6407506995751175
30.8382782419884833	14.9754395322564466	9.7632922170980763
35.6294146045830544	15.3281809432459131	11.1250872488278247
34.8721211527226984	11.5615611429246172	7.4723627333822771
7.5410607113741221	13.2405210580657897	8.4100825732312572
18.0133716538720172	15.4032221371799114	8.7277189177480405
18.9596149957302345	16.2264391030223614	9.7319474509115373
16.1984556408573255	12.5640576988906716	9.9557805222530984
18.2320215079652641	13.9951745381454664	9.4620804860427263
13.9167271638085754	18.1000963486585178	6.7739797518082758
12.0759334043637416	16.3238661621432684	8.3965461265058963
12.6625683676897385	13.0279006831854076	9.2586554175006288
7.2852246874315973	16.8759625504649122	10.0320578344206037
15.7596927214967604	13.9817348100146468	5.5141503208592670
12.0373526675841838	17.2712950767540043	9.7131331821542002
7.0103519488011861	15.3114416618965521	8.3026431706646733
5.8907986047561698	12.2831670122698693	11.2424459476175098
6.5597357130929757	16.2199926881661582	12.2736198713495366
10.0093111810177859	11.6568219607196042	12.0810378656004644
12.5211082103452505	14.9298916268791526	9.7459589426294091
6.1464197104018963	16.6526834820167977	8.1656141634092059
20.6563507757071925	14.5718389305156073	7.0577109042818611
22.1537017198780859	14.1618714915176653	11.0576196397442850
18.6035237049631483	13.6917475140709453	7.3806070359839149
18.7743142378362080	13.9535519765907274	11.2273727326888988
20.3363266985840703	17.3723210661203566	10.9651692427892353
24.1122335885651822	17.0460146087213253	12.1515802728996238
24.4231535242697753	18.5776757105745816	9.2316811352624146
22.4978924554118436	16.9828553150711059	11.7775212616316001
23.2641787626301237	18.0988760459694937	13.7489446995891811
16.1841805545478827	9.5868317380454258	12.7050780428613841
20.1391873281694203	13.5692344123388970	5.8587406906800421
21.0739737898609434	16.0374317183961779	10.4641816878020020
24.2542919527992034	16.6445996953422757	10.2984966381410423
20.7009088045813812	16.8123798560287057	7.4850898824561707
25.0854696713399399	13.0125103640793345	8.4167061722169780
22.9155385621598029	12.4451051516493880	12.3101693017418601
14.6217903093683983	14.0790125982991015	10.3090911547871791
2.4789164188174304	6.3382153392789755	12.3308863660321801
12.1569449122736248	5.6410497457796556	11.0086809527802139
1.1219160932995276	0.3242518390528157	11.1008649761201372
0.1196153707051139	1.4320962939902036	7.2787598140123082
4.7339641954244627	4.9768090494224451	11.9676853163338119
0.5304601174157410	7.2664976471311631	9.5664940445902928
5.7877047974193001	0.9737922483286110	9.5638284461373004
2.6414522422897826	5.2871489864461996	8.8502041087403054
2.9197857873626463	4.6683439404151539	10.9551212541053360
6.3547198622379399	2.2072981858695995	6.4685483027469166
3.4916575262603025	3.8753195834288499	8.8739314460953711
3.1020487580538783	0.7122898235206495	11.7557908535051663
4.1749478848782386	4.1426784280119433	7.4179380803425730
5.1304675259798769	42.9120168314445678	11.3939039460207727
41.4665105824009501	37.4180041228735902	1.7527967741231065
37.7673648115676315	39.6712429471750454	3.9104467999586947
42.3068144106615662	39.6091255741620074	1.6981078996634136
12.2041146748426250	5.9647126947501441	7.0892622009455026
17.4626409514973240	1.7542808160679813	8.3673376567529729
16.8167896928415566	5.3760566193412727	7.7486331903193335
15.8887291833542275	1.5009586222423372	11.2900264107523611
18.0945400865001425	2.0462345616421977	6.8604736511565303
14.0911207887671761	0.8808804758021428	12.6121111201322282
17.0984882507098774	4.8144299298393802	11.2212370775404011
16.1593241866917197	3.1893442149753239	7.7112803787758057
15.6444091329392307	5.1148723874223041	10.6656734822348600
40.5594520300316006	37.4735644723187207	5.8955418343874593
12.6535916181766783	3.8264303051722721	6.6148432413470388
5.5806497127418107	3.2319993715888078	8.7613255762396776
5.8990663793332407	6.8945179535448711	12.3106318772361210
6.4039004359775342	5.5101371651077002	8.5620802483955014
11.0369098448717189	6.2902165220593647	8.9437884173330655
12.3838861299673582	0.0717415061679941	8.7811953635347599
8.4264012207060865	1.8502025533026991	7.1439544076187174
29.6448256498744520	39.7450661003909644	3.9796913122104938
31.3385071022118744	38.3013377204579371	4.9825340874640229
36.0501457257316034	0.3084315453847389	6.3925540984349150
29.6861328284666008	39.2180805725145873	1.7103414360564835
28.9700819277352117	40.7754616156383847	0.5868743493283278
27.6045285953190849	38.9698752659158103	4.8710525069768860
30.1326934668610349	37.2212979582599885	1.9888471727297974
30.0031920915582297	40.7546430583018662	6.4965215569267398
25.4644132419441256	38.1406174132733753	4.2847542476939386
31.9705100369928346	40.0826140734434020	5.4893693557293677
26.7141248703334675	38.4353833209972393	0.3253192499753654
26.2224501760558155	36.3788531180939927	5.3405213509157301
26.3707001078649945	39.6047655478790759	5.7004980042145004
28.8024929421552152	38.4297164877656172	0.3856474085072570
25.5753172850185706	39.6569210646640542	41.9639195564685039
26.0339969676964493	37.9737282455539003	5.8675425779702515
23.8071933117380254	37.6623675922821590	5.4435738379768992
41.6261740002505078	41.9441792104451920	1.1830203120019764
38.6838657761142599	37.6555773854475504	4.5732054292546502
38.1482171323775248	0.1128972190319384	3.3832024792008961
40.1932313143488429	42.7070361565285666	42.5003253668095056
42.4766146102550834	38.9755992493880399	6.2994501316823062
37.6655434131895817	41.5957934264641693	2.9743837401008202
39.9892316989106860	42.1420636815429219	2.6793413421435779
42.1878126409676639	41.4611288342776376	2.5320215481260435
40.2491363305221981	36.2323618280124649	0.5216831536162037
15.2342199128486016	4.0819189404506462	8.7621787783618057
34.1955228082212841	40.4303135748736722	4.9454506413504644
32.0225890988710233	39.6421565063375851	3.4392717024148278
30.8023664272838325	39.6320554289078828	0.0998073971992151
32.6483817439306279	40.0441258453796891	1.2223897680049771
34.6735642197422536	40.0412737725121914	1.5001831174458424
37.1623399042791149	36.2032327986062796	4.5639905778865311
35.9291404437895849	40.5366137607801065	3.3318835095587369
3.2834979388577956	8.5003334864817663	10.6636800892195431
1.4008227073956068	8.4352175738531372	10.2823516863246294
3.0305142448690949	12.0305393922376282	11.1750893798525723
1.7737134194000406	6.2652780179184315	10.4175322672416577
2.2175681136739596	7.4314267711864659	8.8068431531792388
5.0487169033226857	8.3126077590046918	12.0005248396617468
4.9693289981320259	7.0308380179564463	11.0420091440660322
41.8790070752541368	9.9797895403952275	7.1984300667681778
0.7874968504518876	10.4427554976533035	6.3718813498588540
6.4491647127152749	10.4679881987154833	11.8936068388342271
4.5960441223675605	11.4623346791583423	12.5833954953367311
3.9348813793148389	8.8110367311843429	8.3734410303686015
2.2862707038013155	10.1878463906164498	11.3014526289361648
5.1389206095871058	9.8223797883016761	8.4326103299152404
41.0433519372242728	6.2111381035298434	6.1696474754778396
37.7406140996348185	0.9657864380939098	7.6914070067809002
42.5704087625066308	0.8556010645475446	12.3777508504483222
12.5338347530426137	6.7742176137169841	9.3448357009169900
8.5473899817866954	11.3331555229291396	5.9399661781578335
6.6328492223866089	12.1269153475153733	9.1134887729626488
6.5085095380240983	8.5910689277474024	10.6408212932409967
8.3208745207303600	11.1084525637777602	8.2299872782352512
5.9760383086870856	10.6268016227525699	10.1612539490904172
8.8427228122553867	9.0195768604068061	8.7286443050178750
7.0823894796128473	9.5669008400078486	9.0569434824932618
12.2923252113505743	11.7195766905547902	11.5524887875221136
36.6796788417759032	0.9552871466913200	11.9302222697357667
13.3273287223475716	12.4447490605941180	7.2569243946819331
5.7202925995623000	7.6022281289985543	8.1676511938939651
7.3978296747817778	7.5107841643004463	8.8447588725635100
9.3420057697648247	7.2385885140017692	7.5847137693740292
10.6046439345318415	6.9147686588534505	10.8524693677289772
9.4044294932947921	7.4944689150302040	9.2584763140994184
9.6764717718147111	8.2043761764149217	10.7426758427993256
18.9178782714921816	2.2733837226422824	8.3205407452036511
31.8000453696162957	2.1354394271723138	11.3617834333734233
29.7189689276445783	2.9825300585833165	12.0799548060771489
27.2969339271521960	4.7271499598371145	12.5675890488953605
24.9140631025510331	3.4943453861939333	5.0239954565085165
27.0272443899354045	1.0032586893963547	6.8769210593214929
22.0091691263418028	5.9228048244913296	10.5714460503594232
22.5535290614966044	3.7365974158295616	11.1913937510814829
20.3770959390719462	3.3529293682825729	13.3745449023202472
30.3693019003145501	3.1593397261680702	10.4285404643249660
20.2060927545938398	42.2862494397871558	6.7409110428378218
21.6050121670246114	3.9853673399054244	9.9186117161185301
20.3117149156970562	5.6584697672776221	9.6287950351206320
17.6475491730040837	2.6724372550039672	10.2767522804643257
14.2068464449397318	0.8410454177358749	7.9969982348437050
16.2843185520098430	3.3566303454655704	10.5301585427090654
13.9148815669608794	4.9127036131472988	10.0525067342170153
33.4329842116045768	5.8033387005381627	7.7148146156068806
39.9759093296821959	0.3536648758659385	6.8487145940849024
41.9009822617352015	5.6809493830963573	9.3336573980900734
41.1096920833043171	2.1802622172498314	11.6272184933162510
40.7664879027794669	3.8489009071184030	10.1704878097898330
37.7718190010655235	2.7440455380577364	12.1664913663688257
33.4312943515109211	3.5861267523927878	10.8217943160298216
33.2084369186447219	1.9715065177193920	10.4419891773871427
34.3516422702011042	5.7210155905385172	10.5272908197738744
41.5918787905719114	14.7399902453451048	8.3318870598088477
33.5589130858341633	4.1171431505458580	9.2802448703003364
33.7542781681891739	0.9227954354985803	8.9684833293997706
28.5623757549849024	3.2668929827977284	10.3300207609373516
29.0984634612745694	3.7513879849048637	8.8517758377781615
30.2360190509620814	5.1674397904938472	11.4237932869507741
27.9991673099872642	4.9546790625418522	8.7445587697836018
29.2970390016143121	4.9797903767316720	6.9166482868597319
9.3810406274077938	29.9038211043461075	9.1997726426880089
16.9936684512040692	35.1245655444035094	9.4648414977214070
8.2490547805430854	36.1522001619302458	10.6140474706865451
10.7462421749292716	35.6257004323745861	7.3163365979523718
11.4688655048510242	34.6755863621322646	10.4872940044529148
9.7541344600521303	34.9926778857639036	9.2933108011752257
5.8190857167095391	34.6637956452688627	13.4959118595991256
10.1806495566171566	30.0464864986571101	11.1472750359988257
11.6440224055881316	36.2816037751228535	10.3081408136746866
15.1540001241099116	31.0170882521919360	8.5536151102579563
9.7094494534397811	33.7797076902068767	7.9354943910844096
10.4077128346522549	33.1788828347710094	10.0538270497100797
9.9764343027000280	36.5486175461011271	10.5230261817985227
5.9146287904307231	30.4697166604852221	6.3069137184691257
1.2513722709540545	36.5922456745350360	5.3501377528143808
4.7820883813154458	37.5870600616236956	7.6253164845532870
2.1613092562296350	35.3754065652849405	7.7444347194731717
0.4607453022436777	35.2679768458504199	6.3495486917115684
13.5798655954288350	35.1448438253152489	10.0588231171619196
22.4350705128041952	29.9890426951128539	9.9894886697494183
23.5258648643095754	33.6918972933910723	6.5806623087415907
21.3541875077926591	33.9654041060826017	6.6290840423715833
14.6091656849687563	30.8396634508719352	6.8766723053380279
18.4994717191944780	33.6910775190905483	9.1439172184091699
12.8687061309414350	31.8866748545062322	6.2859316345882013
13.3669954140775342	31.7682039270766232	8.2709614479472631
17.1746323043022535	32.5680399229114172	10.2755468301815114
4.9013939514043106	31.5150376145271096	13.0357320522333353
16.7570681270833894	34.9797734710642345	11.6368895197022688
16.3811517326725067	32.7086926834575422	11.7052273670926716
13.6724143393431685	33.0615568229240822	9.1526363631135439
17.3804074526541754	31.7211601109979711	8.7172693826296523
15.4614980375722979	32.2843564412815311	9.5226521984149013
18.7746737095834497	35.5461359919367013	8.3698745799132936
14.9300320084997793	34.9311937000724271	9.1743761573334037
31.8945416049911863	30.5216901514023817	7.0563602245382189
35.9473591179636642	27.2496731110947294	8.7227357290172769
34.1762425785465140	26.0387432859577963	9.9238597380081277
34.4312194818672523	27.6064560023082954	9.9763309890687513
33.2245164446035801	31.1521637897177079	9.7720776950230324
32.6716752642428219	27.6963602930032629	9.0373961465561088
34.2684407756079565	25.4214222009621160	12.2807585899576761
36.0013913484845389	26.5373540758095778	12.8502328219840507
34.9860823803678045	29.8791109844005796	12.6602843124489333
32.8192247244456041	25.3305411848293751	11.4897624131101956
34.4039614032354635	28.2332143315568267	7.6418276386134680
30.6077509507127594	26.9088018782999185	6.9864793776894354
33.9008164910219065	29.7839301470368873	6.0990387365377776
25.9476278339754316	28.7218203917687269	6.0561080712504456
25.7032656477463135	28.4850806364324001	10.2308724835042888
28.2437214427410517	25.4901635215725477	11.2190449974392319
31.4215879611478393	30.9404790305122646	8.6082506411853430
41.6317605487727604	26.3488613430428984	8.8711809070674938
2.9689943004836170	36.9954396879577132	6.7283687629482936
4.7821490397278401	31.1739370349681018	7.8332153226241941
3.9238552990841380	34.8077583577938086	8.3908192075106740
2.1075636017755404	30.2705313006550334	10.8523975819759180
37.0770240921709799	28.8981338435071642	9.5728747191523098
38.0305883987722098	27.4673091515221977	9.4097260526259969
41.6025504354695954	27.2565229833572680	7.0468694801513081
39.5582679977578096	25.9405052655760606	8.8771990904261600
19.9566194053136314	33.8574472588567730	10.6244192759695029
37.8861875879025831	26.1697947185840469	10.2658975070207639
40.5812097744076823	28.5562485855396133	12.0222165062402020
41.2936256154874073	25.1063661572569075	6.5254595108622189
39.0103129623235105	29.9392797189268336	9.8976120514724411
42.8478046973829763	25.1356932109000866	6.2459605904060238
32.7573121175268014	29.1778372901055469	7.5641461494160698
31.2263773062420036	29.3481749186369321	9.0193311345397493
38.7180403150802022	34.4778779962648443	9.5054904108845513
40.1769885496205532	33.6514117472872485	9.7496686482957724
40.4497231607863625	34.5556715410049833	7.9030596630120717
40.1905268867746557	35.8760338758352901	9.3404937937497028
38.4811121492572710	35.1681869244484773	7.5814403092967400
39.4016050797615236	33.2962585403619258	8.0871017310637452
38.7888407969184072	32.1067108131118815	9.0241455234437140
41.3193259737327736	36.4032862725141797	7.5620301706830446
38.0487291063758946	36.4278197291791273	8.4880716315726445
37.6816944303341543	36.0517559759500941	12.8266694123487763
42.4418145546374319	32.6098816080596308	10.2863115442933744
41.3055756757319159	32.8061096963662990	11.5408449920772966
41.5745331155830158	30.9107568354080371	5.9100350088165268
41.4166337892872107	32.8104220151010395	9.0301490486263898
38.9770696606550686	37.9431298694575716	9.1487114598163526
33.9151727365421820	37.1085909912772749	9.9380545341741602
35.2970032034388979	30.1357740284520759	10.4472004229875068
3.5689622327774244	36.7669736219448140	8.5693406058167305
7.9708529903633822	39.7145369647422015	7.7847542689576459
9.4249292576407235	41.7707351077248319	11.4896657491993501
7.2495310091598295	39.9353195255708115	10.4511912497578621
2.2651665049696632	38.2693473342958157	11.4511489366535031
2.4515271244292620	41.8121143706735978	11.0548798525059304
0.2889409257023385	40.1388159187218037	8.0868870813959113
4.1302787109117896	41.7791883883103807	11.9498191436110002
3.9690940810115483	39.0317511399992725	8.8443344920960882
31.1291022483764230	32.5802849424358314	6.9988068354386277
3.1035464677192990	40.6795158227182441	9.7567652535239517
5.9501787631482701	41.7254308527305966	10.5650832517233724
4.7416313695878207	41.3911983094929568	7.6961580484607062
42.6562211849388078	38.2154248251764059	7.9778251385075176
5.1857877066402347	40.4230371709540677	9.6303921708038658
1.1818125519212497	40.9295741828082953	9.2466575812690568
1.9054092468386312	39.0666869939683892	9.4774191620912145
27.7142499098539972	31.0401435823671470	5.8924155927133386
26.4478767255907385	35.0671651491545546	10.4451470409357885
27.5692911674923096	33.5770268559148235	11.6323021130139157
25.9267504929803181	36.7081408319172340	11.3036209440872337
25.3836462251973742	37.0369019478452230	9.5889397520529709
31.1932903642065149	32.2699679456056430	11.6089261415410405
27.1119551767009241	32.0999643627408133	7.2324903972040504
28.5282154763961557	35.1502463581691345	11.1713053601611616
29.6411155796880017	32.5452865110965348	10.6587024574197997
28.1170853090181190	32.1387062583962262	10.9778746920635015
20.9005210731734508	33.1988729819322401	8.3483236395944047
20.4206184843196787	34.6412518005760859	9.3925938091964873
22.3352250028665793	33.7902292712146632	8.2424041065642299
23.0501568365417384	31.2584756652438251	11.6243864194117847
19.3842212143579253	36.2868134964212672	7.0823540653181905
19.4535036771465109	36.0577844322106387	10.8476383309681808
21.2416702572794946	32.0786794155856185	10.7868530655671133
36.8982754508939408	36.6159354210066255	6.8101391083390537
31.7423629105953076	33.8926583087675226	10.4861706130878005
33.4736190106279707	33.3366022968110727	11.7651301877794339
34.3429231012418583	35.8872668022584591	6.0324410137068867
35.5287849886049045	34.5927297490204424	4.4872367131462747
32.2365698148356472	34.2074804725823043	8.2657451812740685
34.4687726484775538	31.3262307143587826	11.1537327781100544
31.6014738444479910	32.5585260643468501	9.5843314228149890
33.4615610828787950	36.2767289281567287	8.0372630274979020
25.0292598984519472	28.3123557236869274	12.4542245146596535
35.0437792181899397	36.8058332325890945	7.9274849043782130
31.0528044001406833	37.0323360352857094	5.9394357428211642
33.4142805931330500	32.8195918454375999	7.1369773597111026
30.1885403472927898	32.8290065817917593	5.6612255487130154
28.2546436950680295	31.5632037630436884	9.0425559324555920
28.7514058606742111	32.4711441022428531	7.1142923414783805
30.3880212342922107	30.4900776798074027	12.7308011461596227
19.4005862042260411	21.4384240643692898	6.1159207954312134
24.1458194962157080	20.1885772418978533	10.5534542863568515
23.7736603554691968	21.6135827019802669	9.0970300081514974
22.1980698912646979	21.5742850073816754	8.9622255270372495
20.3916706622517125	22.0987329349033672	10.0863541431266750
24.1820100567334499	18.8215960522618850	7.1312075784198212
20.1482719888654849	23.3942527852991589	5.9382093731044217
23.0772252372460933	24.2072805241548039	10.9666594372676496
20.1504538698943456	24.1128601119736743	10.9947020685510957
20.0301560586023157	25.0207166048963536	7.2480314199808209
23.3069508084120294	23.6578807070359112	9.0637972732168510
24.2103715852236618	19.7576462336185266	12.7146620041056515
18.3588288079645174	23.7719432395445409	7.0679688043148170
16.7881822295393555	23.8116296584277372	6.7538467110406417
18.3906457021296745	19.6539914128399715	7.1976596958045045
13.4681728333415425	23.7309409361211934	8.1837899829203362
13.1884349163291645	20.1885112686420172	6.8309844876177355
25.8465237212644539	17.7196534816961986	10.3552537645802207
35.3661481002857840	23.4595373498575057	8.4655598864596424
36.6164666038164412	19.9896295894484588	10.0842633259823540
28.1492310875029759	19.4236124229270040	7.1715301240678961
29.3609562760726952	25.2245198926486225	12.4375529420761826
26.6060123862803444	24.5262879671448069	11.4339748462939372
29.4707169723770761	20.8489464617579188	10.3794733746160954
26.0645167513473837	19.5839170442948998	9.6464415735028108
29.1312863919555269	21.5386553860839065	11.8895730352367242
13.4940141483921074	21.6301072476486382	7.5553728846552861
27.3413504108117422	21.4011793912121107	10.4847398358550805
29.7838344337140768	19.5913651970904965	8.6032186153677657
25.7714099392322957	21.0569654692628383	9.0779060392906832
26.1229776228101969	19.4824404067810981	7.4575243829363638
25.3991868494493822	21.0413340961733226	11.1780670058142864
29.3560640043890899	18.8734775289647203	10.4190041034109129
23.9620994035735926	22.2160459721357917	11.1291084423379996
3.6633590244903682	18.9968962161807617	9.1766813618246683
9.5055819872503324	23.1289783833054550	9.8073200102667251
7.6872834239114063	19.1504551266010843	9.8733169315657374
9.6002870778821645	21.8820619887359946	5.3514701198987096
4.6300762493674661	22.6033177068330176	9.5665477278706454
2.2361801860275108	19.5391311197018780	7.8273306462618981
2.3242802903991495	18.2276566859432023	13.1448516076785396
4.9678020952356068	20.7665549000897727	10.2004486671906456
4.1298222141027745	24.5572788081592712	9.8961741119230169
6.8926591324684399	17.6446966942388492	11.4211019856501839
4.0890154866972805	20.5386795406098166	8.8172779553598613
3.1798460337595031	23.0854398015579783	10.9725715071157808
3.0832212253894835	24.5915908580957385	11.9665618087284429
1.4649274672301844	23.6465482568388836	12.1340969411176491
42.3929878632372450	20.7495191630545186	12.3838172662698476
41.1152102052102748	11.8563182427001426	12.3702774677712526
39.1740291658831836	18.5904594048993630	10.8978013546907349
11.4656516970510776	18.7688703314734155	11.4014253460816590
18.1199586335003673	17.6028313113842820	8.2084394775658431
14.7836513805574192	23.5741843707959333	7.2927039716599893
15.0284269611400756	19.9369312179200264	7.0062842307546127
11.2945483760344469	24.0807656985061342	8.9386550932691939
8.6929262983604279	20.9750542948841101	12.4590590866816004
8.0275597040214102	20.6410022365276866	6.2550205851402074
5.4103233099895185	23.8655258018870278	8.1736591489854504
7.2597401579085350	20.1826691549817134	7.7580134495120445
36.0183675905775758	25.3481727153505680	11.2798615630677954
8.5772087834506259	19.7067618349547899	8.1814781878556779
8.4536091528625157	21.5793601861733784	7.3986897944476562
8.0869801196290148	26.3622743288932035	5.8800563776454116
5.5284460076499693	23.4362814473611429	6.6115034955684759
4.9063491991418795	22.2003307079317551	11.6036149379316829
6.2522752062178641	21.9978078364645171	6.8583310326573761
8.7005604796356604	21.0246342460897466	9.6245386643044704
11.6611780145919290	30.0386721218227635	11.8097858811129548
21.2813358553343477	25.5489748906053258	11.6111700744642601
19.7001878607166994	26.6341155544580026	8.9898372676460934
23.7189191228113003	30.3475830612080273	8.3451317237028793
14.6236685531906510	27.1183294612054731	6.3341284540119274
13.6149763549151821	27.7379023158450089	9.3959737333845474
16.7162335757760872	31.4057728527670008	6.1090492417435049
18.3583505474031163	27.5130411747503274	10.6274923114402959
17.4584190825080228	29.1299717996983922	12.0512132210017526
24.2143223306966071	26.5548406167617017	7.3165352877110905
12.3789113538223070	29.2441851707647373	10.6099606780998776
17.0321483132314455	25.4608239342393929	8.0685732154346130
15.4362533466150644	27.1070959028520981	8.0815866563663317
14.9480321640310496	25.5293180126078312	7.6552999609289802
14.9861888067210423	28.9491464850724469	7.5430299972972641
10.6149950340005805	25.8841997578498919	11.7069644891813596
8.6515066595602192	25.2972798544300019	12.4589956793984111
25.7942530360729307	25.2485247117837943	7.5757582628601225
26.2967998756672152	27.1135795923503942	6.3568596458181421
29.5172996928687610	25.4495008185071576	7.8548367113986446
30.6084115447004841	25.3946129742227811	10.8487319866287599
28.1777410099934542	26.5269206495351177	13.4120579235739665
27.3458481392477388	25.4940927528022243	7.3881881514483112
28.0778753893350874	29.9472972196048310	7.8368186750195648
25.3008302077379099	28.0108551152309957	8.1162723748115582
26.5846244210063070	25.2296385007110295	9.5534830373238293
9.9607432190984273	29.1152590588228470	7.0889597525329533
24.6732674157510203	26.0733224123232503	8.8245135661011940
24.8236614923340611	24.7002730319547936	10.2326203092182642
29.4283469056887448	30.5977603883958054	9.6161422215242069
27.5564425858737749	24.9801430042767194	13.2592074757158844
18.5905413661619505	29.8733265465291744	7.9939023786002883
21.1746737538315308	28.5325990099550353	8.8078936888313812
19.1263070309752976	25.8132980017267748	10.8493683565087533
32.0697572531741457	22.7723544990607891	13.3094764411507924
39.0178066483968990	18.2231720134112329	12.7628611762884550
42.3451595861281902	24.5421803547815180	8.3804992232715669
36.7585827516837966	21.6083987871112981	11.5480111897757656
37.2475841852909042	19.9038396777910833	7.8682978726804427
32.3931136671114643	21.0619231207488404	14.0417077233896688
32.7704250218448720	23.8619306331667254	6.4252899889924775
33.5383423636118749	24.0454852959195016	7.8728878315357900
32.0641379803587654	19.6208468998641266	8.0113029990626963
41.1444210617757378	21.2780105504569050	11.5386703476772858
30.6391867132533235	20.0207102022241799	11.0486071084946023
33.1188840360876213	18.8310812834283396	8.9933964129700428
31.5117908953544443	20.6643318733849206	9.2632738097433247
34.7025705995237601	22.5863053544829562	6.7937686926708221
35.8020991344552186	22.1078444675331696	13.6027070032151780
33.6531961752660820	18.5586900682380644	6.7471494582007043
35.9938033882811794	21.6306209740582922	7.0967510228041455
0.1686403641071794	27.7569101272567984	8.3204618568190813
3.9266038586161618	26.6296501300252686	10.5850674430895637
3.0912647326512555	30.0383857080934682	8.9436759261920269
1.5120200915568807	28.6689294851419803	8.0846228011708963
4.6759511519647594	28.4483159454234631	6.6661309090510379
3.3425357784796978	26.6980955833704137	9.4323343973332374
3.0360252565239034	30.1710364782462399	7.2831544030177016
42.5088236112916320	25.8938082015942435	11.7505849374415536
5.9803164180101813	25.4059044676753416	6.4371099775191487
20.8068228763579270	41.1442204877010624	4.8736063587026912
1.5366396457716498	26.5517557383781018	10.8072571504069099
3.6878189507545249	30.5731879306918266	11.1682582378663611
38.8489990731770263	18.7094488942196158	6.8651858450583569
37.9361326768539300	19.7775731329321047	5.9463805619095025
41.2855097598226948	25.4660264408356838	10.1597971457628766
38.9655441245463123	21.6989380339456872	11.2774724671838964
38.6879401949543720	24.8883736918290772	7.3220710909791231
6.3991173774853971	17.0714036914148330	3.6333362144843497
13.4066091675550965	15.3133830796772656	3.6554532197804668
16.5197675535188857	14.1596916610731238	1.5291568786626546
15.1568620693936182	18.2275981072268820	5.6809784302054398
14.5451636850421799	16.9872727075287493	4.7626042119933549
13.5540628948650657	13.8077234393538113	5.5010675217649565
11.6607068043342661	17.2530643745915953	0.8528478926430875
15.9876938011624485	17.7775043389359446	3.5249046757098741
6.1629321202509946	17.8155317239188449	1.4772626910318460
16.8733836367229308	15.9596948731667059	2.6048527533506078
9.9568373096033831	13.1547867503724873	0.4369842613857750
6.1296648898110195	14.9403778620310099	3.4378878785176252
10.1425499759272046	16.9581803937761180	3.2580845148679867
6.1280990356544063	13.7436632274058841	5.2728654922014808
8.2339347468308315	17.3332394449210483	4.2115826163915182
8.4604349338582310	12.2610657175748692	1.9886950176563176
7.4169020228136091	12.2012373735527309	4.1663359097916235
7.2486029055043435	15.5953136552425580	4.4803284041239255
19.7077869281230633	15.8995528233003522	3.0322590967064871
21.3910052003494044	15.5204216291269717	5.9871155208406073
21.8242006669838311	15.2246659728620628	2.7553397853423438
22.8384687307397236	15.6097572027416707	1.0564936568500720
21.7818052000315809	15.5461183195039521	41.9140428017456230
23.0584569316429366	16.9651862312787287	2.6383691816120907
21.5022921924922343	13.5099864113925978	3.8324352236135431
18.4697964136481083	12.4769185698334777	4.7713312502902765
25.0362010544957982	15.6497010492082378	0.6399875234703543
11.2279282222332739	18.8610542070990519	42.8987399061106558
20.9788870352813568	19.2940527909634305	2.8427852753315950
16.3847975923044658	14.0954228995383826	3.4933760672193674
11.9307704945275788	16.3600609879634717	2.4484252831603559
15.6500140592366108	12.6309308874937294	2.5717766509078350
14.6184297798402074	14.8839846105637523	4.6979643575369394
13.2850258721936410	15.3769721528693211	1.4780736980319467
11.0744833920857939	15.2712890336793681	0.5272545140140042
33.1823241785913723	6.5826262711088379	1.3845122533505387
40.7127657321543950	8.1039643511938682	2.5604672838297247
42.4885217153834418	7.4249572323045916	1.4093737707978975
36.3734947125326755	6.6962285920044495	4.6221242364594248
35.5052822504259851	7.9634147821918440	3.3082226335141449
32.7413153360778892	10.7513151250532442	2.1724638032825863
35.9334735653209165	8.9267440617724461	2.1363371817603802
31.2289264322741289	5.3167833505912139	2.0465101269795754
34.3622232676434791	8.2088384608595941	1.8059145739897506
40.0251206649876892	9.9917863731960725	1.2762280294833377
34.8284780035057153	6.3243658532291649	1.4198276222542310
32.4470253745837240	13.2679885265266115	3.9149914733197280
36.4166536599162782	10.0090658311853407	4.0113438202499871
36.8729894037449810	11.6061182374692269	4.6970150898314573
31.7774698745694266	11.3943675747862709	3.7293612600769586
34.1595397956591995	7.2534542052046520	4.0194585415606365
30.3101077590833619	11.0794695924929041	5.5515219527943360
4.0876688053678985	14.8461882856916993	3.0538396575043563
8.0198776278600761	17.6417883048563233	2.6418052542572679
11.9726607249080921	17.8272917327287459	3.8864657761227086
4.8660981762910094	16.9339751634425397	3.2788881206575322
2.1538477252130908	14.0554629305907373	2.2515061244318462
3.5817355216320497	14.9940946132151076	6.3424242207192032
1.5922948852140448	16.6847751304519925	2.4325449749818340
4.9695551350996414	13.2304518504167348	2.8252265770380900
4.6909465098144389	16.0784660801186057	4.7168495428180011
19.3617591456793612	17.9538371474708889	3.5090878800876553
38.5128071854454390	6.8602995132102436	4.3037354434068735
36.5941560424172678	6.8096664572390999	1.6116608462440094
42.1551018976330596	11.4201645387043627	2.4343656330174777
39.6049370309467434	6.2295326624980429	2.4288103679344517
37.9755380249237078	11.2642400805271876	3.4326029121736514
38.2764438673549350	9.2435066808552389	4.4856444296322815
39.3248135617822285	8.2836110020893994	1.8019068839391059
42.8746390179773087	19.6817175695795967	3.5353455310834918
42.4428414324189731	19.9160002587446385	42.8961203492263365
39.9299285685935743	14.1005874226366998	1.6651803697775773
37.9375000773523894	18.3972848643776032	3.1523446158199295
41.7001431408177510	17.8480382865986478	4.3027131295819032
42.5109569898833186	12.7310197129329374	3.8553819823385105
0.2535734225916228	13.6441449943693165	0.7365037261963826
41.3160549887330220	15.3761757098736602	2.9740319095507024
42.3432666772655537	15.3667586366226523	6.4638424047761163
41.8192369032388029	13.6587192169089953	5.7516917140646395
38.2912951720371026	10.7476292406572664	5.8159397744632475
40.9783496258679136	18.7708488616814329	0.6303729947518939
42.6761137138026001	14.7235834318812771	4.7567664999677888
35.7317623195570064	15.4199599450764495	4.7232894292339509
41.0772271737312380	12.5173355475277521	1.0806133012003198
39.3336393530573289	12.1004221026062115	0.6984173045832965
41.2495939655980663	15.7173316747340603	4.9111185181175685
5.1752406863210823	22.5148715547140448	0.9310099190720995
12.4904851908871031	19.2069963653517490	1.2408358918363676
14.5599186920530492	20.8992019261850359	5.4897592082818942
10.4001593473842657	22.6137880674744238	3.2359041334636962
10.4687413683356212	23.4329204004919518	1.5064302506475173
6.5578916354831271	18.5427777814665937	2.7909057016124046
3.4769591727124047	24.0588000337291739	1.0102612703788296
3.6061554699880185	23.2432951729706652	3.0461815992399162
1.5808862895029905	19.8470593938809117	0.6905707822895245
36.1709415973853723	17.6750414992679623	4.6153805461720214
1.1612242927868084	20.3657347507644850	4.8550321573759181
0.7440016227233017	18.3727278408420602	3.7755233516643072
5.4284178906732610	19.4278801916189359	0.6079946261002632
2.8226414173502161	20.3789930729861197	2.5898463122811308
4.9969945648485101	22.5155853656294731	4.8014044359566599
4.7747438054766249	19.9136975394542262	2.2937822834763844
39.9511658575586281	11.6604952128380379	2.4005127653313356
26.5490656095130397	17.0238401272165873	2.2036292118007093
25.6218177357742540	15.9581673329931633	6.9179661621006794
24.9118695881912195	18.1401521559880408	2.0121735944311121
26.3165302506982073	14.8501942752394225	5.9435037218435207
25.3323925089517381	16.9914518085577804	5.2130671612346440
27.8498302941339553	13.0119528101798974	2.8891975482322616
31.9363557251383234	12.5007329228386599	1.9096750201004302
26.2595259908813468	17.8952466559217704	4.1426262035431751
26.8180769607222516	16.3329376123808458	5.3434234158817508
27.9599722548985063	14.8147430200237320	4.3797863765286609
26.3411371727581027	18.1682235501905218	6.4454724626470137
29.6761558921825568	18.5745014563684734	3.0371002314689184
31.1286532451195690	16.5572535582813494	1.9897747475146688
27.6776245446959592	16.3019528957323843	3.1180164093256209
30.6635576228789404	14.3891862118204887	1.2419214676878130
23.0170496218177156	19.0836567817265959	3.5963077258046110
23.0007586185644755	13.2370821823314166	3.3261797276272138
34.1626419717486485	17.3945834212033752	3.7385429765001819
35.9565489990284632	12.6300619781754850	3.3784721496741597
33.9317448955182002	15.1790313451996273	4.5827714354167890
33.9786152809566389	16.5359312992796923	5.5415128185956748
34.0591444215670975	14.8954205964439961	6.8464344731996114
34.5669582247810467	16.5627094930034175	2.1313206073369870
32.1107129519025918	15.2480415018753757	7.2578575027581955
34.8420033045146980	18.3482323662934554	5.4978398657133587
35.2419882213179818	14.6443040479898858	2.9091039593585735
24.3083986171309547	11.1509424101280477	7.2970650644640376
34.5096788504745575	13.6084789312890422	4.3384703559963906
35.2140783512188378	11.7099600484557751	5.1840701618727669
32.3627678078707461	14.1955841224541413	5.2779540361695645
28.2880625249876090	11.2988115411506325	1.6358194175949787
30.7804847733734022	12.5900821285197395	5.0881391337102917
26.7011449908377685	12.4776998876928396	1.2520276067465470
29.4272702090317075	16.4894993255174604	3.9799542908474161
13.1228333305487492	2.2522520128368217	5.1734512274570115
22.3481165810387914	1.1640758453766495	3.5305182539940936
24.1994789946797226	0.4746872951962290	2.9469893784788099
19.2831337867829369	4.6032553169191415	42.9226317512971463
21.3554133459852160	3.2820816928286995	2.9526279415995464
23.6836243025837589	4.3933603431381920	4.5282397702438493
20.3706322055723241	4.3914045503836334	4.7736299223478786
23.2129743978981580	2.4467850262629169	3.8830439741537042
13.5321303818106600	5.1336283067564539	42.6796414172829728
20.9945072420398731	1.8590827070071194	4.1592664729830391
13.1026597926381605	6.5590161269277001	4.9291752443616117
18.9366231941670371	1.4470232392921767	4.7890086485528514
15.9117179127941757	2.3018727950626148	1.8195511687912755
12.2665367105133480	3.3883477605523340	1.9896025773549473
17.3867574736753454	4.0517914549636913	42.8439815787075844
15.1944483705134097	3.9174705834992949	0.7133436118222128
16.0350505673916963	6.9809074308479371	3.7480180801490106
28.0778072341984810	3.4027828243381970	1.9010766293061230
27.8180827560068238	1.4565414850930694	3.8801264771161370
26.7800941946509283	0.7210531910933937	5.3484628251188644
26.6736997126464672	2.1185652283603278	0.8543230815110450
29.7979739410651909	2.3715536235234702	4.6715130734253982
27.1345057508343324	42.9123232114240594	1.1134035423878217
26.4005240458521762	0.2176056201203407	3.1992108267751944
27.7840016829575092	1.2196688068850936	1.6536454471512942
29.2564034949076444	4.4512136120263524	1.5766672501540178
18.1197912406755215	1.6476028590439955	1.6546892633418437
23.5065224157013937	6.5772018022819756	42.2296152662979125
23.5152861784735130	5.0033768704352291	0.8422136562930528
20.3618931115626935	3.8611433688750343	0.9341665926244110
19.5590120951372697	3.1230974771255751	3.7664439691157701
18.3464455243021511	4.1873504060844553	4.6689957418573096
20.4573051308769784	6.1796474402859527	0.8224809060925031
19.1154941012167328	3.1309309068577731	6.1400440506542298
5.1529975578691323	3.5124031712847628	5.4375124849912702
5.1245184692705026	5.8107848275156719	2.2234669837069094
3.6940754820902217	4.3594107619849947	1.1229811624256565
0.0229253943946719	2.6689228397235869	3.0426412636664657
5.0607647557007356	42.7514082658902907	0.7686625971968204
42.2313047585908166	5.1368090851124757	4.6211680238055166
0.5123133000531847	3.4637835945910642	4.4745998835913339
41.9083249891916907	1.3784056997872003	5.7096628453565534
0.4979426839798579	1.8087978561801972	5.6923480255770702
6.6694106050789408	3.9669022170488342	4.4525624522206755
1.9901591560554679	3.5047018770761813	2.4776984530765276
42.7197817436234075	42.6606470588092535	5.4764564775525075
1.7114904676854166	2.6161756403090095	6.3010574365592884
2.3726490424162119	5.7558995528506234	4.6986957568392977
41.6581036630605865	42.9149433693450533	6.9893252073261980
3.5402664476882517	1.4409665834424461	0.0420762476823733
41.4885761101993964	3.1707095842635606	3.2899223656681693
7.2934081473179253	42.7011035104735086	0.0171637747300486
8.4610764906323048	1.0809103594669014	5.2376282994343555
7.8195707402251458	2.8486545480650372	5.6056088399612038
12.6737529650424054	1.2036972328630364	2.2746001193212955
10.7661722984659711	2.1483680745033964	41.8745991328561473
6.9610752044837758	4.0184386744577623	2.8519366999315370
11.7266558273835670	1.4900117640950292	0.9138614711856662
7.2251880873353027	5.1789054645036616	1.3318871666486192
5.1881136970731099	4.9689988537550622	0.8405303912155865
25.4554056974842524	5.5210759593605010	4.1498608426356700
8.0663311625055840	4.8620236514093227	4.3988098265938076
7.8074519387589074	3.3190618562573770	0.9170537638310785
11.7957011203176076	5.1675288820157323	3.2995731836491946
10.1996536980319537	5.1494813588479653	3.7737944716025820
6.5871693775527609	2.2139313129219556	4.4050673592844856
10.6890934213560360	6.3467823649787878	1.8355555065511733
11.7460997783431864	3.9309283397735562	5.0055707691239757
10.8981138878821273	9.0624900988778521	1.6083252043085516
16.6448193930358279	11.7914499059965650	5.8098629084421498
15.3260445979240600	10.6993389016865610	4.4878872869780713
17.8329493385538562	8.7492167156355265	2.7812121342144112
16.1325235194080321	8.7983121090640655	1.2326312195650513
16.3769631746806752	9.5688485256110791	3.0631227032213864
16.9276196632651015	5.7299374234233600	4.2296370174477049
13.6893594710721800	11.6611201721166218	5.8652287432445087
14.9755577698110347	10.8850214802207841	6.5230397127200668
13.0676478263316049	7.2997379074955733	3.1546673048701299
11.7880267317670064	7.6813881420143018	1.4692489131856683
5.9394128463850633	5.5047614708162120	4.1399264162313001
11.5369179980984260	6.4004383161892848	5.1483596044970117
8.5590520635869414	11.0713532338844924	3.7807997907945228
9.8322306964901909	9.1447362645907830	3.4346862741229520
11.2804481445572833	6.8225782759533518	3.5074001796552370
9.0686671400549752	11.7827851073965313	42.8988687814392264
19.5172043563705984	9.4748030146121316	1.8486096468360000
28.7438296829446536	9.2553511877940018	1.4495123524771278
27.1272332676458277	5.9535613219371619	2.6117462004609240
29.5736097357652135	6.8471911259274894	6.8858597114800597
28.8747585325483591	7.2935274926674936	2.7466994488935992
19.9168967798432170	6.2909290007957530	5.2119680956207652
20.9540844593756823	9.8240534287515118	8.0542860337297295
21.7902322167580493	5.7274639200512247	4.3266051396785334
22.7004107917988733	5.6183144037272639	3.0195478875633208
9.6584406361449311	7.0040432581376937	5.2816948096710998
19.4108192365513084	9.1406439204889480	3.6665916022550951
17.0045352754761154	12.0738051610662431	4.1342316087720787
20.7532956633412766	7.7366210918437517	1.2178820383416642
18.4007498007757135	10.7247425621339563	3.2641033991720030
22.5426635888759108	6.2624728572843305	1.2010911995798432
18.8685483251713251	7.9554391857416062	0.9314873755123220
18.1947371431866287	7.4396420274948927	4.5126835333968183
32.8780701813211138	5.0793779899943967	2.0158515015850749
0.5235411780940961	5.4998850950205469	3.7523105582501985
39.2874457612890282	6.7237929784052204	0.6858796575892060
32.9426004603843268	1.5702308829521952	6.1465228610237332
33.2631766533634021	2.4949547229755544	1.1676398393655587
32.0114104917498636	2.6289423277412149	4.5676481634383519
36.7379771303958904	0.1733730193632789	4.2396619432089597
31.7098696859731461	1.3871428207694956	2.8682200413420524
31.4871384526406644	42.8458244238176320	42.3500844381145853
37.1225800553053844	1.5044709359728841	5.0369579442746364
34.1845145483554091	3.3726975609583110	3.0825203670173167
33.8615949910674274	2.8944447491580347	4.5961423466132096
31.7860105627522387	1.1653934946943401	0.6600921971280560
32.5043133681156888	3.4350628427975600	2.9355376319029465
28.9400290980340067	2.9206438962830084	42.8873603060276878
29.0829295891749062	5.6555501385343625	2.7156226979596858
30.1979716934829909	6.1386968666016637	5.1659177727208681
5.3673781731050010	12.1599786501517784	4.3617682606910275
1.3234953953447854	8.1522550861751135	2.2174915116372835
3.3470613345525440	13.1216796238931721	3.7410276816974770
4.9546314983186441	11.2237334887027416	2.7489909872858984
4.0354394267928315	8.5788213055868585	0.3145594823978846
1.7549675054711833	11.7793526214119613	4.8092004313962420
4.5045307427269652	6.5087603891922390	4.2996753388927447
2.4507018352298964	6.8669747668900172	3.5491272798936508
2.7886408640530278	7.6512469364705078	41.6806801933245339
15.2054188587018970	23.1262305680985527	4.6558342360778582
36.0855138615393258	2.9324497704542019	3.7868323674014905
37.2149006079077864	3.3949170987671202	1.8504392553969358
41.6978713190657970	6.3104972386182938	2.6896957245360573
42.1990321043693655	2.1112300598268963	1.2020597407599594
40.4947088556585797	5.4631296432195313	4.2486344773231934
41.0997599541994987	6.0269649424008547	0.9408300367914970
39.1408831323003881	4.7354022610660600	3.9702773669889511
19.8979226307634498	32.1709847056385385	2.1083840234756801
27.5933548718333661	33.1986844797880067	1.7878861586681156
23.8422779086349124	30.6041158042467174	1.7948848882875110
27.5810255807352362	34.6201932274690094	4.6045906428720222
25.7560134678415764	32.9330157107811630	0.3441011648448646
29.2699229685589408	32.2235515105999042	0.2197166914534407
28.6436506202224237	35.0215644118781455	3.0110536879966112
27.3693265678577298	32.4870920826186662	5.1316984479863059
20.3970258226197387	39.5681260710724700	1.0324924558132087
29.7764092637836875	35.2792886685635096	0.2454902310117799
22.8438399404152506	31.6980196960406531	8.3581193798173317
21.7767260612709634	35.3120159507466695	1.4409225470184681
23.0269190959191299	31.6024106429883673	0.8194557683777328
17.8094000891039954	30.5328743577325241	1.2749109280333770
21.5261637881213161	33.0006324382030982	1.0880839942918623
24.2394555757939081	32.5930290057823271	5.6209204475089152
22.3414835730372587	33.9851327907237959	5.1018168050851385
32.7346457166188216	32.3680289466119859	42.8372861923899109
36.8518187300232967	34.4551411243944798	3.2242514042989652
35.1936719779639304	34.5772842626316503	2.0045583396005675
30.4590058452421175	33.6128963720875760	1.4523592762478812
34.5730502663855432	30.8669780544044130	2.5916383401207455
34.5130017949317534	32.0629961417772407	1.4363111430271833
32.4378473586665237	33.4195020481836025	6.0535547917824912
34.6167255874008646	32.8125104750807850	5.3458979569511440
35.1060929506256869	33.0829211167274906	3.2198584321041577
20.0720184363702252	34.4519309296963598	5.0856810647762209
25.8762134628950733	31.0504373860574745	5.8721763023408489
25.8514078198243737	34.1921088451024673	41.4192015817709418
29.8433034479982204	36.7651602046798232	4.0773486696183516
24.1561208011658088	29.2339579331079946	3.4678953690769756
28.1437983571979196	33.0664491062509214	3.2943326797070989
24.8195190979797573	31.8499435189824531	7.0665743802675527
30.7844693830594345	32.1252141516638332	1.8714938180896790
11.0175899105603907	36.7562953432530932	6.1042564315322014
6.5247286136243776	36.7038638745038526	4.7253625819667189
9.3151977906751764	32.3872234565641719	3.7378346503800781
6.2344564998819916	34.6982058699415532	5.5116431636679897
10.5243723489219114	35.7494213147956259	0.2357801911339955
6.1931439533550749	30.2339735492394084	4.2060296154653436
6.7814429044104152	32.7918499681826390	0.3420372366124296
12.6870489752115070	32.7032165161689576	4.5422652730635305
9.1998995162253365	36.0683080231660611	7.4881341527565892
17.8215076973868207	32.3977038427953588	0.0551405639239828
7.5416947948467365	34.5505615415596310	1.2743218772954206
8.5536506281779303	33.8221729398924822	3.3860491040595933
11.9150509794360460	33.9228299389003567	0.7019742617460407
7.2045295145496446	36.6072202131674018	0.5893439191660637
9.1380551131045191	33.2941919020771806	5.6740516629977753
8.7743073119410688	33.5753464799938115	1.7519541431571888
6.9140918096432316	34.4138597399723594	42.8558271389930709
12.7574232828923808	31.7855287560832913	1.1220319291979577
19.4367120976679360	34.0425755776918422	6.7718167280847785
22.5530876389437083	34.6270782124334815	0.2180179401456888
19.3673794862496784	36.5625096958804789	4.8198539342482709
25.0063502062859904	32.5434748348537539	41.8912332023235479
21.5726094229542298	32.1239711789586480	42.3312304183507351
21.9864602933133177	31.8259834495699145	2.5675266388882423
17.1528801651617151	34.4818710268875748	2.5875334302286261
13.1813624403815837	34.0590918748649827	5.3763570384237740
40.3668970433554435	35.6216749562303789	2.4541370796270217
18.3910068018638668	37.6046368995347322	5.5587431641527383
18.1564841138122830	32.4467182002864831	3.0373034142504309
18.4894517459906496	32.8241959320338381	5.2275806713569661
13.6567433874686799	30.1140528106801639	2.2342740134602077
11.3107339157146409	30.3389112866908697	5.9099592845160140
12.8933903503187555	34.9885579667946374	4.0289669603119034
18.2170272477724708	31.2556864597976194	4.8467104397112823
15.1467001554994365	41.5091311354261236	4.8802256983751811
18.0549386801768605	40.4175296758140377	41.2962015607633433
17.6268322114645741	40.0198261658657728	42.8586109561024173
12.6577616336917860	39.1615385161830289	1.3513235859121082
16.5842407110526615	39.9041416382749148	3.8185259256555195
17.3883515300059912	36.6978250935773929	2.0115631176334055
11.8697521632803262	42.5401751002204520	42.7845012871213015
18.3525818065346336	38.5412750510278812	3.7247397999448610
12.6364190883133141	42.5836207161286993	2.0729343705047030
12.9307346383132753	40.3822537503198191	6.2173763929413060
18.4034866042877674	38.4990113450817404	1.0099575822371187
12.5029419378226763	36.1010067465731552	5.7946202671891633
16.6338566073742591	38.8039044163849027	6.4804078592982588
7.2750761051577078	40.9877170632619254	42.0982141259406433
7.1546593862098007	38.0497199231334022	1.3631845381682188
8.8253028398347997	37.3224203290463308	42.8084397371309393
7.3228171359699381	38.3897582195949383	3.5752372521654872
23.4193899018313800	38.7240314105669370	3.6176906260990775
23.1413999481581030	38.5754272716961566	1.4081217336076564
20.9824607461911050	41.7479144838192653	0.2136904617225720
22.1747969978853803	39.4610267906151293	2.4787942342436633
19.4230201760945107	42.2251882006519423	4.7936143049989850
24.8334189548856372	37.4718920466592209	0.4747391811202617
22.2365482865006108	39.2061037828291816	4.7593551612006371
19.9641980825915795	38.9884344562341170	2.4429996148556761
19.9698329031581565	39.9659668022974017	4.1151284931649110
9.0673220721574133	41.2555990927714262	42.9368485321615552
22.7394548661923217	42.2144070117913444	1.6350310057676563
22.4003413847827915	40.6203083091336978	4.6511435225880460
21.3466137515191754	42.7541237231124924	4.9006326064977905
24.4956000574259747	41.9148852586261995	2.9387712641970865
15.0409342288728460	40.1690004363781341	6.2677936441778597
17.3086966118557974	38.9389265472708672	2.0174706937484599
13.7074647214422729	0.2486564472730928	4.0395050514858122
37.9666135876679789	32.7880655670478873	3.4462580812677563
3.3067395023349775	41.4148391800441900	3.4330066519825615
1.2642049039074841	41.4465552316509758	2.5840569911412814
0.3066752220460426	41.2869141154887345	0.7346273574876777
42.3325799880987077	32.0187172016410102	3.0762367609942363
38.3429387809470228	36.3951773485351922	2.8499548058527360
39.0001560915288863	34.4252256352035033	2.7770574312025071
38.0572214847494266	31.9125769293474555	6.9395230363386258
39.3347681683382433	34.9990381469282781	1.2254064987156938
4.7202634271646726	40.5543770485147874	3.6151677143996128
41.6298641381572807	34.1474185897237774	3.4340832591345576
40.5326531510167172	33.6740074509194045	2.2171877525628307
41.8546004377073970	36.1763582530155219	3.5050866666672622
42.2116857950943825	37.0533058094986885	6.3443582287534062
0.3396752585108369	35.1590130567932988	4.4180885135042320
36.1427814396895712	31.1670292759405534	5.7408541082313427
41.6954335362517341	35.6437207971188528	0.8523751009831227
4.6746005331179781	41.8263947444614246	5.3183117373875834
5.5810294677531500	42.2589415297744111	6.6150822335707593
6.5193930941644167	39.8031454156108779	2.2498314666179384
6.0839220969323176	41.3002132434306191	0.4975063249316092
11.1682832043573352	40.7056463731837397	0.8677514847324513
8.2285022920608686	39.2020249829711673	5.5430958108877046
3.3605308635127407	41.3037333070324593	1.7360840038791372
1.6485623336993445	38.3779358588021751	5.8835428697149093
3.7812831147302295	36.9433885638649571	2.2529659475701047
3.9486548363066536	32.6224268240193922	1.2873711247527944
5.9274593039865620	37.8281722367706053	2.8692058999390335
0.1308903943404141	0.3814593668362493	0.3550406368189983
1.8323666238115897	40.6481044246964842	0.7117406331941665
5.0373639592392250	40.8270947394125372	2.0245424020598213
3.5936720675628986	40.4813656155595396	42.6946131220311358
1.8612222337711648	41.2488378610685089	41.8156345344600808
5.4854649696452089	40.0618127646719842	41.8162387315220201
0.6536422810015385	30.0319859574182146	2.8318453555131144
4.4926443649590917	26.4480308140864153	5.5452494877888832
6.4894889767115185	25.7621609729253009	4.9148603661781749
0.2039822570080551	27.4759098613297859	6.4003552964674286
1.3050578515381341	27.7365855919742295	2.5792165738179369
2.5548326774138337	27.4775848662630615	42.6910840075778637
0.3259870294077692	31.0605056670716806	4.4516673651152177
2.2707252641756597	29.6177499272682567	41.9137837721820503
3.9719447269067478	28.4994665434901222	42.5776593034243049
0.4386314020939826	25.9836918723896950	1.9035625478826999
3.2899696658833086	27.5394240339555552	1.5495155641810845
42.5270272593522520	21.7836095285438169	2.5288940335652201
41.6290960004851485	24.5169374722233115	1.1963464440197196
39.2376365210704705	18.7394101330679561	4.6152649519780971
0.5152363985649002	20.2484737873663398	6.8249224100657857
39.3264211358640168	18.5707547278102503	2.2492277189606185
36.2685565880111866	19.1533623875840817	3.4775952463236584
10.4647876046441688	28.4906221470386285	1.7974343489382092
12.2429862308735320	29.6785045158612490	1.1104184912807971
16.3794213652197733	29.0250415550690768	1.7069761353819584
15.4190050842737811	29.5184657161595077	42.8158546672409130
12.6714970060756773	27.6790614745967787	5.1613144728720473
17.0028974275040774	25.2056592588533768	4.2737414619872185
11.0635880345076565	28.3448951095405448	3.6570906217391577
7.5682518196695785	28.5102128202094072	3.4580313380266627
9.7944054316209694	30.1441380963091881	3.6818568856163614
32.4042540625492137	23.6221914206699566	4.1786567363057570
9.3912966186848763	27.2171478086099867	2.9697671503354348
11.1267281179307655	26.9566972973192982	2.0757687735175971
11.9752786395992299	25.8774800423637146	1.4005753997302928
8.1051366735710264	26.3716136197609465	3.3719207082439620
10.6601107724509543	28.6443630048444788	5.1853847665735797
10.0660591799189305	25.1519030169965774	2.6690443181965904
1.8674797097736613	24.1566519093009369	2.0714121487424104
19.4621463287343381	20.0089420064367225	2.6442784490824942
24.2119376526607439	17.9002924011021562	3.4076337248032549
22.5307553356505181	24.4580586369544939	2.3761904491821011
21.1983667567379150	24.8630938397386032	5.2769443621827596
21.7867095989148325	20.2979018282243473	42.6942646230712555
20.8612494357571627	22.5547350325789360	4.6285943911174616
21.5118143487882278	20.8140179003128907	3.3024548963064473
18.6527552361588960	21.4564503531917055	1.0477805251720265
23.5301300386082701	19.9296021532221062	5.5076591272653479
19.8754596890443587	18.1337209560831383	5.7841181979396055
18.8790838401239789	23.4151621990350876	1.7884098698696371
20.7298543620942439	24.5581710449990283	2.7887178849982388
21.2895116470725689	22.5052136478996410	2.5013998977081089
11.9039515130199529	21.0826562599292302	2.2886291203409610
14.5383687959753409	21.6091853956327569	0.5040874563095503
12.8918109711716298	19.1603714973604866	5.5819574808754817
16.0342055338006126	21.6449822580145401	5.8751386144560662
27.1772891205266127	23.2655455581374895	3.1276104385161814
32.8391066532198437	17.9710605310878115	2.0503204207628927
37.2895967845322645	19.4314185861269912	1.5252497189510927
33.7951776753300877	23.6264279768029759	2.5780444093548938
37.4700153889735290	21.6758403629324938	4.8665806311330879
34.5832528086737412	20.4852087537159093	5.9861379094359677
30.9462740050261189	24.0796791316105043	2.3283996565228242
28.9261846947987955	23.8933340402579155	2.5947662351927412
28.5186681187542170	22.3785265038401420	1.9619580265253602
15.2077692080936835	28.8817307041525950	3.3569480453142546
24.4624424761243233	20.1180490500725639	3.4175419877302380
28.3170845393149335	21.9603822716826080	3.8569637579048637
30.0143846937893741	20.4471781204522394	1.9060576679188053
27.1829480820119649	20.0341066466804989	4.0684906040616111
29.6683019304409044	23.6389851279888177	0.8318736346298417
25.3680937462948215	22.3302369829513836	3.0602478516525720
23.2184764455276458	19.8319151026092904	7.8768820058189117
35.6513034853337984	27.4622898941362727	4.4293577413538481
40.2613056907665268	29.0689119074082996	3.4249237057492836
42.6490749907607452	26.7542665556475683	3.6192840866483009
37.5436875716953011	23.7469414897700801	5.7334332573802822
38.5559213385549739	27.3786873840105187	0.8200341375871575
41.1281957260048898	23.5339332462776625	2.9018661533711478
40.5079540453021139	28.8072427495514383	1.0602828566777558
40.1703460528955461	29.6795738336346240	4.9457938655677074
32.4053091727127267	26.8367703543480189	0.6708542311965296
37.4300561046636631	29.0408898002531650	0.2301029276222439
34.0210496375733840	30.0503627137496636	0.6009618469898808
35.5809987190396200	29.9240140025521377	1.0972172930475317
33.2758103404762196	27.2579285852635955	1.9772642131861555
32.6966433796120555	25.1069916768544950	1.7975755219537843
30.9858708047037226	26.7780782685190673	4.8412403839418499
34.8032667319588995	28.6524216227321915	2.8605158671911952
30.6779478700666175	24.7929511976681169	3.8018828644004161
2.0820337107433562	33.7973574300413517	7.3396040029321261
4.8243584809364579	33.2597314355143894	4.4557246699910431
1.1534102054186703	33.6769438077930232	5.8143406184893678
4.5438882440603647	30.1383659141144378	5.6962668350563428
3.2636719679569963	33.7431294171577960	2.9159830525087962
2.2072413599772922	35.7082972276666268	3.4874965394695576
5.1110087210485160	37.1119633913065883	1.2967591798117548
3.3327737065467269	36.2610973036159550	0.1611389262279397
4.6087453155999469	30.8385515077310934	42.9014794435365090
32.0646081952566391	28.9112527521336879	1.7193323369982316
2.8347844835962226	34.5929744404487138	1.3748491306760231
37.5725555568628380	29.2742613536563709	1.8354388306774534
38.5193582484108319	30.5339814984213795	3.5440837595211829
36.9123330548753117	25.6635777637237190	0.5171585498874647
41.9388331642606857	26.2508055950970309	5.4804572283859487
39.3748459303346152	29.9620114925303156	2.0466552780380445
41.5549929640119018	28.0155939467432695	5.0822432639924582
23.3126939939591331	28.6211040260835716	4.7325064114305535
27.5981669608925202	27.9169836529249267	4.7123698896376895
24.1595655266293932	25.2380887816038673	1.0332598371875903
18.6117093883416231	29.3024818874251061	5.8863517850389426
21.8102445033839558	28.2762273105192143	6.4800151916225248
20.6466803647225383	27.6992278355380357	7.5061200580136918
18.5526980742628815	24.4589419085199289	2.9936308776967380
21.6185604867177723	26.1818374137572292	3.5915763370766767
24.5588555572595446	30.3060144192491485	5.3370758554599371
31.0793325793940873	28.3677434046917689	3.2366533313449355
24.7301201980516687	30.8145334091939489	42.8040879722070216
21.4099869780246941	27.3301724576568574	1.6679124910541316
20.9988723802766160	26.3774552314415196	5.8049169874438284
15.4735292538214466	25.0333266530000849	5.9014096592452727
17.9001958781215507	28.2465172100181015	1.2707425482406041
14.8639717037174854	28.0750109536163670	0.2943269956470185
11.9562831534269929	28.0225839992939072	1.0537956505245971
25.2195794734182250	26.1515943969912534	2.5202849981353310
33.2657226209994334	29.0489661511069386	3.1058821517309232
37.4937125925104198	30.2994391288926721	5.6190442979056971
35.5041891949641339	27.4548398084195071	6.4828956383949867
34.0601563823393008	25.2980660442374976	0.9042174430794699
32.1580461454878233	25.2470520469910866	5.1021737873226112
34.1345895233983185	26.3750083337842725	5.3611166409440383
24.4777014812931384	24.4488921447851766	2.8927917399992702
28.4463306891577368	31.3049052044327958	1.6386784307963196
23.2995880016905019	13.5509283506918869	16.8292946208292271
29.7241859906326304	27.7687610004663696	5.0550248274688627
30.3101742145126387	28.4471140781037093	1.2636274107551675
29.5027543215774628	27.8516638225648343	3.3910385816394473
25.7904902347301714	24.4051222834138315	3.8158789577671675
30.2731315276740496	30.1191027544327703	1.8721428282222916
30.5708674516702672	32.8324716773446283	3.6440201180036920
25.7779214351965393	24.8814379777834027	0.6643459046097390
31.8515391320710570	36.2002649271826442	7.6293516165022357
38.3804444241254430	10.2915566582116345	17.0957201007144590
7.7885662725804661	5.8402560131819330	16.4722230322232228
10.1246421975363408	10.1484190880944922	13.7744351236402558
19.5036614889847186	4.6879876354071950	13.0813119789193397
21.8613684444104770	2.4542913380743512	15.8446820456865360
23.0736566843565960	5.4961669476298454	14.0840048022762989
25.1285641020281467	1.5838513200892750	12.9408998993529281
20.9233946979027650	1.6581570072933944	14.4565474335457989
8.9182706728454857	6.9960329440550852	15.5596031741105634
39.0959424218128007	6.3656295229331850	19.1784954124863027
32.6964979213488576	38.0001870639321595	6.8965054789196039
32.3538918229294339	0.2766498082642708	9.9757671215050756
9.6826359038325869	2.9401580789307245	17.2884392355885836
11.3586304607893940	1.4087700408745192	16.3083916149543704
7.6276463532237004	3.0692868649088441	17.4729007559792713
6.5628164232500055	14.6720120480215162	13.9700179867751686
1.7359482783039555	16.5237008154406269	13.7352595803193509
28.0519813027114502	42.0550521147597465	6.4064324433097459
33.3803781888994706	39.9641951632869805	6.7772163020992506
32.5159813616728499	7.7328399747085514	16.4377583175303634
18.9262483105905623	6.5462374197523605	13.7453505950133064
22.5735375609399895	11.3904114825619835	13.5364797677879096
16.3898826970911671	41.1401539007006960	11.0767728917573489
34.9399882702834361	40.7025042691191601	9.7857724592813895
32.3305866309429319	0.0650805074128186	7.7940699596009564
21.4314582463319425	10.6254779671607249	12.7011684335166688
20.5934270528595533	10.6018915527020194	14.0699885570794230
13.2887553732730499	39.2469601976231033	7.3571395703627855
35.3043236776795410	41.5568834241049956	7.6659624957591834
15.0891138547149435	7.5048127969239529	12.7018161281283533
17.0803985470112671	10.9561022238172239	15.3676795361839673
13.0264216649074633	11.3301036973004585	13.9987722041739993
12.9924736912926075	7.5466592807396493	17.0751011720839436
0.1852398390611314	9.3732188158858971	13.8240511380406303
39.8593098446487843	9.1665093360498613	16.3283010598196441
40.8746332313735365	9.6025885715601991	13.1862756474942131
41.5691640444103427	1.8101922414275087	14.7750612410373883
38.4509945179355839	36.7584859942897708	6.1349335366793518
39.5337607685238268	38.6154736113486834	13.2443301366895430
10.6301011952499493	8.4740186066680181	12.5882087103123794
17.5466503090715911	40.6632684838051901	12.1677508415093687
29.2654117472326618	38.6728669257590951	10.1947276559856235
28.0910760767823326	37.3025534853618268	5.5863123236669487
37.9263542981411916	3.8432922959653339	16.6394370465862771
37.6120987057853853	2.0658915081034093	15.1082472733214797
15.3608170523558414	16.8494308247427931	18.9046681317547112
37.7091761399080170	38.2112052009715129	12.2892591198089836
42.6461517676746809	2.1332889555717243	13.3819693185194843
28.3143312369143381	40.4631597185954703	6.4014299112058186
25.4569087061756107	39.1654306215206844	9.1844393947911467
31.8909282957203679	41.0698105634768282	7.2460957568480628
37.8548140794003345	0.8884903747519172	13.9810599273733054
38.1550713120495217	42.9265376806530057	16.0074216193391301
39.4259783233394359	2.3337890861700119	14.6798893864821114
41.4213971120528797	3.4663696510892614	14.9028226985772054
1.7665793496582662	18.1133625942270129	14.9844695819157483
15.5236106269865033	41.1407529595059600	9.0280407386140880
15.6784558712918827	36.2733934088278076	10.2824156314357005
15.2993762669067284	42.0595961307882718	7.1290934379658397
19.1226430304742543	40.6069224082629034	8.8600115292633692
15.4754966182071207	37.7734496355652851	11.7305140385768425
3.7436153862638468	12.6097019414766596	13.3328239301968665
0.2114729368245557	13.3493317269166489	15.1805269048608249
36.5791484773001656	10.3979610101929101	16.2463783950248271
12.7556407377039438	39.1776075718425929	11.0029463973087527
5.0480956167621169	12.7269861211743329	17.7199946533827664
3.8780949778834599	15.5112271096036363	17.9814459921562104
3.1703286242104718	16.8883471279183368	14.6092001950286594
13.9044792192699163	14.4294396239929874	20.5983353029475111
14.0401120898897442	17.4542034840144495	14.0730263887027807
13.2728849287274642	42.3165998452241467	7.1792847612801838
7.8102964738113432	12.6153996005517151	17.6431290957467510
36.7548042508827280	39.8541492843689227	11.0718556184376791
14.3918404524645727	5.8929726465830381	16.4570938133872176
20.8284594726202563	40.5152845886747883	8.0263101603150364
42.0121174933013606	10.7091965180809421	13.5375070976953271
1.5902185500478114	10.0164832680808704	13.3203718408685461
4.7090737464327974	6.8875617537877574	15.8384943850307263
5.9530853902847651	7.0377097283547370	16.8741091050915344
5.3199599478274076	5.1964523901479582	17.3688209899593424
4.7191133567091033	10.8002853258636247	14.5584209270629668
4.2103678904113044	7.1097930498237183	13.6512161202506643
40.2132762885760542	10.2602661773792683	17.9819698074334191
19.3124703849531905	39.8272576227676538	12.4660555049601420
10.0869138054801990	8.9202081154337112	14.8306750896141430
9.8556039598388949	5.3114768791104634	16.7657748936124520
24.0710685249231986	37.2489948739416263	7.7314380252130190
21.2606161162348464	38.9669287636907740	11.6189910269797032
20.9009912584793938	38.9975670699408994	8.6278173561781113
21.0466938336037614	40.7265923460591353	12.2139041825924046
5.4082674956599854	14.5738141821761626	17.3520254850707829
24.0883923042207968	11.5893405345104341	15.8831458655973545
13.8777733160300283	4.5007701523285375	14.8182750385704143
33.6006838448158049	40.9218099761514793	8.7431901514252228
34.6460649096947293	0.4060209866699567	10.9420270182088970
24.7107869400150335	2.6922616952058771	16.6363836356489152
19.9114215724285479	37.2895453074864847	9.2335911703181157
23.1567668978710977	39.0824713768627774	11.0711001930565693
25.3531314627245514	2.4965595923686701	11.6616695946683588
27.7187967276262555	0.5392897337676358	17.4786456343424348
11.5337229643765919	1.9720488485539742	18.0146713693358151
11.9922968920324777	16.8493076964527440	13.2064521636999554
14.9313601377538863	4.9926233597690084	12.2159448364790766
16.0907602491004020	1.5124197827103287	16.2127066042486057
17.6035664385887536	3.8486736679643441	16.2056786814117650
17.6854813586392119	1.1665798517881789	14.6858909167409024
24.0747308144591834	38.1658744903215776	9.3839235540125596
22.2972767718876348	39.6036818422538701	6.7974722993504102
21.8543674353655639	37.9053571838920220	10.1899918431609890
18.8003053548112646	37.5170283999447278	11.3679450382029561
5.8375433482600627	8.8779060872720521	15.3522347711386562
33.2008023156522114	11.7214689924250290	15.5036896100271964
32.2437609539665146	7.0421072911099314	13.1382711322528625
35.3176059288155813	7.7064958769918812	14.2256601624332149
35.6229166046881147	9.8961788984356005	13.3449071417751863
12.8527342880335649	2.8899995015380870	17.1365115214476589
27.2498805413697447	4.8134040392277520	14.6506400819470564
25.9078186701214221	3.4319431152830848	15.3773296003331250
32.2192413556766724	1.4603522740521899	17.7200214995446537
30.9098619818516269	1.1968538384659608	16.0904283603968707
37.0975726120484737	13.1788129385628601	18.5011506924107358
8.5218037087176697	11.1496250895575937	12.4850482171018289
8.1181917611067274	8.2874190362766793	14.9115922357203665
6.9032126967773024	7.4906097414188260	15.5991395359289147
30.5484459732227123	4.0230062934888666	13.9521562549940104
26.2994262590938739	1.2550279870246073	14.7775198850260114
26.4045399938754706	0.6236538649729940	12.5958387580955264
15.1144495748538876	39.3202615486235558	7.9453189354616622
14.2981026091931795	39.3242204272385720	9.3575933868224741
13.0188613492338643	4.6498346662164849	13.0203802098327852
9.7664405798290446	16.0784692231091988	13.0466263413785395
31.8968457560069680	42.5773602605577963	14.7351093720334951
26.6404850133547377	1.7564840976028078	16.3471495895539682
28.9530115410710991	4.1688500139691032	13.7868097050693805
31.9066495479007592	3.0887886939496791	16.2498501500323975
28.9229494653956891	1.5153389422593011	17.1450405810088604
15.4972040791269396	5.5712661027977344	18.4880750367421278
11.2150341328848526	4.4103935611167318	17.1204805980258890
36.7141388729599640	8.5704771439821812	14.5933297810231863
13.5865589480081681	6.3377976551251916	12.8279892108743123
31.3247219233634269	6.7783377301015637	15.9108579614618950
6.3462035762188620	13.5797359968400553	16.0728742683617334
10.3998296496187894	16.6348592379119573	14.4217615565784030
7.2641165678716453	14.0937957746708218	17.9265768672657444
12.5904860883522964	14.2376379405389422	15.3328190039700072
33.2301034392075465	6.2476622907164652	16.5309760931233036
30.6763469602651391	4.6630668515601945	15.4564768707060587
34.2737757406786514	5.2872092090816700	18.0589314540293735
33.6842713703436019	42.4922740531833583	15.0898175386555167
34.3822999173348123	0.9787027173802108	14.8517959047239803
29.3870690227919518	38.6207589868282639	11.7846428253425213
1.6993327662752489	2.9192293794034909	18.9679326797964869
1.8158543297001244	5.2319319508173043	15.8958381572376091
1.3000979788190008	1.2613750968505673	16.8794054205711390
3.0178214738376461	6.3607956651924633	14.4842259948976544
0.9862935904096081	6.5741900533969950	15.5595499760788094
42.6098809357236732	5.1642908681605331	16.5635387519806407
1.9867237742978536	42.9542475678531943	15.1967805680747094
32.6477821427811108	4.2393762891472662	14.8533833306640251
30.8849432793956780	4.9818691067253535	17.0363232362426729
3.7212923001597167	2.9534266417763555	12.0643915023431916
33.9368823153067467	5.7232424268681932	14.0833244908908828
36.0461738726715311	6.2888031247149900	14.4195960701301242
17.0255905691813290	41.6223167293376548	8.7253500689758408
16.0837366380992215	12.5175136843712700	14.2239736537510737
15.9018544567951174	14.1659013349662075	15.9033882191335021
19.5000316684498287	19.3871262953837338	14.6914180432896213
17.9347892783326053	13.1673738758934125	13.1563047924088519
8.7998817205435156	38.3075510902049459	11.1033512942336525
12.1135169549265065	13.8345273500848744	17.2789304663907934
12.4750771108412266	16.2873580940489724	14.8956644940184866
24.4338189211813201	10.3561739541571640	12.5510515931980464
24.4960521330015801	4.7230912257547386	15.7438817894793619
28.5746639786741952	11.1711053552323989	17.5473592723320948
26.5759724528047165	11.0179003532682795	16.3834422617934372
2.8649184507797560	3.7930897387143654	17.1605497135028529
29.1075302968966554	8.7973631284851272	16.6799130916062097
29.7042129542085362	10.7973670556700583	13.2311240824235465
25.3798669350534638	7.8907959456489856	15.1642077394337882
25.3575309465154817	10.1488898134466883	14.5731861174888575
25.2640081100831395	39.2634088344446468	7.5837747134868296
26.2576106564204999	41.4768067041079149	12.4479236145995440
24.5563448951469283	11.8864067635826309	13.9889020667285582
39.9961868622072174	41.5680109855818145	7.8769032373515149
12.1357799344462123	41.1479148660800007	7.4523249558726237
6.8657891957374186	38.0448191069918806	8.5695278725439383
10.9070708909662706	38.1914593385372001	11.4017014771267373
5.9082718503958276	39.1870994434707924	8.1117715806791288
25.7876917648837178	38.7092911820508121	12.2075945983328360
11.3227291530221290	10.6488670904661724	15.3923228308763278
42.6961647358124310	0.9382018230911905	17.8821534880851765
17.2988395407506310	40.4449050256781035	9.8969693451502447
0.2110104671668508	0.4054241311895221	14.3864238673514802
15.9664273795209084	12.0548085211086544	15.7966303307745903
26.9732646982230655	40.5008045639894192	7.9011093023687975
3.8877846135431118	16.1093884761709099	16.4121436611008136
37.5396583008248257	1.0094307627634638	9.9601145021937256
42.9880676330113047	42.2137466202350637	7.6086092736134017
21.4249998073908330	4.0767420975264956	16.9167392599056612
17.1353175922060039	11.5485908420527537	17.6127275716088896
13.8601054964053585	17.7991382794685542	18.7584875335609205
17.1087873524682408	11.2134971604464280	13.5919112532845912
16.6335337612338918	6.8752228821869608	13.6366970298983574
40.3635592980636133	38.0037774235421963	9.9526079326036090
38.4582341900984304	42.7474021179868942	8.2460975221966315
0.3177607779514083	11.5268732643523055	14.5511148005103905
36.8224346377929805	37.9056511071512716	8.3564730202781483
41.0503200505064996	5.5571557420898641	16.4564466190132812
28.7436982937258492	9.3962380611145608	14.7938346981822306
30.2753973612785323	7.1729770988039867	11.8907787414712036
25.8170386567966510	11.9078550270334258	15.2876595217474236
21.9935259475820963	0.2507848992927240	15.1520415275469365
20.9814768709842809	42.5890987046014757	13.6130109107420179
22.8034246247009555	4.5433923831952736	15.8190998069181017
19.2102153933514224	0.6788864434776329	14.3510165354487942
38.9074478675190463	5.9349947725828658	17.1176626509986853
37.9723095839261049	9.3006549962727458	15.3170378079283509
23.7260329225843520	3.4828872897672416	14.9590507672356186
18.5336465165739597	2.9567543145379278	14.3355797525149349
22.5842281243891030	14.4363581781249426	18.7439076192024778
25.8910451723339072	6.2028981041865592	11.4005279990111728
23.1898096455908274	17.1801901491000777	15.8374098605515012
31.0249685873745200	8.5819505100440772	17.4809267054321822
10.2321710538040094	41.2121687455790848	13.2264947574773171
13.4253557635866283	6.6710913208346767	15.1838283019949607
27.6277271030340792	7.8444137459775387	15.5340234318854868
26.0600424791565182	9.4597731092574016	12.4288866201140422
23.9265428261870206	8.4510189759191707	14.8534903077225984
14.5807312189707687	6.0166097397361096	14.0585123915694030
37.3281868537541470	4.7496270838573125	13.2282933022437561
32.5510564352915637	1.2670739571247522	15.7222983246749131
13.8166333594390451	15.7816238646603004	14.1120373771517933
16.3954442534281455	15.0421892396631947	17.9892085218205615
33.9614910521076965	3.2616421180495254	14.9897861760336895
39.9718632549707067	41.0442751120064813	13.3567149308133946
20.9570009101548962	5.4484845629888499	13.1210149902075806
21.0821770057565487	3.7819221868154500	15.2645990244029885
18.4592630931205832	30.4758326797538110	36.0667071841024267
8.9192807102178637	27.1639631708159257	5.8009801305563986
10.3469094691456629	29.2093034842664778	4.1477756181071008
21.2753800245028906	26.9568490062484614	2.7558555578790780
8.2598504475852454	27.5905811140112434	3.2001613813923711
11.6463600583739737	28.0637587881447601	4.7157222205932712
31.1144743503161649	25.6233855840833193	4.5724780223865888
22.6611858025286175	34.4701742308601737	34.4866197875554903
21.3710392759349226	25.9324369823944636	4.7440511418213260
25.5813344866054315	29.8362368113694210	5.8239382847971486
24.7553229259295158	24.5275237417405876	0.0919953005369318
7.1629833863982997	26.0300174132778785	3.9962487022758149
21.7553234697328577	25.0955286225316598	3.0373820485875060
25.2522740537420063	25.7024621348318796	1.4305280759057601
23.6590307533181807	24.6967793821825552	2.0413253827034241
28.1388382815580051	32.5139650819224784	29.4547329119928669
28.2207474249794181	32.4348216704817034	32.6386045942389487
25.3270918972160750	30.5574295526160356	35.0561964394536503
28.7327536585835368	33.4593804103004757	30.9013183060162078
40.5530108777370373	26.6669185714072654	34.7312544903614935
23.5027601197045506	25.8580254527960278	0.1502321436048687
25.0770463127299585	36.9321441303222713	30.9250588750307251
25.9179612774242010	36.5689783712199201	35.1173882045932331
28.9436783867995509	31.3647171159794844	31.0339058786374089
25.7307760813821602	35.0668218338215354	31.2177521702810452
26.3848489943382454	31.8512359026906573	33.8845323509288079
30.7623998636091684	31.5233743441390359	35.8571163995357622
30.0513514311738064	34.8451649599331716	36.5895243853028731
25.2510715500720586	32.4505527851986599	35.6182518056222719
17.0703291503703767	12.4586913171664371	13.5268449935093411
7.2191366301373465	13.3639913431666564	16.9151493835217792
7.1019525780079507	6.8667512385072698	16.6457945551457200
13.5643784808863472	6.7881562645721480	16.3614785516195731
15.4730332235347063	6.6861677060853131	13.5710907952133226
12.7574401831581650	8.6058986013222132	17.4350542755837878
16.2356552287358440	28.6102052728732161	15.0135751662436334
1.9523854497064770	26.5057373263009914	0.0625689854573888
2.3191043545365391	27.2696124095810610	2.1144676850183362
10.3574859246347799	10.1024848042514908	14.9827218840740581
39.3494000630320357	25.2701849474344087	34.8466544391696615
9.6174209585278341	31.2671760730175059	3.9446239568301711
23.8837135514428240	29.7159022968392144	4.5699335184899290
22.9499921338271484	31.4540436257755331	2.0230980427418301
41.1789116039859024	31.4451476412600321	35.7728081489338905
38.0203698272931447	25.2197729292126205	33.4614455593959406
11.0129335594326889	25.7471419406605477	2.1715450753350733
12.4743475184927384	28.8592343632426527	0.2456107689302388
38.8349183332339862	26.4641957108997268	36.1504565745808009
37.5899861767605330	26.7834120184779145	32.3897993546004770
38.5312299719383802	27.2032619063612486	34.2564322793409985
13.4974225900898990	11.7117184745381078	13.0072535621197982
19.6643960886589220	24.1311978754887377	2.4702306323869281
38.0495218125013679	24.5747210672164229	36.9043655344661872
41.7721539133025459	29.7797950244052920	35.3657716260352828
42.4664022711305833	27.8598652038562129	35.4603304618679545
38.8218261627268788	28.4985144501785683	32.7749285361025287
15.8029614152345097	8.4737765534437077	12.7326354956911594
16.0894621724236906	11.4147632169709361	14.7663802424473420
13.5242756931160173	6.7138658872958761	14.0017101714001484
27.6426310987292680	30.6776877822179657	32.7767225241313298
32.0891339662626365	36.1778547873221541	33.6271069218746561
30.7454140302668648	35.2218334873208505	34.4096752759809306
22.4730966999272610	27.8086903443019757	13.8070220767303891
14.7242563500193402	36.3557165136258860	34.3646859399482452
14.0795518182756716	35.3528852155477011	32.4140149886762714
16.1779485367211890	28.5932016068531141	2.7829819958796929
15.2779186203975641	30.9168226880260484	36.3790372182243260
17.8974807536868532	31.9906853601334440	37.2526397813581127
13.7028708145152294	27.5273288090054038	5.6914463802816568
25.5824577969034586	30.6787796721713484	15.9998737156152497
14.3324957597264717	29.5800586130589345	3.0072980634220667
21.7566592964318950	27.9519169048022569	15.7166905862524775
20.4492421541429792	27.5415800787790026	13.6722755913727561
22.4087955888016701	29.4787232988336925	14.7921620863971857
23.9574315712742703	28.1232569184663674	14.8124479029292999
17.2813273825925471	34.3036940015280649	31.8064275520001551
21.8594287373006502	30.6169759727435782	18.8657274655809850
17.7872991580533473	36.5199997454190921	31.4232216941798477
15.0793533445674672	31.6657284357504203	32.8911125575605396
15.7453276655685475	32.9040121820777927	34.5578575530615808
13.6371064017435408	31.6894042483704190	31.4217884828098803
14.0915995943544310	35.2754418262247214	30.0857756930213931
23.6782041279897193	31.4018651007936072	14.2715999354946081
23.9156833526019099	30.9513487755488903	12.4098773379267300
20.9152865543227939	29.4519886022986448	17.2250510779631512
12.6034622203065823	34.1815050865461814	35.7960726474968425
14.6912479569961896	34.6472055277390112	35.5822423384153552
11.8291922566877687	32.9430708603415141	37.5347662519194714
10.4227346956286269	34.7824304427490105	30.9422277358296860
11.5870396931704729	31.3153684813679192	32.2664730231694108
8.4359104328274093	34.1129450051827021	31.9107596391861961
11.1499624663075476	30.3910702773864401	33.7613089291827606
8.6636783602294241	32.3198924914247527	34.7121338603550242
18.3035770748071656	30.1064328265688417	5.0953428277360997
18.0709972113983603	25.1548079697326550	3.8166164626680792
15.2660964324955284	24.9932030836460690	0.5703700439347903
15.5434761584208765	28.8771846714207214	0.8573765804245956
12.3107014654610225	27.0246515332621620	1.6837998384821471
7.3972924219363305	36.2908612305171019	32.2371624367026470
13.2073740792326682	34.9965866560637124	33.9731636050726138
7.6037802853287992	34.8116183698677020	33.7365510167113953
9.4484480102780921	31.4047585434026502	32.9899821419432939
20.2950961718621343	29.1715650808440436	15.4895635385163430
18.9757080028923397	30.2782650426977717	16.5903632966600796
21.3670111281156281	25.9042493739554800	16.9272304458302116
20.2045323429437502	27.5325307530393424	16.6057629582005681
18.8508581442763301	28.8119971076613233	13.8282215286378456
25.0299778552010537	25.3709829313248889	16.8326184904040623
17.5217654137587537	29.3720002379804299	1.4036208359208138
12.9232500757584319	30.6421282971538602	1.4507999687451996
16.0356826970084043	24.8513020966467266	4.8556551946667303
2.1900175517413483	30.7428201712098179	36.0221515531774941
19.5735250952423776	34.0593561889727781	29.9382022199803544
19.7919701377331805	35.6164339126213676	32.9725573351902952
19.6509191684124609	37.4611749727006469	33.4656922860991912
4.8394731865235405	33.2234335807970353	32.0731834493624675
24.4950041748734648	31.8180675300617253	33.9602146345941094
18.2357320473629976	34.9844759812838717	38.8076946823590490
19.1717840627839173	36.2870484737217183	29.8576912034108020
21.0649780549067067	36.9158250306648128	32.4219428001726229
20.8824155435398993	32.3371438572205321	34.4043442558176835
23.6030208546396203	33.4257188934396012	36.3172959709890719
1.0843922809183419	35.3325308506359903	36.6969286902048992
23.3703957429622022	30.6804872095586205	32.0386934602512525
4.0250478966293217	30.2643848711589243	30.6243703477355176
20.6186600444618833	35.1062670363001530	31.1509533336212598
21.9396983377717021	35.1487762810547508	32.4079462406079202
22.8675288124555003	37.9054737101037418	35.5911425325891386
17.5801218109928499	33.0387189803148260	33.4997052861826887
19.7611586432852135	36.0973921841245158	35.0412093027556395
6.3742297246603359	35.4554351635859604	35.4796728592779687
6.5805296140492731	33.4049933095827569	30.6236434386172789
21.1163789145791512	27.3618939561409320	0.5328355817566304
23.7693131217429112	28.1253579258066289	3.7240554140210356
20.8343718450358466	34.1542041002186707	35.9196751534536105
8.7783864221313106	30.3023728908604468	42.8340609996019879
17.1993302808307327	31.6482088860384998	35.2304996828038242
0.1015945689699892	31.6813955028885808	35.7623596975921600
6.5718069556823666	34.3775421985025602	32.1883386569023742
5.7206057752763106	31.8161340532690495	33.4896926690018262
4.3531870675718993	35.7141089915282066	36.4940337414242961
14.1744888286620956	33.2663701372856124	32.9837644448443470
13.5905957372841453	35.8729217567234855	36.4797244978863020
16.5570469941967993	30.5908388755516576	31.9371475018032420
14.7133697671385004	32.8007839271854635	36.3167465899239374
16.6502709701875737	37.5127263717048436	35.2490219669836478
7.0770293772695068	25.7375063548627345	6.0057493974079685
20.2390224103480421	29.2888197607480798	31.5254140247525356
11.5290349159018444	25.7919901579605195	0.2950964481013290
11.6062898942372215	28.9805612767642842	1.8448101961187247
10.7537218589605441	27.5588391951911298	0.9547068450332670
10.4886376577706724	27.6992527729863873	2.8113190866896427
9.5130004163456920	29.2067844076923429	1.7148554098906408
19.0911344876242524	37.7833951879220322	31.5315582345861998
25.4973889865891081	33.0783291089484734	32.3985053639622222
19.9938493841110976	34.2178247540356324	34.2825631645415427
2.8747497793822649	36.8660428564575184	37.2511831578485584
19.1564705288435029	33.8981357373728827	32.1880035521170598
18.7516692496931832	37.9815828355266518	35.1812914935689491
36.3344530362051970	38.8114943283483456	34.4221489986813651
6.0226472864976071	26.4911943153746918	17.4214817454262452
20.6517666880953570	20.4584861421626911	2.4764505189882935
20.1098335872749772	22.2047556523188732	5.5663128708964846
20.9025957092079366	23.7259510675697243	5.0170481941968328
21.2642924616590605	21.9824070292256124	3.5955909867423137
20.8137253963018729	22.1463370803284221	1.3811153880572531
21.7599598340082423	23.5433001464073470	2.0726600318017567
33.0315076348410486	38.8288945869073103	30.4681943758157807
35.1423783804951171	38.7153279152673022	36.1226221682575499
32.8163711777588389	40.7858750360964777	35.0428909049670025
31.8684238859831410	37.7080999062340325	36.1375187075974793
31.2980468047873650	38.7257234605185232	31.3401885515334122
34.4030488253668594	39.4280604725469388	34.2404447943704469
30.6594659484745407	37.1440048206490516	34.8293369462445668
34.2988565296760086	38.1660870120269706	32.1817267774026234
7.0491576028087710	27.2740987675820392	13.6076251004565982
30.3413576878266689	1.8213495444058643	31.8677196490747079
36.8046723574881369	41.7502858558977010	30.1704419631253025
37.1589365066536956	40.6580093915453489	35.0066832905238314
34.8033473974810477	37.6646065142075912	33.9080006541713956
32.9457112807525263	39.2639913017624096	37.2626002052101626
31.1012131217106962	39.3454766364304334	35.0713133353524213
20.9231670052225347	23.7018459561364914	42.9847271115711465
22.8617172856038167	20.1517727130676256	0.1028616363274307
21.9956204161589426	19.6890543900467279	3.3597417307554323
24.4123325960573503	18.9958101987486607	2.7853651214703588
25.1205496216983661	20.2082832871655320	0.0233045143493037
40.5678475996900474	36.2117664662355310	34.0701673105124954
38.1276000327146392	38.6957738201073411	34.1910205491743469
38.8856325141086572	41.9728204129609637	30.4019397712437218
26.1555936397831914	38.9018220429990365	37.2568533292439810
25.0554925862733739	23.5052006266753963	3.3744519149338044
31.5668649603515696	24.0637973099051585	3.4080120563609206
31.0409024393219504	20.9493092334990756	1.4867071499759235
30.2070427445476142	24.1426904060255296	42.8885397559722676
30.1766220906458500	19.2696997407685338	2.2186324961505859
26.9490713359929366	24.1880832075205880	3.8098121857031213
29.8837629317600779	24.5449597019883541	2.8995871954355663
26.5148943325337676	22.4302042269800630	2.6327395532256901
27.9975642939011280	20.8750518334314563	4.1163797048716875
26.3952019338311672	26.0115217307143993	6.8117464604956899
26.7160066277065482	37.4638518876596791	33.7350687344194853
29.2029275698655084	38.7451368891020280	30.6355717491841162
25.2129207962406952	36.3672376343547796	32.8475662599521883
22.8155184396225579	41.7911658736932807	33.5115840435584644
28.5231518892099132	41.3284878230760313	32.8998146266844529
38.1338241394205184	42.2164504083138539	35.7909652158744933
30.5304202442176305	37.0999429931685469	31.1352943974620224
27.6699461614771245	40.6499740004870560	34.8613949074470639
26.5129827421632456	38.7372923306057899	35.2659377528437332
23.3749312329644248	37.1431925150084652	32.1980119107212630
27.5446175835403757	39.4024990736974630	33.5368421893184987
24.4005862640523823	37.4486491502833303	34.1346106277626546
26.0145942061741096	42.0217773421906173	37.2697527243678550
7.0966164424915057	27.9234123036457866	17.6548374412849114
7.2490614229665651	25.1253480533125462	14.3754604536999828
9.1772500850443652	25.8713027520610552	14.4326612277699109
10.0948422973228755	27.5755425974922339	13.2587781522760224
9.3789224686217985	25.9289498416979001	16.5505712927609174
7.3342862926930490	29.4631417267361577	13.3044590906263061
10.5448286456991305	26.9939896765054108	14.9110726156824036
12.5641625262970553	20.1877018410619122	1.9213628476394065
5.9777045637349504	2.4401144882425085	42.4357769729126204
7.9112848579353408	3.0713496931038184	41.2037019652685430
8.0306449966139173	2.6362440645628817	0.0066058452644739
11.6803885293316210	2.2888597277771088	41.1475260309838333
8.1118607495708250	5.1456310627040089	40.1761703810044963
10.4260936070181209	2.6665761766746394	37.7780035049204699
11.3849031785071091	4.5334035217677178	38.0907009509016561
6.9166015013537816	4.1065914504531102	39.0145318777535479
10.8290071510223065	3.7682930117610836	36.2664342048858259
7.7529488439363465	5.9277897534685104	38.4302081043346462
9.5982734484951155	1.6362479337602016	41.7586858764136366
5.7676172181092706	2.1089918977031799	38.6002699816053294
18.9352206665064671	20.9252928788297687	2.0900536469847131
15.5758000022715599	19.7555022663974036	41.8310062358627306
15.6381209491891635	21.5437290556234124	0.0062781249681549
11.3049654643444111	42.8123716618873900	35.2386975950190404
13.9599735064432391	22.7489391117426152	7.5922396999040167
15.6553616042194612	23.7802978874270714	42.2792598693988850
4.9006380381091885	28.1782377953076306	17.9805810825897545
5.6577267743573625	24.3925478207660795	13.8359241922009595
17.5057739196069875	5.4035709281532132	35.5172044120475476
12.7591774245211163	7.5929050514157614	38.2986643108934288
15.0507556509789335	0.4553923423715521	41.7270819417367562
16.2238084583822229	5.2713014065861259	39.7827158912640044
11.4367071421976476	1.6765779025270870	36.5618405510186975
20.4916568058296669	3.2617225275879504	37.1839027739881658
18.6529195749617820	0.0365071839073785	41.3622925795969891
16.9130782674077906	5.1515477933623215	37.7313364879025599
15.8075844430186052	3.5860997604104710	41.2491719390459011
12.3524734364518114	2.6488856851749127	38.4078462180306559
2.0784377471288078	42.5357428269124256	38.8126231322141635
39.4518206448670270	37.3495901421245264	32.6788124960371391
2.1420414011934561	41.5674383915229839	32.4046508024159010
0.3422885143358395	40.1352087770620329	38.0899298850816379
39.6572414801377349	37.7504646037582532	37.1972849056646524
39.3198265264460787	41.5410568336881738	37.6957693087862253
37.6468069186656038	37.5145672896315858	32.9101938930925684
10.7428841791126803	30.3351330130452439	14.4966875218701698
24.2924567371777407	7.3548262045596280	15.0425546506824350
0.6537781353092601	2.6633247758290066	42.4839566704343810
0.7835207613749665	0.8320197950376138	38.0588135892398256
41.9579057461688620	2.0645306036703071	37.1990408662811731
3.1012169983010356	6.5296773062872182	38.0809445744273418
2.3696491500391801	1.5204304254981984	0.2233830460778656
0.9352996102553216	4.9107488856631907	42.4753062091936542
4.5814875244615729	0.7333843329365299	0.2593398981705803
20.7049099539195325	1.1297136171930884	36.6113191963432243
6.5807321319148073	6.1361272816727883	40.0543243170266550
4.1637400045122099	2.2435928915695578	42.3442922734487297
2.1608937943650273	3.6827384527733460	37.5301401831971617
3.2035385890307460	3.6094069811718157	39.1444467521166999
1.8846090071671175	2.1841073753098312	39.2247137785697504
0.5817349079121146	2.7864269081502622	37.7599666746905172
4.6605778048515223	4.0363333216125810	0.3244935379773836
19.0230644624356167	22.6097154411603540	0.9123471326039146
15.1696746417235708	22.0411983502869617	5.1146753407563139
17.8803371265923907	23.7077301296992005	2.3517064832238490
13.6513591064976758	20.1185491963405951	5.6551352395737879
19.8417188583747510	18.8932101962277272	2.8948291296987390
14.3257764504676217	22.8284282943747598	0.2782169075077174
13.6525908389184565	21.1589622701965858	42.7834540296712120
16.7262162633669540	27.8032210237886268	16.7057406386738769
42.9146250219817560	32.5222877125647827	32.2369802837043977
42.2334026300674168	34.3903898110804320	33.3410008360757502
38.1126014335957422	36.5397719487596859	37.1044585805944678
42.6398124264335436	33.8906888713191279	35.5898328931573573
41.9592300209832842	34.2477544840794508	31.5343361211406510
38.2117989408868723	30.3047504385909861	37.0103959582752111
38.7172278133153966	35.5244761511038476	34.2619926797257435
36.0504223936638084	31.3958699606023934	31.2997846064322935
41.0720683886057429	36.0539850713917218	32.0752229078143856
39.6224258637121665	30.4366455383584906	35.7007705661381038
42.2081045235993457	35.5249576752923417	36.8360638504490936
39.5490331190196613	36.2010886817116742	36.0158027526310747
38.2958400626062740	37.8309285618230717	30.8564045524208730
36.8722554276193293	34.6344522057586204	33.2171506495075093
38.0869493537632806	31.6620131670588236	31.2624836992123178
36.1893556298055401	32.8319750402817547	33.7087354966328618
14.8876583815884782	25.3927852096308584	16.3827971278609326
17.1619141744630390	30.3726239965201508	16.1822237611117927
16.8261121816460708	11.5029753320428210	16.4618195811922767
42.5139024985050469	18.5315921622157553	3.7915369507561407
39.1259407974023077	18.4457380880305983	3.4806070485292580
37.3564867782520977	22.8196027397994037	5.0614017833287352
41.6146313117725484	22.4827436093725623	2.8768012009787771
38.9048535587993101	19.0456363960243742	5.7002136608211638
41.8203383552051449	20.9224541337768599	42.7209750134527440
37.6420945320512246	19.0957349264082765	6.9851449259972966
37.6081945176661208	20.5513170027222891	5.1217469123823216
5.7951470176070661	36.1435489571819986	37.4155830664777440
4.7927429457946369	41.9262083084442310	32.1492205866970764
1.9103220508760750	41.5142409599563607	34.6921397215417144
35.3889598725464012	34.6854341800091106	31.7749657805755810
1.0269962826941141	28.9282380407997337	2.7088422921661133
0.4533605580921753	26.8571278158029827	2.7656311847547523
5.2438066036289728	29.4573756284458348	6.4792666531177590
3.5136909631464470	27.7689734623199875	0.4203607625886539
5.3694875713180386	25.6804351689507975	5.3948398232268735
0.0890134403837977	26.3105964973946911	6.0721679845484893
35.8407471874988346	37.0520148045823561	36.9987858515756116
35.0037800836704136	33.0097805588554678	37.1174257921829138
34.5538797732522482	32.1829681231710154	32.5569022890278461
31.8672406393139269	35.8951517039562518	35.7448236433690099
34.5826371256819840	32.6195066228629074	34.5537422591656238
33.2943924071254784	31.1772116643384614	34.0522569065077931
34.9137902260264639	34.2000845441156827	33.6183675495771439
33.3865402510147433	32.1034096435653069	36.0679933653774469
30.8174409570768617	35.1826789783851552	30.3018093779502919
4.1633849406500110	37.6608421413703596	35.7819910978125009
35.8472696671129967	33.8001379911296809	35.2388904424212441
32.1662350863479176	36.4907653329142718	31.6343021138489462
33.8535299498465392	30.1387704805550314	36.8243011127575173
33.9953962706634698	36.0127818692856820	32.7279948655151287
32.2754791661448195	30.3990427275274335	35.9548644861980549
34.1331270152085651	34.0358829747730027	35.8668384627862409
31.2493327992327288	29.6878522107743379	34.6329231237086503
18.3792559136353475	28.4656738907312885	15.7610733912620464
17.7495540470835316	29.2755113324910319	17.5082396390193118
17.0468537207906898	30.1808092168483810	12.4541500735804647
14.9126484750609727	28.1299859527413503	16.1024398339427179
15.1787792482003390	30.3044662958802888	15.8485377790579385
15.0049938285121680	26.7158080770549944	14.6790166936895066
14.8151554742129345	24.6796248415719965	18.0447920342027714
30.4808982157021866	23.1755682599627875	1.6093587450772482
14.4694002817294454	39.9385687812775743	34.6683601915791542
15.1913137408226575	36.7733857050543662	36.0842634690749691
18.8472074425380818	41.9589852467048416	32.1224670370442098
11.8247517143255862	42.3914137966429294	33.0170501523122937
13.9049060748796673	40.7507973408543762	30.0373601171715130
16.1146497036813123	41.4473821439446795	35.0354503177912520
17.1642082604522948	38.5785537216725984	31.7394353411215242
12.5113064139517718	41.8466686394859693	31.4099175468577911
19.7850423064235130	5.8301025173791885	13.3759190156320358
22.0265063270405257	11.6304708464499260	12.4503073204605439
24.6191532081252724	12.7045666869937275	18.3979054763075318
7.6215878557549290	25.6057953233992919	17.4431085224140610
26.7294569074961110	18.9751376910682197	3.9341629042092161
27.7735616534406944	22.6522073169185276	42.8671549821159203
29.3641542287290207	21.5110249279248684	1.9360870905598417
16.7757174030588985	39.6865886159712957	35.0155510908594749
24.8147568689400444	21.2548430684023515	3.2375160454516525
28.6140566741727120	23.5012918443814733	1.4193660645792210
23.6891713087838198	19.7780118551729416	4.3493553285113871
28.3760691785856132	22.8784058953442049	3.1000978497419687
19.9893799638202232	41.1229173601143216	30.6337641468697015
21.7681831875510063	40.3338641194687710	29.5896175788131828
18.8805616411825952	1.2426491723281632	31.8785404885544175
22.0312579289856494	37.7639250555216464	33.7036278678996410
22.0126331073360646	40.9622008818371697	35.2491100369671884
20.6431139588224148	37.8361558814563921	34.9131698789401739
22.2593312322294317	42.9740339870856616	35.2937971810188316
18.7997119586520434	39.8441629666293977	31.6882558468433757
22.5135891408348598	39.5259589660321211	36.7669260430280715
24.5050064363756235	38.5945024824108955	36.0135176561381414
10.5601010464207778	39.0220262941009182	31.6773104195032325
3.4926504871042061	40.7516271509333379	33.5226401076938600
4.2022568352607639	39.4778735870250372	31.5454423079686457
3.8358412273560165	38.9097129701024897	33.7461766593961414
4.3999895729727356	39.4227994485232500	35.4022748192933392
41.8479855945795336	23.6105609480121927	0.4796291514539765
42.7689860519535543	20.7098952141728851	2.9928034719789309
36.5296628648937016	19.6435724810687162	2.4486489764173669
41.1071855991357822	24.5063030303547649	2.2496481593046154
36.9867859146283493	18.3086241080485088	3.9078304285626180
40.2340004488005931	18.5229455190491485	1.4855780797773124
9.7941201481415412	39.4788941988167039	33.2452875078309660
9.4890910614292192	39.3034845825202055	35.0090357250821853
11.5186233543081435	39.2997206214386381	33.8398944721699237
8.2297635341095443	38.1023985483320047	33.4794137654324686
11.2878135421370231	35.3755465459176790	34.9295902661477058
6.8819361712612652	29.4233062197351352	3.7240113708302149
10.4907947316593813	41.0546224217240336	32.0071047759767922
6.3104979392508103	42.2522714419960366	30.5933409659044386
5.6885890738031790	39.3859724486861751	30.4824311175373630
23.8326265166715778	9.9904729774784649	11.6266773978954738
21.8267365040280730	10.5134411507112251	13.8648674739402615
33.3736416412044079	23.2743391522670287	3.5928646166566112
32.1157011747681551	19.2231268137919002	1.2854800837709657
30.8642209850670319	20.0230279154964634	42.7632794247287151
31.6782222081830049	17.6008660848439860	2.0874066225037291
37.2187635573745226	19.7160370588793370	0.3518280390201096
24.4149289602375603	11.0768503507947873	14.8740414697918073
17.7937930254350967	10.7389903171931991	14.4521710901702125
22.4519479962470250	11.1857318211675452	19.4319322093537110
16.9066112721098172	39.8936041989193839	30.5411286884525737
30.7815152489932657	15.9900354487337246	32.8908956633741241
36.6465545812143958	35.1366905857231302	4.2166274318008226
34.9058226365630162	35.2612663397293886	5.2478959973443438
9.6002251612473621	34.5893497752245977	18.1632642165489635
10.6275761162361828	35.0639601318126779	16.0179388417751341
9.8111960177912838	33.5267367990927028	16.5229317855043476
8.9715036828633181	33.9314898635966884	14.6544975058917224
11.3879451309993485	33.4368469887348709	15.3728648830987638
7.2554713687073802	32.8117084795886527	14.7434214898365710
10.6479159913182606	35.5102788247700190	10.0930751417105107
11.1456243673235917	31.6644117196195225	16.2634660841700267
26.0502860697509959	31.6093312208404242	6.9898989797082534
26.7052718592344682	35.3471746661128989	5.0075623697325193
29.0968525327916083	30.2454809279424310	1.5433253509231757
30.1525884664067974	32.5477849851950296	0.9177568905392854
27.7438590975501569	14.4302721339487814	30.9670046199884119
20.7307999654918333	15.6017916861633523	30.8859354578997163
26.9341203105698099	15.9829289490984419	35.3396967715103045
28.3094831058004814	13.4690499795964467	32.8727805341149875
25.8361279884864352	14.1883575222425193	35.7374803595346862
28.2785836813218836	12.4526285473681053	31.1784259694860282
30.2786502845799532	14.0616584363605863	34.8433386847946238
27.0709393820383895	17.6399962183009080	33.6999762277932646
28.5388123280329467	35.2249982351383153	4.1562449985623857
27.9067170157497273	32.2435689415972249	6.2550990650373874
30.6094567935069257	37.3217577979895552	4.8151759042454012
25.2930682199987409	37.2703238617693131	5.1468198813532364
28.2159123062728341	34.0338650284332118	2.4861299776949557
29.7355696074447380	36.5972441026622803	2.9131058832621264
26.8240200096293258	31.3814270466585796	5.1558878141644531
28.2952295764738935	31.5935817149405374	0.4219257068469189
27.6135229502453861	33.3754683494500242	4.3522979227681384
34.3071078154139570	33.9013116886145340	1.5361728356927409
18.2817367918086866	13.3489856349931433	34.8718821440017379
20.0351433922735538	13.4968532578612344	33.5642826537372869
16.8259603957582691	14.8113619043468798	35.7536086145766063
37.6962644779626430	0.6450287286736056	15.1867225789559992
37.1938466062817099	0.8811864350586694	12.9992783194424124
41.8862870992662266	1.8698604270526875	12.4489342993075400
36.4450548829801662	3.6382277639218166	19.5827868554911575
8.1841191845109780	32.4993004398074206	16.8752215539738053
13.0340971641261252	31.0258092827538370	16.4680256950353474
30.7852147082956193	33.1488865229622363	2.5255050856794519
31.9270208123017376	35.6660718611757943	42.9082941474770223
34.7139043553159894	32.0674724635637745	2.6554259890602734
29.8456041604911242	32.6783858546813164	4.5394807503246497
34.7398824980966552	30.7932047624562308	1.3409817063532909
35.8998386298264265	33.8804670025965109	2.7684584573931015
26.6811602313006517	33.1980868476608464	1.0309059351142584
35.0732529231122996	33.4247481818934702	4.4047731364148559
31.3987848978034911	32.8990706699793805	5.8200328065150266
19.9791272466841292	16.0576488704179674	32.8704460462524892
19.2776948533402361	15.0990139723753245	34.3339766080226667
21.4394139069110423	13.0691929440077157	32.2385419115572063
22.3492002769349654	13.9633613780084165	35.1371267219494285
20.8705697761403535	16.2511655420183168	34.4739581694645310
22.9274744882653998	17.5936806824382259	35.0424676703392848
20.8848755734266476	17.6669811698004047	35.7914899977310910
20.2801393874222029	18.1356945801634879	33.7375320923567230
23.0654866955061095	15.8555726616703137	34.2086396229941130
21.8499957903461812	17.3054429834865786	33.3206469305693602
23.8290195631153914	17.7644231543433726	33.4336559491522394
21.6346847129642263	14.9591806130165192	33.4270114799017790
19.0989250153592742	16.8807998176234761	34.6543641856570588
4.0406307093612650	20.0724335999536798	36.4295763830555330
42.5563294530141789	16.6507227174543715	33.0713234010786010
40.0719746283045311	14.5292460158493988	36.6586375084528555
39.9498177093851794	12.4865327886907274	33.5771381186086160
37.7225935027577322	3.8324383018020320	12.5916241261367023
40.1029466604076674	5.9284475214210808	17.0668242442284708
0.2804144977624058	33.2621856782959213	14.5861520212029774
21.0653863636675425	32.4044634788245176	2.0699341957015722
19.8398587415572472	35.5052404487296300	4.5902421579115735
19.1826825653153676	36.8192716393876864	6.0255476390139338
23.8071855474431970	30.7343029167658344	0.5681146325481673
24.6873040862046516	31.4752885216797154	5.6730274483886136
21.7044529250250662	34.1943609261560653	1.0235709485857787
2.1613739645755747	21.3157692192766746	31.7067048705166670
3.3777908916535098	19.2097692410087753	34.9570172411025837
5.4185930156799085	22.5941436880291562	33.0621105431605784
38.9005969466315591	13.6079842291908211	32.2083265256518843
2.4843375735846593	21.2050629282700172	35.3876809668762107
3.1960933535288132	22.1346210047936331	33.1443088717786694
3.2857763440112251	17.8937635273202638	33.6778322897758997
3.2062500166344097	22.8862693352517219	30.5904571683435940
3.0213598031652062	19.9315666720063795	32.9029550251627398
42.4140114789962794	23.5787666368624365	32.7416177129972255
6.1920088029525822	18.4640830015488611	31.1700880156792053
41.9793138728462765	21.7272059430076503	31.8520689807780997
0.3256264620048160	20.1802138227377519	31.5160373652507850
1.6663117028165846	23.2044231843644617	32.1013749375394610
0.9863734570027508	22.6980184303610066	33.6577094022398100
21.2247229518408993	34.1634442446862963	5.4408620962435883
18.7675197939402736	31.8845075898383676	2.1426501715681279
6.9395904467936402	34.4534995940814213	13.2486091044243377
0.7904383319297674	35.1826353309829543	13.8748842703573878
11.6637933185609981	33.0532053141405200	13.1046053521759749
30.8007012760370920	31.0589928767702865	2.3355295353812964
28.1208388735570907	32.2237887266832743	2.3580348902019375
30.6013156488987192	34.5329897503596683	0.7099715158803054
25.2020598281293786	31.9221760253801143	42.8874169022606679
30.0342990383115556	36.4313109875494163	42.8899456843391107
8.8863492127161248	35.5640252725510777	16.5471373317498767
35.0512664679383121	12.4427591906434429	33.1075547418280465
35.7248907787656975	18.2500385660832691	32.0859221268535393
33.4170547453838154	13.4356064690770562	32.5011686435043785
31.2352003214413010	15.7826276731063011	35.1392406876975301
30.6165751993375075	18.2216719644450542	32.2941814944485444
31.0087794630315337	17.6796054128464490	34.0147476217643430
32.1728052355172593	14.9311710420080885	31.4742432159939156
32.4855219453374815	15.7389203948633156	36.8646269810766825
34.9146856430755506	14.0042314052909465	34.0621525908693812
17.3509302219241341	14.2498659863432291	37.5061229098011495
38.4101749750913939	1.9836367007268048	14.1898259755783389
38.4564612064852724	5.9891518499999643	18.2495282868266600
37.6343333676966054	3.8066448268691486	17.8655655538951876
40.5651113378988910	2.5389362923113237	14.9377803043064112
38.2753534917797111	5.0068309354840785	16.6991384070491620
42.1787339357608957	0.7901159665792926	14.9528844929454525
37.8547536965641029	2.8887436087711476	15.9204381247374496
42.2225368125770544	2.7565093925472919	14.3141050992181516
41.7122592003605277	4.8418561750835574	15.7330264818986354
42.0513464683602578	0.6461662712308874	16.9682461619583655
39.6209237903594342	16.6177304787820006	36.0053248258931475
35.8778086696015563	17.3859130433481148	37.9813175069204902
39.7508452585080718	15.5237703695384308	31.4417118522501511
42.5245771002603945	18.3935396283457209	32.5628931459460702
34.0264843721550605	10.1697612131364590	34.6873387353497336
22.6865870370849620	33.2574467392460420	15.2806849072983848
21.8293389592470746	32.8564877213488842	18.2895867010585960
31.0733060563111643	3.9323670026642947	16.4273286281285991
32.5255185842754599	6.7778384748580232	15.6766394719355997
32.8721159475287976	2.7097013579651170	11.4305628923042253
32.8167374488263093	3.1828142116003999	15.4720538477479366
31.5024760068434411	4.3515704045029917	14.5603081736166633
35.2547906568315241	11.2809931205731111	36.6306318148742633
35.7789527721190694	13.2657998033463329	35.4844973385303675
36.1409471075486977	7.8440249438802523	35.7965734678000587
30.8779201139409132	7.3437244922219600	30.9436727846254236
32.6231541081470411	8.2101032670643246	31.8604604688309081
34.7801474122174596	11.8388800080374832	34.9483132542889905
31.1391908369797861	8.6179697155792496	32.8284922045861620
33.7098881322376585	11.8383635986651985	31.4729706814098691
24.3355009293700775	37.0866275183916088	16.4299347856511275
34.5266032991556173	9.2339621536454342	32.6309689783585881
33.4803233407827392	11.4290514338447071	33.2278362448025604
34.5186906103891857	7.6764107755503090	31.0519196026323527
30.0603788764287820	12.7193209144593222	32.0709783672756998
33.1512025386202964	8.6725679324603195	33.9272380617166220
34.0908917849631692	6.5014575263483909	34.3636105889140140
34.9931978856676196	7.0542448310789423	32.6648783300478698
3.9619744167443889	40.6894958280699441	2.6491755314202758
4.6345048254427255	41.4289872129995302	6.4909971179429373
4.6683122561683437	41.7358490019677433	1.3049331593170528
2.4688321970442599	41.7043341399097685	2.6107998594563115
1.2800788456823111	35.9110704175947504	4.3309011945521680
1.0377687917377640	40.7805194844693020	1.5866278947493482
4.0031605613084880	36.7412578949753836	1.0142751750183501
4.8896041668370112	37.4546192371975124	2.4402900916625012
27.6988527108920870	10.4308941115077545	30.0937473316343080
23.8458887574159810	10.7149887501686347	32.1297256756297074
21.1299875819870131	8.3392717905903471	34.0483924984597763
21.2974179688737095	34.7156559464876935	14.7768599886674838
19.9269426334556776	33.4838636427440122	17.5660353682868049
21.4888946839614370	34.0875436648018564	16.8119103877924445
5.5765253163785866	42.6300595883232916	5.4918837106634522
6.2665589189402162	37.2558329525280953	1.0487839157471566
6.8358044955715123	38.6175340469955017	2.4196381883155356
11.8518008272985096	36.9707137518943085	5.2943266021975992
6.2386162341190419	42.5214438987621506	0.5196988926833710
8.0226265296348718	37.5051859113518091	0.7172787043040337
11.8767771987049731	40.0081558093374170	1.5013991646599809
9.7784500411952457	36.6011931010976639	42.9235238909441392
26.7988143914835995	12.7330656285644288	34.2554411777901748
25.8891280017107093	9.6141732944600626	30.8012979083160445
4.1573266381998755	41.3586762960924119	4.3285898281850637
28.8449639589080995	11.9848631308277067	33.7870156367854477
25.4113448104933006	9.3557843179387117	37.5555951929700029
29.1758094626525271	8.5866231583141257	33.5584054635385698
29.2437557573159630	7.0002519971009303	31.9991033882668816
27.3859494654292419	10.8279724845025243	34.5282025703815023
30.0038579224655528	10.3067720699982086	33.7215468369677112
31.0181576920790008	10.6514045770763452	35.6154518845243686
29.3420914764931666	11.1150684106475399	30.5457801006671197
29.2992577173447799	8.0693032659240433	35.5361614775474735
28.9366480779489166	10.0205730122103951	35.1054447829284300
25.0699672076887090	7.4878386616825265	33.7452680761446118
7.9078750044263870	38.8847635358419339	4.4692897560533842
6.4076252597059007	40.4242776495827840	1.2393879211125183
22.3416294292630191	36.2477197199696874	15.6466756757992140
21.6812672609067540	36.0204808020599714	13.4247418615923806
9.4844247313870884	18.8432157570972585	32.8717082786714130
40.5875874494329310	35.2599209051023053	1.2643237791630297
39.4284909507010966	33.8633728505299629	1.7718457390043891
42.4877654904001574	35.0426912070108401	0.2371037166606847
40.5463631719305013	34.5528584371584984	3.0637805597332486
37.9832103608115759	33.9501461019044868	3.2106279203168224
38.2624147007473567	31.6830164751517565	3.6984378564536553
42.4591816610547568	31.2112793746859154	5.1997827173096267
41.6768288732159178	33.0680772607749986	2.9303722745183700
9.5693779658525653	17.6151045911212556	36.0473657440897313
8.9518803643929132	16.8561664976141117	33.3886001428482615
9.8301625576199605	15.7836485904614552	35.0816839953948261
11.3548000328417054	17.0719100287978591	35.9224245838702814
6.4390872711731673	15.8734098471620655	37.2689295298558321
4.6478448885169650	14.3226485549164089	32.9480471131900785
8.8049431180429334	17.6524607464300338	29.6835954687850858
16.3910237373215786	31.2903111758699986	14.4007342686519753
10.6600913937902497	11.4894418310975066	35.7350851963616591
6.6623038718083301	17.5317139718658197	33.2476986626862256
7.3655939380814281	16.8723601220465973	35.3967047245891280
41.1677033747386929	36.5511685279947045	2.6312443243827226
39.1006225428953158	35.6056602663827846	2.3822427516623033
38.2870293012209544	29.9971508903553215	2.4683996937969872
17.3417842520744117	35.2982433065534522	12.6877740158016863
13.5986959476935674	14.0066764874818031	33.5622927324145053
14.7120404218266021	14.8791752941478119	36.1743428569741212
13.9751643881518604	12.0401429000988411	34.3551574547974781
15.2167314236955935	16.1792403724390432	35.0329115945399039
13.4356745522196963	16.5263256731892554	36.3147472667974256
12.8017501364552810	18.3490789991670553	35.4949464519201285
13.8578672723128999	12.1279642328643913	31.1129906857904928
15.0952224083705246	13.3302140126683089	32.1890638357951886
30.6721465086962262	2.5605914780629728	11.4429423090640743
6.5546688937581248	37.4784907341183242	3.8405226760440221
5.6948880911211850	40.3156843298074179	2.9599945985034468
41.5518563357444890	8.3101472648179087	33.4829180782923927
39.2122970277525624	10.5723458715255543	34.8234640760230221
40.6815684913866562	8.4714044523249772	31.4439709032976715
38.6716138213786351	11.3520860144230369	33.0184030476325177
39.5805439639461483	8.8837364309983311	32.8507678783399655
37.6452569422753669	8.9081041251359245	35.3905565494019356
39.8772149803492439	10.4048261224053160	31.3788039002843107
42.6398887230027910	9.5070360421897924	35.0254059671562459
30.7819168110971084	5.7325973949922950	16.0809175455368809
31.8646455684165346	1.8417036543378085	16.6258877990230864
33.7543676291337960	4.5638863572418220	14.5459491193131285
36.6286405556450205	5.4111827357141076	13.8817791411933271
33.5077926817264711	0.5534019264483108	15.6572253686179739
4.0141612112453471	36.7607542598655996	20.1698747315508626
12.7920312984622946	36.6447948364037686	13.4304707260979370
16.4709814668267072	33.8629464951743984	12.0268680053286250
17.1938262482995547	33.4133743323717951	13.9700755100586491
19.0910381886228357	34.3908187123157134	14.8149459759233189
12.0408428141715724	36.5845576774084549	15.6081637464120302
4.3225847481096800	17.8321121877583266	35.7652409965566989
4.7823403889870972	14.6905733980306419	31.1861295270497614
0.4817052623533669	14.7361800296704875	34.0569628710280341
3.7751597261834049	15.9199601383482623	32.7552051499933796
6.1076433769731269	11.6581441820002425	36.7640962483165268
5.5148287323159986	12.7895928596490318	31.4704897266548258
42.9469047294794493	17.4826798132718295	30.8920288301901209
2.5934073069896941	14.6750195263216821	33.9543903204770317
16.4209333251059384	31.9050549696205010	12.6972383140845544
30.1127587090060977	28.3136942009659727	2.4534855534989615
9.2352392651909465	30.5083347741896951	37.5809885376592021
8.2825361357612373	27.0557680321313434	32.2864147393089880
6.1347701460383268	27.9425414214789036	33.3685966866666419
11.0082124876040250	24.8559053387965783	33.4469458398663022
7.0370952139498444	28.4463139201817441	35.5472392212440624
8.9759648631744717	30.6588335373556866	31.1746241933497785
8.4091643967287908	26.6775849282073061	35.9628475931082079
7.5126222509197609	10.5335315401212704	12.3739760671361214
9.2695851952958943	8.1658300550912060	15.2679262852647568
7.0355911376544373	8.6878700886371867	15.2365395971957955
10.3098270461464629	8.9336367659993581	13.6123396427620307
33.1815182036955463	26.1668356167591405	1.3872921980316526
36.4024270809864277	30.0738931279715658	5.2793150679260705
32.3292904313460809	27.7922537439023465	1.3851504569185793
34.3614722695665122	29.9578750557589366	42.1162543582455626
7.6703106008896764	30.9911904892329453	33.1533884716116845
34.2413426102983891	29.7610022472848677	2.9664440227690401
35.8041114044713638	26.1342433397561464	0.5621839002640178
33.7198345399682822	24.9388583864882740	42.7873609530962113
31.6122523152633832	24.7382798230868346	1.4785753650086975
13.9678280749493435	29.8802922350192404	30.4755873310776764
16.5317663586489729	26.6364629690426860	31.7096045538634286
14.9893282522717701	29.7327268333125119	31.9934194569284145
12.9105342013089430	30.0450131457694027	32.1824249887090446
15.0589797558261544	25.0843523195024041	31.9777924921781604
13.5369232256842178	27.1308215082307278	31.3352941258233848
14.0041946920495839	23.8244106548609018	32.8295722521810021
17.3784519287100956	25.3062384277876440	36.9366777913849376
17.2398023758970211	27.1360375089293662	33.7272736997451688
18.5809988902030128	25.6936776272066467	34.6486483907490097
16.4220193296103574	29.9832712146544651	35.3668262671329643
40.2789259842363094	29.2184045133047832	2.1893723719248239
36.7350468456699062	29.6389831615787713	1.0373696137945447
4.1849129067641826	29.7891411557888297	35.3810001122748403
2.3980516067040787	27.0120235283233932	33.3655829314881345
5.5398899331678697	26.7506840371096253	29.5570624955599186
4.3730076320291991	28.5197595919432132	34.1061168084528603
4.2356536998682319	27.1131587832023904	32.6518754524386665
1.7948223800162868	27.8556741937144992	30.3142230342048293
2.8645242031345139	29.0849500430216850	31.6429405304682021
3.8589039300905004	26.0632781800283446	29.4817200920284570
2.6012050358599170	28.3810435600222988	34.8780699429474055
3.9503858189501586	28.0802806349063445	30.3261466741214285
0.8230772141010583	26.4551397250954921	34.8866612122303366
2.7145634272262962	29.1090130684550168	36.5887892142922482
38.1554294937878211	28.4873502635818454	1.0784983981962581
40.9441616401532684	27.7552018648376198	0.6226526145505102
35.1732877235741270	26.9827167701532069	5.4214467989827098
42.4458688307643683	26.0553325457502076	1.2242884375186407
33.2279647912627780	25.1708353964189975	12.8655919009372948
36.6347335640933380	28.1960846260726541	16.7050301046143304
36.4258455104079886	30.1589685701136005	16.2833403305095175
30.6935230270980419	30.4779829579844481	15.7109331905354299
35.7873545674108371	27.6551174663073667	13.0560182620523957
6.6616884977644952	26.9220499443368162	31.3857967724974429
12.5309136591047405	25.2156508903042607	31.7978479740374311
9.4347180592234530	28.7393441823847766	31.5506096077264218
7.7744202026786278	26.4971148271011572	30.0032943433383181
13.0295020574910136	25.8510720674484133	30.1314822588956162
9.1463703897722297	25.9968364216100909	34.0871969309876306
7.3585886030329801	28.6870123472676681	32.2628164925429246
7.8174122229071497	27.4559451710423659	34.2120668397564174
5.9715509887632257	29.8386579685480768	33.7755807905177434
30.5463778578467995	27.6793923898103955	4.1013546897656221
28.8115340719339237	28.8997634734100970	31.9719737108343551
26.2395760971772312	24.5619318308098720	35.4438394503019865
27.3462639429549412	24.9771864158701646	33.6483917362867473
29.8969503687296552	26.0223636141876291	30.9986080509669186
30.2972396791969913	31.0728268246588684	37.6358420113475489
28.5487182096561583	26.7256482489423668	32.3982619959098486
30.5255887999338462	26.1140841782225159	32.9801293617424633
24.7802779455461319	30.5071553695386086	30.8926291150690489
27.4945953449890901	25.8690015084441853	14.1506355731228197
30.2205976951907722	26.3264919962921198	18.0521734186976168
29.3249654238116904	26.8013832514490851	13.6815098459702131
25.4931556041582681	26.9707375738289556	15.6014284287656153
29.9643505561729704	31.7091355445527618	17.4354464577019392
28.7348449400983164	27.8798857642277653	4.3478380383900852
27.9881100502731854	30.2354600890311360	6.7114568235950003
24.9367444683206294	28.5927356668336010	36.1065865398365204
26.8926511040819562	24.4932480236418471	0.5694331441442421
24.4082179448705965	29.8759665769155554	2.5089526600250029
25.1694872140155006	25.3423870405323761	3.3732903681738313
34.5732058382835490	26.4655184511819961	33.8313793661764493
33.2022747769272613	28.9247370400594477	33.8203920473871662
34.3911378366917617	25.1406572631290928	31.9769250881179303
31.7771987898257535	27.8228199260922864	33.9215454006944768
35.9514861702781872	25.3995019184359343	32.8898238670556751
36.6484288855268971	27.3429243789234846	34.4521495911989675
38.2918488956036143	28.9082684949040036	35.0113764724869938
34.4220809702516490	30.3755996635495968	32.5690082356438850
32.4886157086967486	23.7679590635529223	31.9607521727205004
26.7413486629501911	27.8970854095093159	5.5153069606850380
28.1682346418322744	27.9241506214528421	18.4099350148334402
25.1701062613178088	27.6746466384846919	13.4595336540970543
10.5443480898804598	7.9310070835195914	11.5495598656695737
33.7772590052910502	27.9926988329124953	2.7614749555454630
32.0812171101198942	28.9442497201730511	2.9362860662704935
32.7987717685827036	29.9148089474554091	6.5406012906625355
30.4387168125902470	27.2237354822343818	5.8585309973019219
35.6545797546215653	28.1052888542874015	3.4687653787153927
27.5451649890873043	5.4248461500887561	39.4990842768064496
34.7904099941427774	29.0912642197483962	0.7138684190314279
33.7294908501110413	24.4657791961835791	1.7562667324702768
24.7801051048446190	26.2840616751005598	31.8066192467921560
21.9152798842547014	24.6214356264311114	34.5759829471656630
23.0906419657994704	26.0309022709530247	33.3448555468814902
19.3361035845875051	24.8958641994332091	36.5185658508867448
25.1019579081324196	26.2864597039335450	36.2516810721969875
20.3317979448784669	26.6553504466148823	36.7996841415408014
7.8565513890061061	7.0867631320348057	14.9311417656357381
39.4668655148013841	29.8730817109137519	3.9541237693754732
9.6197853970019569	10.7772048406174505	12.9039922534332998
12.2797651759922619	10.9743688895084706	14.8169521811560685
27.6408074544308562	24.9342262408171536	16.0538210251027458
29.2367556701471543	24.2669196188529916	13.1597864327834664
29.2510191560994279	25.2629899418135082	15.0132847982697903
29.4465924118616833	29.9356756686860201	13.2543933466840844
28.5235010185378393	30.3903639376581545	15.2117032604134295
28.4286094718586568	26.4760974159129532	16.8662522799634296
30.5428571104837729	25.6693658729957335	13.0631115116653547
25.3313964681328372	30.2698145079586176	32.9343331029315038
29.2749036310866622	27.8127410664837207	30.4889504255897066
30.6050412427615548	24.6235713156734946	34.3632474126911021
27.3476447275911241	27.8147549292288332	31.1469565000259152
26.9264905346702363	28.9854871665589542	32.7786940117775174
19.6555764430874937	24.2101220671954138	34.5716871275269853
14.1852355089968380	21.7755570468524517	33.1436826972095702
17.4582951306098373	33.3795559470035954	2.7995597998956914
17.5240867082997838	38.2809099529678036	5.9669628832910382
12.8664331334912188	33.7985815527313562	4.0923298798120724
17.1159950041299140	35.5796597183263472	2.1960054530834032
16.7920301127836460	32.5836943339136837	42.3114497192302750
18.5586997768151036	32.2058903800343046	4.1569858423037855
11.2957453179730525	34.9029722219388674	0.5266966637272271
1.2821347115807853	11.0753115013766639	19.3272483837981142
5.1685533994917821	9.7982525402871268	14.9661845626161227
5.6149243983278758	7.7333554717207029	15.8826597676695567
41.6344694743311550	28.7068553380522005	16.8242836038071744
22.3916407927996914	19.0621988887090303	33.4745961422926683
20.0503306186407855	19.0535132779636669	30.4926804473242896
23.5202543885826785	23.0993505219308553	35.1468447360204266
14.7878089947318294	20.2924267295968370	31.9456982139403145
22.1111976701958852	21.0783093481599551	32.3651917974562764
18.9562707178474525	18.8016042585485543	32.2797647720505623
20.7725135113645045	22.3238939313787128	31.1009271272637768
23.5560501341067976	19.8383867754600232	32.2825683458901338
20.2837847506021873	20.9872886880921072	35.8046028887510985
22.9406989223973952	21.0652886314129120	34.0226067083684853
22.1526258700239111	22.6999944590465930	34.0157148262894538
42.4248745788981623	26.8768890978065293	16.4362450933058852
40.7075160761027846	24.9034652561318595	13.5433166809057486
42.1032907544357116	25.9684697814918088	12.9017886260510544
38.4356506606987267	27.1712970147897295	16.6177831890135970
40.7866587555371112	24.9977798926357409	17.9749944828811365
41.6842773959659851	26.6625638607377660	14.5386168577296857
37.0591478777868630	25.8922881214295693	16.9599417450614389
6.7025748334912167	35.7573681241423245	5.3837463519790525
13.0391802873440472	32.9089651340752951	5.6659951485572746
3.7902844544643552	31.8215073574976550	13.6156666147817749
10.6761234545041592	20.8390279926999291	33.0218399948414216
10.8159325887545208	22.8650050929719875	36.5760915484018625
11.2451540211941268	21.1390434893876531	36.4964030605811871
8.6864247309842906	24.6360282637823360	35.4749356272264862
8.7351665548934747	23.4534949198756024	37.3630178744006543
12.4889883621504882	19.8249388812717058	36.8216396898820477
10.5267049810478248	19.2063612337945955	36.1959664643446786
12.4901775215570421	22.2042272673403467	33.5808108840035970
2.1516612297842035	33.5219063211583190	14.0296999380630574
1.8563546028951945	32.6642005916275124	15.8660286055509392
3.5608076662484485	31.1969282141196764	15.7833301761304128
3.5481897954081587	33.0007223456664391	15.0737829125801728
3.2397445443282153	31.8952061918948324	17.4198269374325214
5.2396182734735008	32.2979593962366209	14.9376160090330128
8.9125461069218108	33.3076967043899117	4.4956890948472372
13.0765556093347488	35.2408859655555702	5.1809404162860657
17.7660553447591880	24.0443656061062399	34.7129873306777412
15.9691945841898324	21.7430601188624983	32.1636430410323868
13.4095632752201581	19.5152082982453727	33.6150972501506615
15.1853182460971308	24.8442192557182118	37.0301738406750474
18.4969512668174012	21.3665709049416392	35.9601156577806833
19.0027564056579195	20.8325396448316482	33.9703938509620400
15.8041738527083719	21.2066064904277383	35.6824132088066932
12.1503750066910143	20.1478358323223077	35.0414437736393722
16.9425317825841724	22.1362189067952677	34.2167163559901581
14.5818237581455836	22.2737356348265720	31.0563441043249249
18.1925926173376737	22.3430479541508262	32.4427646126126135
16.0590749789173124	23.5354020968966964	33.3661065638147960
13.6294058298993566	21.4349128747682798	35.2574507901847483
14.0814571481318342	19.8210141973256242	35.8984040125133532
37.1006268496204754	23.8386155446993087	32.1913158712970926
33.7459814985773860	23.7037335118092933	33.2965859410569962
34.5762472744452154	23.6491121862778222	35.4613681634045008
34.4166563716651126	19.2896455424764177	30.8792418207289998
31.8109133385286640	22.7784605089411123	33.5530072684912710
36.0303592055732409	19.4211385445090201	34.0713403041196585
33.4924837123017056	21.1499060701837216	30.3760273843064397
0.1243251788255341	31.0684579363763476	3.2590011340762572
42.3289182692594039	35.1240702129272222	3.7718514411061390
3.3642430312527467	33.5680654091913482	1.6931647437648769
2.8979565135440795	36.4890602801618442	2.8869872980538505
4.1189126129426761	37.2860689341699114	6.6928027463741833
2.7766593157143440	35.1873101715099779	0.3407770568601055
0.4045677494943229	34.4819888968689838	5.4085767162234628
2.4301023835486402	34.5889714215137758	3.0516954933000480
31.8898212309982867	26.2923523679617048	15.1775903160089864
33.4445738388731257	20.3851016687187467	36.9492968627558227
37.8447770764322442	20.5927696171304078	34.0939858322938818
40.3995226798931739	24.7577636429412919	33.3664689211384982
37.5193344312501580	19.7535474972456733	35.7095757457118452
41.4033950139116058	17.8666131492943450	34.4889422134363457
39.4659222388113520	20.3481898689798797	35.7471117368174802
34.7366946873684483	26.1747826640363144	15.4800762343411851
31.6365468723548737	24.9761674470147703	16.9526608553339493
31.3136114105044392	27.6604023733830324	13.7148959770448613
34.6518884126937579	29.2497745723525782	13.5876537913701032
30.4255285031317797	31.4951975663267731	12.0504483574290333
33.2440534768176548	27.7782655826876486	14.6256514546608276
35.0008219959032516	28.1212609078982076	14.9961916860546687
40.8366682382183654	28.7734806593684098	4.4575765543952919
41.9515417338155885	27.0126128105047201	4.5196134976491109
37.8867386860774218	26.3720728357821308	0.6988510087335117
29.8193072670775976	21.9164505224060910	33.0105054158183009
8.0709510298503755	34.3680923475095312	2.3955508608554639
8.4612533938398844	33.8294185607380982	0.6269888065625325
6.5789402091884233	33.8262237963990202	0.8881953870473779
12.0628781162440752	31.2115990607437439	5.7108730264929646
7.7114057393010951	32.0473589133922658	0.3100017755525874
9.2090224626815438	33.0018248973678396	2.7123932060024480
42.5847624216909821	29.4591885843345409	14.9054020936782425
36.5608416805638541	26.9821752531988750	15.3408924869359478
40.4462670991338626	27.1459148686538221	17.4226800969173290
41.2453323545404160	27.8891857260826583	12.7221128301939341
30.2193554113122644	19.7876949541758655	33.6435939916183528
30.4060705685439636	24.1225269284354233	30.8520654284280518
29.1641041233485545	24.9598048045369012	32.5588054789158505
28.7234445063433483	23.1915308514839502	31.6159289832096881
30.6516924852664836	23.8177226252686367	32.6663891502504242
25.8940068042015632	24.9073120557747210	15.0411552339809642
27.0925786856708122	19.1904418906491188	31.9614172149224878
5.0795873851378053	11.6052867558349142	18.2308144383486557
0.6723904152280793	5.6388855345546922	16.2110117266607894
1.1833940398327136	8.8785593012583277	13.3977188291180429
0.6672180702183119	10.5188752834419326	13.9698347036133157
3.1996359714861975	6.5014205762180559	13.2543767857638368
5.0780562587423344	7.5407503727297707	12.9335581363903032
5.0627711773756339	6.2344688564528381	16.8154226964890867
4.3797932706984195	11.6197472679516913	13.7569540974079771
2.2948608943565039	10.4367239298260319	12.4550286243116570
1.8909840369510746	33.0494482244761869	6.4490859405299039
4.0662205862868896	33.1736057428047886	3.5764822955775410
34.5101557804307504	19.1440750995151845	33.0915938733183523
34.3090237206668149	20.4994872815236917	34.8373538056156065
4.4113984777666602	23.5254808028996187	17.2080984667077104
41.2606686218762988	5.6189052104104391	5.1661069257019356
37.8446234843321392	0.7880511556889741	4.3129881387131483
38.1386735634783065	3.7280942545513143	1.1842841317453117
42.0477131290417532	2.6332111150621507	2.2944186285311088
41.6150025042320308	2.0432543158831318	0.1075217010969234
40.2640553076769621	4.3286579878854896	3.8678695470795708
38.7935953270538789	5.9464414980788645	1.5097468732778612
36.2694106073583384	0.6159878753797868	5.2348954725088381
32.0241270899159360	26.2839732738063034	42.7179925612460778
0.5624482715952804	12.2241072439887493	15.5037454348390931
0.6645723358909094	15.2864456183688606	17.6404394432036256
6.2056181088897215	14.5291739941335791	18.2723774031094344
6.1779781222342436	17.8371135046994915	15.0021420789542432
6.4481929822069528	14.1314090294431995	15.0010335970709576
2.9406661312150102	15.8183481097398086	17.2289604863949926
26.5207431147414567	28.8228550429090156	41.3501467956763094
28.2720153047126423	29.8182103763731767	42.6087119064506723
33.8141477778442265	30.0549431686557043	39.0704747760555335
35.1861145170345253	27.8011765197142822	42.1597869943604309
36.2938598395275633	28.0380450751559813	40.5741001930960863
35.1976681177531390	23.7124689212702080	41.7812249058632474
34.2407702980746151	23.7766254624847342	37.6576911946755715
32.4719704130992568	23.7481843636252314	39.2452340594398876
32.5890940672514233	30.0543140527452799	41.0543341928109626
31.9225445702640620	24.3687150612849734	42.3034176030412965
32.8638913620882462	29.8395475687114136	0.2889988349742447
32.5981360623723404	28.5853264389235591	35.6074045883430941
41.0806775869497898	0.6313528210764821	6.1446552514948083
37.4186978217549111	6.3697377598426828	4.2288307281930626
0.3576682773020409	4.6779081752522433	4.6366335374089704
36.8773324800741378	2.5762036489876752	4.5963513541006868
1.9984521740181316	24.6253389740535482	12.5372632717874808
2.2029607027638867	7.8145384502038828	2.8996647676214811
20.0096854405666988	25.7416258330528720	39.8463745216527272
20.8817627421444598	24.9003714549304398	38.0103655119084323
19.1633070422500218	25.7207567286660961	38.2284293922449550
23.5096393189379285	25.5909209833896512	41.3565936878525520
23.2613733837477419	28.4528681224942872	41.5403021922203024
17.6143627004531602	27.3539469445724350	0.5703177694433541
20.5239190653421559	24.2248880954309591	41.2809818304447873
20.6587492452737926	25.8908829397389013	42.0006471725768549
19.7351332830895210	27.7048573298233549	39.0072957443907669
22.6235557194484080	24.9032212443167182	39.2994606186006052
4.1065554946389407	16.7826046734749887	15.3921728217555724
2.8106135307712714	15.9395649889662998	13.9171843101241404
5.2404266893577987	6.1998013180165490	5.2126727992846869
4.2545158949909423	5.3861222296353475	1.4993438181783387
3.2971286819013086	6.4372453518043455	4.3662011109988708
6.8939147873233182	20.6146285212861287	16.6667440597947412
5.3098442201002189	11.0889951267606044	3.8502886996146790
1.0602633808913091	11.3685443995104336	5.6865808111849461
4.9404298956781769	12.2381778180207199	2.1721892348473855
2.4593261349881961	12.4931452556193872	4.2183375890405097
1.4407766982583448	16.9824536953403857	14.7912820060585251
3.8162623474950914	12.2724831285076128	12.1074637018118185
27.5207780957668113	25.2692240706299529	40.1021334955669531
28.4513705527099106	24.8319952980972687	38.1183469926848986
28.8518466381646626	26.7748744866535979	38.7354770702540776
30.0519050838128621	25.4654514940737720	39.2687675488815202
29.5625978778560565	24.7623509430864317	36.3862910759866480
29.5830871227102712	28.6769149235123635	0.3436751420170339
27.3720016219707354	28.3651364901022411	39.5866357721701760
28.6427904305158982	26.8664590707775837	40.5112110731697328
31.0845526591840446	29.4186383609805979	1.2111084616599583
9.9453337187368156	32.1642617409257880	36.5679022942762160
0.2168779346279041	13.8590814853980593	16.2671054889240025
3.9417851723644128	35.6089471152087569	38.4863089503583637
4.2344389257249739	31.6951680033678862	0.6321215342550069
1.9739586537583307	35.3294951841373006	38.3471074176671891
2.9118110846001857	36.4991342324232164	42.0411123859712035
2.6722119455040527	35.6739548557747028	40.1669805934025774
0.8900875357938308	36.7158559655108263	37.8235548094479270
3.1771761776678042	31.9999389753541976	40.0234078134232547
0.6942723909783739	36.4740887324635992	39.8882523111653597
1.1627230468319112	35.3825376266376566	41.8171806650918256
0.1987212740029720	34.1112384281402328	37.7258276233563308
4.8945743067799734	31.6371406758530433	38.5249408630955514
6.3926844437655088	15.0860824434265766	12.8190431572734234
8.2018559050616364	18.0656922169985954	18.6091329491991040
6.9926181924569004	31.5730935395954369	40.7222969332010720
4.7090988648582712	18.0012370966449424	13.8030766438999084
10.0609984638430667	31.9858132066344929	38.5445735219526640
7.1143630958072110	33.3879132156479628	42.1856337237908079
6.2887205921626625	30.3852708773482263	39.2483267345654383
7.1208552069845501	30.0817392689034193	37.2442610280562576
11.0544942396619224	30.8687436594442168	37.3747184762603268
10.7950543362825417	34.3082710387349366	36.6587676643993703
7.9822871271496805	31.3843181080475695	38.7840442449269815
8.5736501777029677	32.3181110087527017	41.7663321899567137
7.2722587944798578	35.4419299629796285	0.3817873289206692
12.5472851207088762	37.1595732612705021	37.7114188742485936
38.2291550927205463	16.1489318943836437	13.6348908884174254
28.3949361559263416	4.4472035125244771	2.4461893142125333
28.1581736633059592	6.4038802178230876	2.2790543137165802
30.0284921444284087	5.2611572420929802	1.9843590088154750
26.8780275767170913	0.7875553895559051	4.1569270535391531
37.5153582169899096	28.9198211268957515	42.0422784623423240
1.9784498252798308	20.0593560944223910	18.0210741102958885
4.5838531467926815	20.2821782651242692	13.2079939414306224
1.3482609714897151	19.1843285903876044	15.2455266622198984
3.0842492378398729	19.0929461570450201	12.7880980028128910
0.3353674860645292	24.8744374199090714	16.7090482400192002
5.3497408080843512	13.4820613496939465	16.8256127305901728
3.5883813743801110	13.7879380383910028	13.4174623759821241
4.7126867246026514	15.5076684756704495	17.0806031494179642
32.1451782401779482	6.0357474084981737	1.6293029859747656
31.9862457206443374	2.4037464399624464	3.3644247046443501
40.2074214450885208	28.2351832291982063	41.3967427694911692
36.9884227630378106	26.9184892670761577	42.1179975510807338
39.7648977013001215	26.1846897817977045	40.6629865066054563
40.0383419441338830	29.2156913956968403	42.9906400295944380
39.8622998906081776	27.9566678194242719	37.5444212705510836
21.2510594985527028	28.2711015659388245	40.6418526513375582
35.5775217360035754	26.1128961401672086	41.0676224421681084
38.3792706017367991	27.8077186409711850	40.8785230594460884
40.9466799643539900	28.3176604069488782	39.2866286880337228
2.0734568361155015	30.6801369319855866	41.4578250128315204
39.1253230119487014	27.3025062971367518	42.6852623451936637
39.2435763170396399	29.6726407012030471	40.7574027236176875
33.9132317780365327	5.6490719106976437	1.7679350868073522
30.8891047938861050	2.6134878577153713	4.9843095104715829
33.4816211006610089	3.1394010383264255	2.1200399158267156
31.6709678118226137	0.9406881934202634	1.8027644867013608
32.6621807862076494	1.9291896479983794	0.3202948042326408
34.8728288402279176	2.8506201263508046	3.9178938703375699
33.2770711081899364	3.7054007739448993	3.8704636836312396
31.9701547914410327	4.3891292558138373	2.3864522197406104
36.4170988253570513	3.3342243781100058	2.6906259454958086
35.1085490994544500	22.1066586231405751	40.8988158689673185
41.0659940565384147	21.6140634370970908	39.2564745432423408
40.0411283332768519	18.4618050510481950	36.3358283080563780
6.4388415261345875	21.4258048124417719	13.3327440088577394
6.2378536042416215	19.2548782723744232	13.3807019842420196
23.2186173368726010	6.0255876684426006	0.2107205691839938
36.9196793931962546	25.0171764594003285	42.4520759514480943
33.2883043527967573	19.4099846777528420	39.6590329564519664
33.4248701221525479	23.5443797336340808	41.0782069490478179
40.2713547419307858	21.5136589357443668	41.0637556253925595
31.1859567644612738	23.8735959031982965	40.7317057133150868
30.8458512789214225	21.6275345799417700	38.8051154607369497
32.8998667482714851	21.8080923544976848	39.8195696065506013
35.0315085700974507	20.0457823612658395	40.5580724600119282
36.7886583827704143	22.8751288772719903	42.0712964071099975
36.1779522626213961	23.7091900886954292	37.8378559366336020
34.3492222763890922	23.3769828859098290	39.4387972443667394
34.8764050423368062	19.2289887731784219	38.0471926329378292
40.1201492475975670	24.1615532124964929	39.5057373327465484
38.7682658920927210	19.4379965188281041	37.4307330422656221
41.6451539009816472	18.9691286958554812	42.6652723853668761
36.5157463306733021	21.0175603670255384	41.6940401759652133
39.3547270954234705	22.5141120366034961	39.5324474758355393
38.0227163909810244	22.0019748774591122	40.6280346523386342
41.2969868570184957	20.0073857841061127	40.9952096240547235
38.0157851952605981	23.4714997436298596	38.7183004463502627
40.4974557116804661	20.0320025480851740	37.8716404026850171
39.0749605835168126	18.5018968152702570	39.0035233910416821
6.5079809738858145	19.3335563291765240	18.3362811182413310
8.9866485948421033	20.0935297117785581	13.2276109655484451
17.2102718076276702	14.1587604003765293	0.5561055600668180
12.0398031047707406	7.2006258264461307	2.5470686166442382
19.5103660247894197	9.7481060673917046	42.9079820626496939
13.9500739103252176	18.6244033377446563	14.1487063405670774
28.6865136527342024	10.3916678546116383	0.9661776843061833
30.9402512259698419	11.4689931432198282	4.5906535769419072
26.1831269501023804	5.8326543634961636	3.2984472120940431
28.8102587049751619	8.3963073009357796	2.2294092734066671
27.6403055205713528	12.2458497761117506	1.9729235401258898
27.4684404036734620	18.6429924713995199	41.1215971284637192
28.7994582480250365	21.9734959225012858	37.7729160011167906
25.2956034362082249	20.5488914347946228	38.3714166189554220
27.9125694407581015	23.5067333627446011	36.6468001162895831
26.6803713626733057	22.3830975420771878	37.8144526297866506
27.0954486825041307	20.4410498853780389	38.0775328532316308
27.1792345270238656	20.6656374133841680	42.0225666039562284
28.9896580090707090	19.5286906458795286	41.5152709805978972
15.9038782765313087	23.4160549196318541	17.3130453176842600
15.7500032055199650	20.5393886241458503	19.1446466294219171
15.6004288373086197	13.4176123009453221	1.7145103790143925
14.3484814736811419	20.8535178197623239	13.7516598252119913
13.2157261747737316	24.5174170033502747	13.1051898706581529
19.7184144775910468	7.1429113437801730	0.8528713437849414
22.2836852755303099	14.1712872760289361	3.1196497962736087
19.4107547652864447	10.0605876867512496	2.9277616968419080
20.4634428649609070	8.8961186853136169	1.3362119703590827
21.4933780238307399	6.7901564023390701	1.0439344794881251
22.2814124242224452	12.6333433145277976	4.0221983905602343
21.8966777988638697	6.4236576803557632	3.3665506867110708
20.1976376800484196	5.0491130569281024	0.5617166013208056
24.4478201689290593	11.4652093906707986	41.8054921216345647
18.5759731145224976	8.6877208420363559	1.8066140902612153
18.8393092155409931	6.7545096931456117	5.3054079517086414
18.5820310168587106	8.3163266988108386	3.7824160863816565
36.7419214414575279	19.1000450124649106	41.4336082001410730
13.3557879027346402	29.8223235462888319	41.5044446705216217
6.0023860274024869	25.9340246504214704	38.9587329001968925
13.0774288045311469	28.0165250506280117	41.3787878954614996
8.4276011989044086	22.0259440107733440	12.9167306894741714
7.5207871075204995	19.4410402584702453	14.9351476399567016
7.8823354307731428	21.1845605725631358	14.6737658796816426
8.7083881774835845	24.3267020978590942	13.1912935332981398
10.8979760114039568	19.1785097859415430	12.3386108990581036
8.0549921062849190	11.9467716893681946	3.0636720634785126
10.4776493175582104	8.6263922798012711	2.6138272365195663
15.5101170829022266	25.2455951419758620	40.2429337394412485
14.9350068292888274	28.7298804760589661	36.4564185559597007
14.8197047492464726	28.6157808832769440	42.2254974058744921
13.5947329794258014	26.0712633424183053	40.3977609941152664
19.5249605893900160	28.8057262821187052	37.1598536328471383
16.6343447867536334	25.7661825455828186	42.1500368645808834
9.8580230491936458	25.8852439254437279	42.6162797572067689
8.1978739378881169	11.5456816857934648	4.8408309115329446
10.6329457170320669	6.9755820579633996	4.5931637420687501
10.7371467122667070	7.1947423853962897	1.0024285647481639
8.9839810496170944	12.4968151694905707	0.9538537198422574
9.1818890093802352	10.0802342423426055	3.6564446180360233
9.0047906933055764	10.5326788080939888	42.9321334402888510
10.3272526059935323	9.0637949937537883	0.5268015301317287
11.9838712656146225	8.8000312976374122	1.1009008114717775
10.6756582960716226	23.7166437959992322	16.5800000320937713
9.7355157995775894	22.3780822463176747	17.6941906545436964
11.7217990579547902	22.0022384983371389	16.9568620186470476
6.9761376286460983	18.3915141157181949	16.8647154616035984
1.7797527908780710	17.2383531831454313	12.7276263879986420
2.8272264425885028	18.0332419303598783	14.2655438190681867
20.4032568726861783	29.3812183894650900	39.0434156545313300
4.3148884252253090	29.6417733716536631	42.6842673129381751
17.4147853578785430	12.6403633029623457	5.3852398264999524
13.6723381313610268	7.2453075211162048	4.1500434856911008
18.1565217748503223	11.7604531082922463	3.8403871489399171
17.5334897786735802	9.8956781478813074	3.1537173263449358
16.5400007668900244	8.5950990751852032	2.3267074069235161
3.0915676068343716	27.0556477659765200	36.2470442317989665
5.4601131480833196	30.8477629607537693	42.0122810111583860
6.0778121383709784	29.4315815382502386	41.0127296605331182
2.6148104301671666	28.4775211908696591	41.9359743839961823
6.1325920037283508	28.1378328690662585	39.6950123279262854
1.5371408319097712	26.0920732373365674	37.7081176740836952
3.2130730479043779	26.6540589316908232	41.7374436580820856
0.5768321218389356	29.8261041877344191	35.9649316348873853
2.9201354278997806	24.9966322965072720	0.4046999570357511
4.4278464246511788	28.1223095305380077	41.4762040766573676
26.9128708339382285	0.9901532131794145	0.6514321867548672
42.8299565130982742	27.5183293715948452	38.1561597227984279
1.2911599881198235	27.5054069539767241	36.5473899476706947
14.5483653199948915	11.0180570527792163	5.3537463425873106
12.4128649476125510	6.5106449444855707	5.9532828748114097
15.3933512224193070	10.0305748947037774	3.5099863853971049
17.1109721388036498	6.9738465553621696	4.2902384782895826
16.3522878993990730	11.2723231632618095	4.7646708952867591
9.2494156017823972	24.3994755369251806	18.0531126273950129
10.1201016222447322	20.6144355924846998	17.6502002103333488
6.1504700656996105	24.7829812728938244	16.0827337728933912
7.0982463338783459	23.2411854550281269	13.3494851834424946
9.9157163005892137	24.8816259038003338	38.7300842369953031
7.9751007309945905	25.0065816616002579	38.4806379203993245
14.2777272557373394	26.7305204417990865	37.3612708626454975
6.0219692843200310	27.0134659718840240	41.2234350950777184
15.9964002882762628	41.2033826823644560	40.1235487382987586
7.0089540839426068	4.9413601284165525	3.7159931481285930
11.0003439685616726	1.6135903725979004	42.9743519441686530
7.6552993443194897	1.8700152902566780	4.8774545126027995
10.7289551436476316	5.8533699138726893	2.9127075227918224
9.1423895100135368	5.3212312043611929	4.2679610726780464
12.2181216344997896	0.4240333436140246	1.3045795266479134
12.1922059544482000	2.2148711478347241	1.8042192414982179
6.6248707323896108	3.1108027909613605	3.5928409236609884
11.1511667202349631	4.4724332115754342	4.1465006588192637
16.9780519334115816	40.2047295299394349	41.8406541797620264
11.7507123855722213	41.3825726951427697	0.0141724028979269
15.1673818725688747	37.8182315205750541	42.4045120067349401
14.0985491303195047	41.2071998202895244	39.3563231213308100
16.8941242222122163	41.9452231423483966	38.4825081871233721
16.5749374095665978	36.5095834339403353	41.2675498080360228
18.7265210314810773	40.2721434337830360	42.3117232873736242
16.3057635061676152	38.0310100956131265	37.3684060222262389
21.3612045490606448	40.8133354739419048	37.3761658697662469
21.4467593865992434	39.7186763043478379	38.8297398777984810
24.2305662581031918	0.3593356134010694	36.3771272433110227
20.7280494397004773	40.4672506689866367	0.3011634597647650
17.8470513081938087	41.2466868181391675	40.4476631063368188
21.5255694501482502	41.9110551596534222	39.1690737603121732
7.7008102744543168	3.9165571651283817	5.0901167231410005
6.0637885087137580	5.4055561875010580	1.5358075457962967
25.2523690639592857	17.2800362117998354	11.9739365152334489
30.8403514196325972	18.7482562993289932	17.9547941196860599
23.0973703106180146	16.4486778253928634	16.7524712180334276
26.2027689832883617	15.8567109104943356	20.1576698848358618
25.6762584810345373	11.9160863214276720	16.5152573725990948
25.2902381329451806	12.6940225979957209	14.5312656336486654
27.6144751938061361	15.0196580109642515	19.0763377530223615
10.3866641206747587	37.6928536346447700	37.9810437261208520
17.5607052999381281	2.8794343068708419	42.4779170509140016
12.5462696257836939	3.2280359981070923	5.5674011230040961
12.1673956906278491	4.4826252775941340	2.3786005572199955
17.7297240511881249	5.1799752794548430	4.9256635616522662
13.4171443321581254	1.3035405636249759	4.5803474845896135
7.6539387607498206	38.3617256391763632	40.1737073308482664
10.8257816376739715	42.7149041456208352	36.9804905100346275
8.4527954134972365	38.6857136589347022	38.5452316946529407
10.7579050719929690	42.7541095926461878	42.3616212577393512
6.7690364465815982	37.7391014190934513	38.4888202322633646
10.4026662293156047	40.8930843326545812	35.7348256055463622
7.9569984056547263	41.7227346890408270	42.7538040144847997
8.2740700982494619	37.7708490641431283	41.7733339176272906
6.4175231524497596	39.5155368138151175	39.1456315304191023
13.5018533285964857	39.1155202507534483	38.5753522206478081
29.3823401885575990	11.6141788993681132	18.2576417699882896
10.0481790574943322	41.1480901023353667	0.6202036577531388
11.3286911136191932	36.0077345693994246	37.0212954610573135
9.0764054734458792	42.9061982844819951	40.6929281934939411
8.8890945916674546	37.2037492243419479	39.5085201433078339
9.6577623032423539	41.2008560502040879	41.8406065803311265
7.7550319116377171	1.2741405871705391	41.7734949117795296
16.9675908673609506	1.9080826704481557	1.5065392790918373
12.1772267320049998	6.0931883686392379	4.1314725131053720
13.0959468234763214	0.2800269643540456	2.9192501408811999
27.3971991701343889	16.5201372638055233	12.3773349968545237
26.0966556625589767	17.9971246717582538	20.0251702370445841
28.8259310726887747	14.9486078338764479	14.8839542005114360
7.4761297611616291	4.0617252431479969	1.7676857319314137
16.7431320397560484	42.2057726041218757	41.6866971529743324
14.4007735249922870	37.5822338382664753	37.7835507240628772
23.8884382497179537	12.5677698811569218	16.5302506395409736
30.7435626471687726	39.8769554784075453	41.8337500570874923
32.6725310616424593	39.0740234279933887	41.9323954490861155
36.1928860244525339	40.4139116623814019	37.0976940032851630
33.9716052068251173	41.1298874084149233	38.2439770380023560
30.6549902183000178	36.7053681172484616	37.3912290285429449
31.6172227167096089	37.1790426113537862	41.2573855236520686
33.6504188222744460	37.3670998244544137	36.4263591612755988
35.1039220690858826	39.5546097196942839	38.2474188908228570
14.7310690886552464	16.4987254853542105	14.2781286433266423
16.2782764893981167	16.0684113214739952	18.7563287795308788
16.0754925488435845	14.7318231502847077	16.9000501854502687
20.0549661647273467	13.6448378205127288	14.8781720628776561
21.7922157523176949	14.8506753688967041	14.1337396386237000
22.8847179649894343	14.3825136609936557	17.5447551337441361
22.8243082938267321	15.6070012701073093	18.8739545984648842
35.5005993730452545	41.8210206488559706	38.8891761909271310
20.3195378275485012	11.4327974830386161	14.8600881116596710
23.6129553082593091	11.9618053601896115	13.2619558065269150
22.4658974570616223	18.9451743387585907	20.0774877824481806
23.1345400687850606	17.4292105765733929	12.7661485212721519
15.8946490171859249	13.1542363968283595	15.2814809491971353
36.6012016104797695	40.8070592530009577	42.1219965299512538
39.2723914519359525	0.0488684256663669	39.2394103357347817
38.1436542022999561	41.0713220789330435	40.9006557019691073
1.1538715422426136	41.0450102440657858	42.7919804610095298
38.0312449559802914	40.5654199428271980	36.8511753128296391
37.9027951019437168	40.3765435675577535	38.6835091855349305
39.4613459086089691	41.1301065542908546	39.6622187927729755
37.2232655309302558	42.0379204061291887	37.8978148909842147
39.2615036419719488	37.0114040346122124	41.7286335347398634
37.3705248106773666	0.2308809310857951	39.2497090021505599
29.0732551947700877	38.4074541245649641	42.2310954562624872
30.8840110078705052	14.7648494215696306	14.0706807161152589
24.0186344653103951	14.4609420194297265	14.3375874182195879
23.2491737129338247	17.9949607655585453	14.9705651630894110
27.8627336215404000	15.5011646377749024	16.8461724171482317
29.2317416089323387	17.7021614789288115	12.6140841113231073
24.1471288324587370	40.8427114514164060	39.9921896231086080
26.0553780389494349	38.0056594849419085	39.3204993398257088
26.2222269156109853	39.4988551684627964	42.9255309575385198
26.1072804869077189	39.8294755786687560	39.1105958937444740
25.6073313826916120	41.9277517813376122	39.1101626957800050
29.6776264580967748	42.2976264891566132	38.1355640770110966
28.7498220251144794	41.8393153827682625	36.2607381371776540
25.1139903499169073	0.5063974934083779	37.9729673202238089
27.8168111469195054	40.9947292389471869	0.6178464828064322
29.7703919106740997	39.9078278337527195	0.7021497887036611
19.3787064980373565	3.9830103535862893	5.3232898103454191
30.9599492831365701	38.3467615560627948	42.7118731323730216
25.2204178570515118	39.2784899221709338	40.9057068605207874
17.4082841372352135	11.5916685909194541	18.7448467658599860
14.8996509177852126	18.3689980461504661	18.6558213002771609
1.0542319782070413	3.2729070310681099	3.1516081721735860
1.1596458097509241	2.7830196691705793	5.2705718653342117
5.6250416724341354	4.4526888470664936	4.8181787996972449
42.4179746307759160	3.0252528169434747	4.0416823627517653
1.5815642054159729	6.0498637472675370	3.8686700131567462
5.1711547274411087	6.0568304422954053	3.3816181985691309
0.2206057132739126	1.5056534892775260	0.8491275977549043
2.8368317556273888	3.8423837928905948	1.7553465093817595
12.0246493224715181	13.6159679523489174	16.1248056309586545
35.9650087592918410	39.6690290935811305	40.2136482627040124
30.7045781957093240	36.6819905518860878	39.2269231572082120
23.8583694298996001	3.1843456894042972	4.5548897753132183
23.4761123950891246	31.5306133782898037	35.9298708805853906
22.4936387091347143	32.3819933945664715	37.7468108869129395
19.5224179491980543	30.6813297752742997	37.8655534137008658
21.3918396409236706	31.7351956694862736	41.1449550056200550
20.3758542136208689	32.3127443940762973	42.5806284453990926
21.3187709467121529	31.1672641596335254	39.2855454199617213
20.5308997739036876	34.9266591627579004	39.2268314834362144
22.6107153516819750	35.7592458964270463	0.7238481424952048
23.2088505308268047	34.1944909098377536	42.3562757772467933
22.0516292142056507	34.2444069642619766	37.9454076474695512
22.1654785587444714	32.2785666793330961	0.3524944243392064
13.0235104518122213	15.1999686097782121	14.8131159379470372
9.2825656813047388	16.3814585825232335	14.0719211976326299
22.7982563859048284	5.0331308274513882	4.0982394347145688
20.9881205577836454	3.3968895387143894	1.8308526430600389
24.8035872585518931	32.1598926742885141	40.7686095351122901
23.5322701042845850	1.3253399751017714	3.4544168411869687
20.7698358841148689	5.5216315380933771	4.9346763430758500
21.5400424077562143	0.7705123154234833	4.3099487868629511
30.8988891972124549	29.9697106238501014	42.2810362029859235
24.8103307621175979	34.0880520445856092	40.7820249716305270
24.6156679047291860	30.2972429172780515	41.6693285554132657
26.5753275254729111	35.8740046865259288	39.8167088901110517
28.4645284081650942	34.7850008234897885	40.3779691975459727
25.3016322435077790	33.6522571840502138	42.3987998899892347
30.5394802109582741	35.7497813679274898	41.1941760631387410
23.7620883572774169	33.2528647214767901	39.0965627833152638
24.6554227704630158	36.2765786722594754	0.1763804592153155
28.9436066482934251	35.0242233399870884	42.3803316263935983
30.8942590455311858	29.5095499434403763	36.7767576681070594
26.9639216540872297	34.6077680190177475	41.4072574857223898
15.0982696065823507	33.3146846768767020	40.1712793627010640
28.7594481605510097	2.0146141495715972	4.2699018371297024
24.8715706764667814	4.6694894633172304	4.7417911754421649
28.8016922117502325	3.5503344868628712	0.8927733792911510
27.3724493872826606	2.4201854023713247	1.7792655188839535
28.8436052645793666	0.9695887686583458	1.1678106279242952
41.9026342998795798	15.4446322051092508	17.2271634235035087
13.2937819270361448	31.2890408872883157	36.8714069012502179
16.7476316536409726	34.2179925909815665	41.2652903075489448
17.7209979142515159	31.4724275365790085	38.9585294390945762
13.8446986973602044	33.4355928175219717	38.8155594884462403
17.5151824560835010	31.3020379922662002	0.4223863507863033
13.6132017228219873	31.8976357252596472	40.4748770352311453
12.4960703261829291	34.7404982800412867	37.7393237346577095
16.1774955029912384	33.9713394066844359	38.6283650082229357
12.4382169577274535	32.8914166797852445	0.9338450616605939
26.5935706975667365	30.4136894988451232	42.2362901056691484
15.6598215334533730	30.6546023048457101	42.6651351767001898
38.1640096317015676	15.2370875112897366	12.0257346162481902
36.9490009241393906	14.3136016276959168	13.0449929071661721
39.8827010543856701	17.4167512272132043	13.1898134734578303
36.6398682618256544	16.0809740379248503	19.2113118258858080
38.9489102680084542	18.8813933735019397	17.4354683853254180
40.4333386190013471	17.2335086099222323	17.4755682561069143
41.6685240732650541	12.8739322974458581	12.3944409028872151
0.0072442536916442	13.6170450597904509	14.0572781731727048
38.3397485480975746	17.2087123924106820	12.1420872462793721
12.8303215185353832	14.6425998659945673	17.7974814315606977
19.9086882375345517	32.7764254479437014	40.9158266250068863
18.4945289170565914	33.2371548077805841	42.4891606849970600
22.5519278538008514	30.0113635033344686	40.8649330215152702
21.5678049123125142	33.0907952751753953	39.3966413524894392
3.0154348570772020	40.7357761979147881	0.7111829746207869
38.2220835386738926	30.7707073111131812	38.8299987487435132
41.1601137215890560	34.0494315808336978	37.6186951980187203
36.5976179951406451	31.7945898299034013	37.7642937041226006
39.0957110047089174	35.9069780586115215	0.3896129626560443
40.2868907694199478	35.9335895571482737	37.8157622114794592
39.9550369408122137	32.1345936516924482	37.2119029581922192
31.8196213456652330	15.2304439780750887	12.5680903139707887
32.9155446367445066	15.9930211835259559	13.8278643243316388
32.5726533667057510	17.9927430627734388	18.5206504088577830
35.7693710441790245	12.4750106015013724	12.1487592762422612
35.7661224147821599	15.7624322194002016	17.5603734574097814
36.3374792758593230	11.6578432987637353	15.6219151156657166
18.5499565802631388	2.1333620902969748	5.7140447732528639
4.1680686056581306	0.4375683247342421	38.6238689613932991
4.9879104793395701	40.3166594646899554	40.6785118306582447
42.4866206107738975	35.3199007078826241	41.0942892833412969
1.4746460499368375	42.1239246585336176	41.0728040462493666
5.5044587212627718	38.3169388662164323	37.2539406344814239
6.4431362676700994	39.3343357437383077	41.3242869667603046
3.6113505395813368	38.9573239559086772	40.6799411145639667
6.1272135212655501	40.9571495645871906	42.3335236866159335
1.8813987965402392	38.8430414154721078	38.0382905405467469
2.2058834091831443	37.6259175089979152	40.3100815912538479
4.4103878923956827	39.6369811502071983	42.3395640937639186
0.3299421414574388	38.3397073280734233	39.3069098559193435
3.4261936230924559	37.7921411125471352	38.7623408494940378
2.9739937059732484	40.7058689501539490	41.6549076645072773
15.0662011854491720	2.8729956298798589	1.2567179871215635
14.4391404102547138	42.3469285189871698	4.3633255772702375
18.4960701096693718	3.6140662906863752	3.6396217794853447
15.8903381671876076	5.8134574217480921	3.6403491677058000
32.4318079455509434	33.5466529083119909	0.1591756263499443
29.9425317708269993	32.9725254535579779	37.4885120187032257
25.8185747280905424	30.1123946795429234	40.2731377251301197
29.3777016068559504	33.1162826235127383	39.4632061086960135
19.8176667151479791	1.9990307551073840	4.1220049988378173
23.0747684341469004	5.4150338998685168	1.9106594041091385
19.4560212100207863	3.4330755390016567	0.1882179190535572
18.9044041712524127	0.2639211162596886	4.6617374589405713
22.0020431714939519	2.3728852792002724	3.5599712322232513
20.6420263765738454	3.6944732093352068	3.8388333239368131
23.9113938889078419	4.0870041821550629	0.2019268719259863
12.9889758856738329	16.7455656918229288	13.8414305559131545
11.3901756958423626	16.6992845233092915	15.0510724937157399
29.7094053146267250	34.8610362949093826	38.5521804990042867
33.7076160189751803	32.3103019505987774	0.5703319156500118
34.1131165451039351	35.1593532801717004	40.6868550598865255
29.4218315991781338	6.5030482695604759	3.5684186788414616
34.8502081835533275	31.8025122916940042	38.8919883290679564
32.3342456510956850	31.3595951371421968	42.3148390487464141
33.4338823593566445	33.1056590811819333	40.0713140326188721
35.9500015352987106	36.5654759331560086	40.7578477886754627
32.4306529323164341	30.9028421683547805	37.6974221072004667
34.1053936531868658	31.1777883517345025	40.4895813160545046
35.4970739611975219	30.0215936329913049	40.2003844945227371
10.8732319620514684	16.4890337511356257	13.1941003513948747
8.9169309493935760	12.1329278265928320	11.9190315196112611
37.0462428889365611	14.3517770155789339	18.7734252604254870
34.4389037203095114	16.0000813340515222	15.6175983270721002
40.6839680194527915	36.2006294845542413	40.1277952664424120
41.4227969612917448	37.1960770267379885	38.5463082770273360
41.8001631712056891	35.1652552052110181	39.0878992850401161
39.6188319065851857	29.6529715817770914	38.7785491435415963
17.2992310028180505	8.7015670644301615	40.0089322944006227
15.5533715778105126	11.8418064366521509	35.6765473412542775
16.5062275586694014	6.9318416373357508	39.0526535851126795
17.9540455150165599	8.8634060791149629	41.7156643775227209
18.8169877438934705	7.7306502528010439	37.2906737534273205
13.1948967750053114	6.0480293379538228	42.0498006696137026
15.7326400425876969	9.2113082894845579	0.2148561429509706
14.0467870262987322	9.0750858442837110	39.1405915395005479
15.0671586669678383	9.8317860274040569	41.0696498494140769
13.4801127014749920	7.4742859709903433	40.2432957743043076
37.6346590998480934	18.0043735100664897	18.9886125420492604
37.6797216478596937	17.8370780570991734	15.7378528228617274
34.9551822653617350	18.1240780959483594	4.2659057234119011
30.7946348307908622	15.5111297714570426	1.6090719247858460
35.6096341578031499	13.5471885002082804	2.6851135416102720
35.0521621953243425	15.4845551536834805	2.0587488259288138
33.3186317788879620	14.0155211800384194	4.4571716237325107
33.8389285741970909	16.3757499494836161	4.3277855317953229
16.2904835993787245	8.5256812708142338	36.8487655271024011
16.7770500793760959	7.0063088163542337	41.0426856004791745
39.6415787387787333	21.3599658545154725	14.9429024940619879
39.2323191199881123	23.3693059959078333	14.4856238141141400
38.6155947805459121	20.8928304593826013	16.6477288442129350
37.7897357476736246	21.8037712866707700	15.1618732139089367
0.8671573021778708	21.0651018427427843	16.4509896667170636
38.2926275346360114	19.5285303097646015	19.7267670941578572
36.4086361925958144	24.8520885295005058	15.4209520365779671
35.9555470197735687	24.0158028151917122	17.2284672496904676
39.7255908233929702	18.5085262861201407	19.0683384148397792
19.2668291842046315	5.6918450210248297	36.5108142583440340
23.8724588624214249	9.0759086278559256	41.9648668632036319
20.4491986091160562	8.5334738082795258	38.7961410493279857
18.3724426458072472	10.5291814992832062	41.1349458430604003
33.2813162766011175	12.3283882362537511	42.7095972410234737
4.5652614066266493	12.4502993939853930	40.7258136961810138
5.6602572762502206	10.5204671010517323	41.4313662054125089
1.5478741801566933	10.1572529023857570	41.5487527640950418
2.0874962056998001	10.0447551774990504	39.8223578149061765
0.6666102607638295	9.7788478032172161	38.1386639715109226
39.4461110184405754	19.0473709488484388	11.9493720729325403
41.8265532645395908	20.6725210671516670	15.3068461583895417
40.3399154094919794	20.0376078584885100	16.1576982291531657
42.1358656882207256	24.6825523717957225	14.9645647555210175
41.0988600589290911	18.6911000208096318	14.6889399618174963
36.5764974363961528	22.0430035363119856	16.5135414953576500
0.5057640387834980	23.2196774502711563	16.0074227488245207
38.1885426128283356	18.2837671288112382	13.6755700787863947
38.5805943503301663	19.3997083579661407	15.5721241097026777
31.6346578192892736	13.3627107719835188	4.8061374379407198
24.3654826152071493	7.1054745747552026	41.6399401472029353
34.9932360799248556	14.7203545976199308	4.1025958930994015
29.7256777875385403	17.4898251564653044	3.4582013569863834
7.9181062565216598	9.4838496826369898	41.6437911758213488
7.4102704889602053	8.2269275142639646	38.1158491055656654
10.7016313926617546	6.5819231367846278	38.0369781294901728
7.7404305401428823	5.6589221544009050	0.3747497811996324
7.4065233419283336	9.9081952467414709	36.9907388382222493
8.3085961090835116	11.7969297021523865	41.8371394477315022
11.4349798143063737	10.3698159025149135	42.4838757961643196
6.4206969232291637	9.1348686822335967	39.9064039865442695
8.9892360146000847	8.1956219595632707	42.6437297536836581
10.1855284802820609	12.2661216395750081	42.6081873860441576
7.8569566332810679	7.4564075255857141	39.6958922716233289
7.4073917288850186	7.1923540009727365	41.6505286048475583
33.8070930519374855	17.3943721171933134	2.5245072171482055
31.9056048395767995	24.3683046584635434	14.9379870904986003
37.7029837692602428	7.5485128832160795	37.1581333382934176
33.1850746981130627	10.5056546975762135	42.6068324622110808
34.9497396063829839	8.7768592315155569	40.3404436432758331
34.1742125418939509	8.1708557924319614	35.3700001961324375
36.5130139094926705	8.7395354819450368	38.6939581763154408
32.9896352287838539	9.2117043289985343	40.7639955859773409
33.7986678420114970	6.3385548295644298	38.4964849966746669
32.0618880648778912	9.9562716503052524	38.9339850459595382
32.1038819576868377	11.5033658272735089	37.4250799261203113
34.7423789340752194	11.9081979460325940	41.5982233159026862
33.0372560753949998	7.1604918191977331	17.3614532176968730
32.8137836931141891	7.6953641546262723	12.2110431429853818
31.9027192797719295	8.4773844025164031	18.3049297002736360
36.3378432428947633	22.9062700443559244	14.3158872754411544
35.0391178865951147	19.8373829400787329	12.7615873073219799
31.2704937759195509	12.3408767001559205	42.4829616626135120
31.0851682566874743	22.8835039088849150	17.1273824155917893
31.8312857279202461	23.9142250078659622	13.1094815070277022
32.3844603333537648	19.2862208476301404	16.7877540792521458
33.3467748943849003	21.6977168134347913	14.3773648672386223
35.3900741380345423	21.5278723022289853	15.1707936447631440
32.5640680096929600	19.9011998745061902	19.7600665584669279
20.6869788863403663	15.2746828643700248	3.0881100804549675
19.0996005369848838	16.8828586766896684	3.0457742936108567
22.9713371113405032	17.8579171354601876	3.4840905829716298
42.6571462992760146	10.6203870004661969	36.5881149710643498
40.7027302254416270	11.4163202709218901	39.8768003053783104
42.3398084487481583	8.2740271747103336	38.4583104623358167
38.7535837014455851	8.6942048175860620	41.7624551099001167
38.7351133529387255	11.0960062368443122	39.6745726579851592
41.6761318727909043	10.2481121072369792	38.4469316981457112
29.3373306479505231	11.6141448571674832	42.1184602636365639
20.6246139622275102	7.2796904221213294	37.4330513447117852
22.4266769289349313	7.6977180833927425	38.0199075050584838
21.6759893128417893	9.2825684451442942	42.6979459788971241
19.8523110435459387	10.4683095925595513	39.9048249054954169
23.5869104078871779	10.4652946374801736	39.9008320204654083
23.3746938296278586	9.6756862471138270	37.7234164401919756
27.2598815303484869	15.2093920970707064	5.2896296435230763
24.2147965631623308	17.1972478742511790	2.3357902767090746
28.4659538294642509	15.8201541833408772	3.8859562525207436
27.5223861495493587	16.2963591876307561	1.9217080878989168
27.8238384613192729	13.8432676919671778	3.6937229455661136
26.1946142666642849	15.9167959677477739	0.6597170368438595
26.7209519257344397	16.9846135445983606	3.4126643143751094
25.0064864401887021	17.5920589697033662	4.2504854281186475
28.1384886033256443	13.4614425526670516	41.9518339102819766
5.4071783255847317	7.6169500056555837	40.9874045409294894
29.8585499876987583	12.9910743775625637	40.9276998448831435
27.3225602768358300	9.7702682883050205	36.5012999852439677
26.7492644644907855	8.1773866557929722	37.9308799243014576
28.8444646146120753	7.6323150818946486	37.7435607845950400
25.9204140819496480	8.0499738240045211	41.5282388309645114
26.4996902768698774	6.4330675214973985	40.9076784583801114
28.1633959752257681	7.6995005447998865	41.2546148084106434
25.8914080842778560	17.6809751982349077	1.4191869922885676
27.9281125288762588	14.9151574468561829	0.1603369491874772
29.9179872118429699	13.9940193578242269	0.3393291597528973
31.8546699461918301	10.6356257141369799	40.9726696565713269
36.6890367410886640	8.7859867451761318	40.8269584281394913
34.8129978197117822	6.4755021834178725	42.2881621693566174
35.8207104444368341	9.8551978045895456	35.7100392432605247
30.6175678374266518	8.2307638691370464	38.4990515273439016
1.3599691036776194	25.1810544049150877	1.7693392069802172
18.8244574444171029	4.1127033524471717	38.3275174609279219
23.5460917180735159	1.4951022786756154	38.2371587106736968
23.0144805047646877	6.7370131668875688	36.6328545281382674
12.3053833509340365	19.4320088795510237	0.0327865127783351
8.8701434681448816	21.5146098879285361	6.2374850630229011
5.7504108305356230	18.2458510863054215	0.4441273129892594
12.2100261046731831	18.0624784276435157	1.5276728659868835
7.3057969825772000	17.9015897906355441	3.6273901980656573
5.8581805122167649	19.4441857322873446	2.4579701771818709
11.1281491163884105	21.9391283365077996	2.5172298405071745
12.3926327956657243	18.4716257070842786	4.7616061002659240
3.7477200988952588	27.2743554552526959	19.3513829627672713
1.2884852022379119	26.2548373257784711	15.8689985939112486
0.5215114298126193	27.5022928195447882	14.6178086795888760
1.1979804291309848	20.6976773384863506	5.9653081165799158
22.1382669237536120	4.8652097399186758	36.9469552841525086
29.7550693200676761	2.0829434187373397	42.6626003347628426
28.4815824304067142	42.6833774946789291	39.9360887621214573
27.1471707554079984	0.3096188004258386	38.4958205166852991
24.2030554273372189	5.3730534173474984	37.3203205398097140
26.1909932025069132	4.3772023533831064	40.7320821057612079
24.8659213910365580	1.2715107678422211	39.9408726146506581
28.9093670554568831	5.7297030891749756	40.8933018119267828
29.4898454776650105	2.2339671265939751	35.8836595741755318
27.5197992575868646	2.0784932242191143	37.1480345008360615
12.2403960644810947	12.0842832399541908	35.0954126302608529
29.0801243329485857	6.9482111394489792	39.5268349542311341
27.9835604598623888	3.7365127410592498	41.5733399401818886
26.2927691501116705	2.5955432161934100	40.4418483250868448
26.4883041381251942	0.5089679088902093	40.3544868814279596
0.5790114509863155	19.5806129779443054	0.0763922390796200
12.9125219196415930	18.8583279033765514	6.8463202964505516
19.0398727558883465	1.3503548747920109	37.4057849695512843
16.3447837976656487	1.2679014840682128	42.6580279917088845
18.2637081785996855	4.7103861973505703	42.2929806212375397
17.4571505446250228	3.8779125412372908	40.6686030752752359
14.4058755497352102	4.3764789698300870	42.8821065106061781
17.6899293963911752	3.9737920650999099	36.5707216383360461
18.4581194020412305	1.6223238360032011	0.5241971064122989
16.9437031229159274	0.7886908627896152	38.1835736940218595
16.2145981282604730	4.1713783665651905	0.0721251478934651
15.2590674814321918	0.0602891862135140	39.7207090009837955
2.2232809779686367	25.7127888687110939	14.4164975268932860
3.1477472802996149	27.7156608388630801	17.3484483923996677
3.7470803295530573	29.7449821506443399	17.4756122060746009
1.3576634687727622	29.5715447908714637	14.5191339442187406
6.0378578448640239	31.3948304505014697	13.4403322618861889
4.3621219364820867	19.5825548045727267	1.1560601643487729
12.5014775194729992	21.1427212933563808	7.0699882850951363
10.1909252479247314	23.7207013181434618	2.6240428770979096
9.9571116096621264	22.1943684056509341	4.2836225095463751
7.3173211608885991	18.1296378122493067	1.8114120583075792
8.1847205379560766	19.7336503539519335	7.0157624530615408
10.0936595486027141	19.2028807902785914	0.1444520919961983
9.2153273475282838	26.0032541333432938	2.9833083350318477
21.8733420164465038	0.6823534166733869	39.1890648727245363
20.8826293065497524	4.6289074249274922	38.5993609153194583
24.7260352922191409	7.3111459671192822	37.8867590543148509
24.7607059948604160	0.8946595690209029	41.7310965476441211
23.6881543637612424	42.7334519099758339	39.1636334329796441
24.4885508331951449	2.9778075203905656	41.2581758665655869
20.0418363581565906	42.0068080862607118	42.5416067104781774
20.6857117708310447	42.9632005273377686	40.8762914724491964
28.5177546876638921	8.6158196849544453	15.6653061449379809
36.7049465728417346	5.3477656654978993	39.8490136576870455
40.6626166103315256	1.5486568356730126	38.9412209112361296
41.9221363551883925	6.2726347032826144	37.3816306078871463
39.0548580624296164	1.2765910512953473	40.5760883269306589
40.1248901869111450	5.2705474396130247	41.1901498502889467
38.2074103580741351	0.6710828987723878	37.0968346830701989
39.0336539027908955	4.6264592067215489	42.9040543121022040
37.7066436437984862	6.9617654644362865	38.8817666396485180
36.9525251757798685	11.9496872774399581	3.5453023979137552
38.1412837482975178	18.6910139217749567	1.9863410392627714
40.5461142653913740	14.8927939407822638	2.2512711827363856
36.1679415779205655	16.4808959245653064	4.5383707480006690
42.4196857600363941	13.5277472558876646	4.7030203620045370
41.2087518939257365	16.8935920988341941	4.7694120810776885
26.5140952414086861	7.6255914057025009	15.3523765978935707
42.2728392991894140	5.3902708994224664	41.5297528475039570
27.6007891924088860	10.8846655988816590	16.9651640733603983
29.9295728968319992	9.0424222296153225	17.4453158040643856
29.3050656497597934	10.0569934153885789	14.0319712008260336
25.3580976768147330	10.1346491100976746	13.2523353083948709
31.1290810680068013	7.2897451623513350	12.7149117148527111
4.3373857163120464	10.9921139163311210	37.6251708279446220
5.9247030220369759	11.3225920453630877	39.8227902277994588
4.3635670404845577	8.5238245766704352	39.5965011502617870
0.7242107267116126	8.5863409380489912	39.8676510154830055
2.4906756718445644	9.7385671458389549	37.7704386638069920
4.7643537473457069	9.4828101122822517	0.2307826505590302
1.3608409814018279	8.0567963894189027	37.9083084616111563
3.7168812161389955	7.8311400521259618	42.4607400291482975
1.7910572265063811	8.1807948597879783	41.2914019106729668
3.4543421898608488	7.1451593820282362	40.7885240112221226
33.6173661061895643	42.9419689939817388	39.8421363839957934
1.0133419533742944	19.5332953154956463	4.0390876405852882
4.2898676155047166	22.9613142782484800	3.9637687657285414
0.1045993195673127	22.2880271861672838	1.5831787198125613
5.4930479344963263	24.5328985776835005	7.1000003071948603
3.0106176652099901	23.7638879048223046	2.1190128091035798
5.8091542215121965	21.6383726006008352	0.5250688041349556
34.2911333773177986	5.4283567181791605	40.4162115060079330
32.6473904906867318	1.8995637713883733	39.0987134411765354
33.9162435354221188	2.0309349775968903	41.6143292983498938
31.2842265255987648	1.5638774276318981	36.3156276583254538
32.3898682514206300	42.4087270500355160	41.7488776377143722
30.8708541204467437	0.6689137019613056	42.9729403533637893
33.7544542196845114	7.1706921077175707	40.5402723879661906
35.7040286849266479	3.4181473061207659	42.0574835582477178
36.0055566235636348	3.7705953833721542	38.5868512272222617
39.0491977619990962	11.6463430510702430	42.6185179278307089
31.8021043049684948	1.5582720682685147	41.6184165989251298
31.5425930671034287	3.1774161455525762	37.6043170310697761
2.4051321355099446	20.1070860673039569	1.5310262130378873
5.6230086429863437	22.5108360426015182	5.8329214744744409
3.2763784117836101	19.8151055894837818	8.3045467725159980
3.9359610419256010	20.5129802398016210	2.9055124408594475
2.3844957989789366	24.4439007594190620	16.3190033278273461
42.9875000135502532	29.4694370951188880	19.7290724883766586
3.7362108571642216	24.6613927706402620	12.9967443351084633
24.9385409218104463	9.0601788955968150	14.9668957461210965
26.2467244064061340	10.7816714810918555	15.2211368585234208
41.9285595091943577	15.2812426380767707	3.9742801028474171
0.1886287731659292	0.7228286958626283	42.1813466846662237
0.9274733698311277	0.5272586201883085	40.1019291724264946
39.3869434512725078	2.5315711838623871	42.5935070272595340
4.4948828507901926	23.4822325464319057	0.6392669509399204
0.1441011744163047	11.2904694907004473	42.8274285534171284
38.4337026570502758	9.5961558032923708	5.6416628797636887
40.1977805755573101	9.0916189412925998	2.0401957082448781
40.7342923895897613	5.8557324958126582	2.1038018904383620
0.5691113425339707	24.1889623985258737	37.6805333001370357
3.4748277704308355	22.8649048895753637	39.1382935354913002
1.7001471252485749	22.8090576499333082	36.7225918237061890
2.5427142674745071	24.2368187329747826	38.0763848429631366
39.6783201988204937	7.4270821459655716	2.5642582995970193
7.9134884653689967	18.2716282016866280	36.6709830821482328
3.0198705204965455	20.8968734083687693	40.0764168986404101
4.6501016488896036	26.6557456539264521	39.9454642083096658
3.6439501319810597	18.7402120731622333	40.7524672023428423
4.5438520414795001	24.5496945786238605	39.0099641444035115
1.4874155302406951	22.5171863104040177	38.5061618036857070
39.0982594538920196	11.5854276853632552	3.2157686433464949
42.2356439332133320	6.3988013834972897	0.7936658512043037
41.0137878954148505	11.6639440486723878	0.1484128628474074
39.6104470925171555	11.1169421755457751	1.3611360277140636
36.3456855802934768	7.4118154353898689	14.7971563020219676
20.3654287203056477	19.6344362444121714	15.4234147289728671
23.9939221420155846	21.5127382189186633	16.5247588481455701
19.1734794641285369	18.9390378672334982	13.6668067598144347
22.5182802164540057	22.6746848127990823	17.5286214741439110
19.1324184593533175	24.1077104165792022	15.8008294056389929
20.7536250034079544	23.4432356674200406	17.0097001765054685
10.9743880264505016	19.9166602616032300	38.3982543383139756
10.2354588503512236	22.7599821402618616	38.3896601960813797
9.0250070428855409	19.4764291821911826	37.5873015481696839
5.9336483195730496	19.8150332434526639	42.5518283448691363
6.5862687732224581	23.8796302357169488	38.7591846919172482
11.8545628794693556	20.8281844246471266	40.0048799802532784
42.1217531552171280	16.5508581526358292	39.5218844565480865
31.0972455382494921	14.6695157263647946	40.6785019124240037
33.8179588794052606	16.2388191081141500	38.5159306259677621
32.8458227164491419	13.2574436540503520	41.2097515834610846
30.7417550857133932	13.7381388610769370	38.8568625376872419
39.8393881615121472	9.0777521744101382	13.3815395045435004
41.8215057477813659	5.5184116122227165	17.4296952849608253
36.8009931239528640	9.4278086873048323	15.5927650741335313
0.4449165309343184	8.1348757887442442	1.4605524161280221
42.6887369243632477	10.7173059598935314	6.7404490757674571
39.1333406921773062	7.9245534864625435	0.6778526993904018
42.7904740837194453	11.7164741086396642	3.3686790482405500
41.1317127440303807	11.9449504271500153	2.1936392273122727
41.7284475699679120	7.4862316137279095	2.3778142813389640
41.0353462929289847	15.4236759322132126	40.5365549826098359
39.8494643386150642	16.6837515658237265	39.9607768161641630
7.5359136566036815	23.9214406619738149	41.1831674154999163
41.6024963484054666	14.8776141334553831	38.1057924142565057
38.2301608599586089	17.7046296430501719	40.7565267919450918
38.6627770749225590	12.5025587878347615	40.8971195840641997
37.5939242203683222	15.9635767901149475	39.6900169389660675
35.8641475182674299	15.5641647745180407	0.0511111499549389
38.3972107789338182	12.7890680941232020	39.1372538965591019
38.2555515130432582	17.4880945406064363	37.3659989146150622
37.0519735852688612	18.7823561441839004	37.6960609302905141
39.0817144074718357	14.5784312977200603	39.9133068673469396
39.9375113979106189	13.0570057075625439	1.1266443327609768
39.3697824872117081	5.9285961066396933	4.0039265663110442
38.4144545424157045	8.0346346095679646	4.7167447739717501
42.3466323550163537	5.7419304621224008	3.5336465331941183
39.9686217217338964	9.7488280322906835	0.0957104833655976
42.3636094461604529	12.8879418538482611	6.5282984068257797
22.1699166600310278	21.8593597756129938	36.9238019850666177
37.6464161027969695	10.1560151961693421	3.9415059568103730
35.1299705968603817	8.5402390407024491	42.4624625747428013
33.2360385080188792	7.2199322816573819	4.8223653612150956
35.9389417284130985	9.1398482699591792	3.3169442604799189
36.0485275513550505	7.6841842956361752	2.1897061079907747
35.8975354485096858	6.1729653465516563	0.8746849414009850
21.6436799571384917	24.3915407051459248	18.5813540407646549
19.2646147773227057	22.2369088539573418	16.5515353104981031
41.1030922055544394	10.7354045432063874	12.7134808745390018
38.7545388194356448	9.5750427079739993	16.1902282558999104
40.5544103906458986	9.4370747797689898	17.2238794152238626
37.2285389419235102	12.6915472390504327	17.4022538180905357
22.7248884798212742	17.9709850623925256	38.8441682450518613
24.1111949394404625	18.9504579177198913	37.8148252117956218
22.2087040132026878	23.4098980227624267	37.8597939487249349
35.3663604191950611	7.1957845659273527	4.2592787480444336
20.3913641698385497	21.9283326342890881	37.3559043750810176
20.2782866249858991	22.0606750065214818	42.1375241216116336
20.8716098877218741	20.0812511928394137	41.9940146198672011
24.2421182398255262	19.1085757799913374	39.5467038033344593
19.0676240312738656	20.0688338194523901	41.5465558849661107
38.7208567502640548	7.4770739494017855	12.8321715806447560
37.8991757315093736	8.8167462064916133	14.2344966656084004
41.9991711637612966	9.5109854025248541	13.7270655547021665
37.2558979206276248	10.7472689285260632	17.1945755235236994
39.1475629384924844	10.7413075833318619	17.8807956954305602
42.3059650128230160	11.7951986037696344	13.9060515510198428
18.5081693320017067	25.0244727295131817	13.7526219507200764
23.8875751937586465	10.0863506414770843	7.1524546961863855
29.9891923424194147	10.5651720768478636	6.5743641652821010
25.8327851550467109	12.1631539937780744	0.5548200984947914
33.1188475494463646	8.3025919133614874	6.4968239192162374
8.7760047470318963	23.2342752047213814	39.4189446379699291
6.7075086872611056	21.9286546747957303	41.8463609020520195
10.5165347257741555	23.9268843122996451	0.4474558146227272
5.9652489442856673	24.0425089513501185	42.0610470854751739
12.0477041097324147	21.4995301559218781	38.1720578841078932
9.6983647586180304	21.0055261447756365	39.0898416647214901
23.6682550832003784	19.2553624840109237	13.6505055612891617
22.6455115001763332	19.8537829518317466	15.6464730853550105
25.1229478639589701	22.1376283503330633	11.5692891875390877
34.1375877047911302	7.3018267061844888	1.0006357115172981
35.0303900287280285	9.1140296467614927	1.3592548455861446
34.2780654787459156	7.8421838571628344	2.9457460341716812
35.9341971501835786	10.8429710111434261	4.7486794085710455
35.2561443703075739	10.5975601812673066	42.7289772737203961
31.3310818786894849	13.3594815183668274	1.3281622416647971
34.4241954467469569	17.5708686472891102	39.5817446774940080
35.1655705441904729	12.6119610976321308	4.3612254657186327
32.3492809794612910	10.4826902889381248	3.2304901553388841
32.1397236370967789	12.4255862705680702	3.1150865566236732
15.2213258205057400	18.4845681757745126	40.6022117954844148
16.2267848741165395	23.4251186416291475	40.3514331215319260
15.6838416690727929	23.4503581968073647	38.5937200299298553
13.4969151005819779	19.8976828528456302	41.2794754966603890
19.6702380158225480	20.9602735165207221	0.4392269170300057
13.4503458016170043	21.6782459886890457	40.0109736437034513
14.7147857459407714	22.4278677790161680	41.4552759146737344
17.0787659073208928	21.0332979538929052	41.6264527480778384
14.4004672968699428	23.7445549050398732	40.2387452434341100
14.4793618904666896	24.9117033966429204	38.7039731900375585
32.3320950411320069	11.4889966138396264	1.3425272293357657
31.3112649793558404	6.3769846457926045	5.5883728236834136
16.3726057251926278	12.8791424036653197	3.4706282015511092
14.2842787127330926	15.9777816066161051	4.1974576027837980
13.2671798825861060	12.7783229602665198	6.0798198426787158
15.4022945477158668	17.8808459709183616	4.5406546212193453
9.0085498507777029	15.1290527520886897	40.1594039881496343
9.2123592407929920	16.8864214167772175	39.7247374026696178
7.6251615258219907	15.2589347820309857	38.9822939449749626
10.4804378236846212	16.7991781823650435	41.0313887498745657
11.2977541620926196	17.6444929661919794	42.7740361904650612
7.9760390522655982	13.2925103549815660	40.0984123480833716
11.6304982433402913	15.7148488966020601	42.5086626513199164
16.4586285561319627	17.0314562658431861	2.7748801161066488
12.9258887928106514	15.6595198815187722	2.5802630039496695
15.7987688335900707	14.5194099411052360	4.4496769503311917
14.2609159687833920	17.3814355700058698	5.8653413578315554
16.7425264862363150	14.7884768945573342	2.5604836965607327
32.1616760128240813	12.7241622806986072	18.1341772192172819
35.6052028956263413	11.0628385511618426	13.6962595524509130
35.5755159252465774	10.1401845126734482	12.1163428301952472
26.3201874410974739	22.1916073578477508	17.2883726398803326
26.7193007087960801	22.3143645073225620	13.7839266461897179
30.1438022935946854	20.5966617642204319	14.4579438969277980
15.3830355692925682	14.8433313831863654	41.6505911990091491
15.4590597719521003	13.3605519207010097	37.2867436375288364
19.6790123338905083	18.3616669076892300	40.9875743781896986
14.8247510300860235	17.0052551164664862	38.1596831613393093
15.7148137234642551	15.0423698790297493	38.5115462534367765
17.5518463569229688	13.8545612166095253	41.5056047990605066
18.6160389967240611	15.5277861707199047	36.3787050960803029
14.9178553571490369	16.2653923194825971	40.0149963906047290
13.5715304627834001	15.2403843849985385	0.3300769295925319
13.6623786613889742	15.4348622171139063	41.5286608672045929
5.4383622343425424	15.6355937186222107	40.1211614760314887
40.1978195413593724	6.1511303056291897	0.1469354998732650
36.9927668800166956	11.6222820016189576	41.6618134582379582
39.9641280780851034	11.5445066792240265	38.0583827118949145
19.4860068112766207	12.9919239175631098	5.0867150135848007
22.4637769656148301	16.0320165580897118	2.1162052432206377
23.9514959713587317	15.1935087142703313	0.8332324082438961
33.6173986298000500	19.9043656424905606	17.9321217244137827
34.0421816303789555	20.9607986202510084	16.3621865283003665
30.7359606330380331	24.4175647852795095	18.5242751230004465
32.0966034836795302	19.9675095808655954	14.3581770478461284
33.2277820116700795	21.6351134827406888	18.4662507866797974
34.9798576737134610	22.1473991899651708	17.4108648384893883
35.6359431398684663	8.8268373083939036	13.8665808234728036
1.8417672146934452	14.3064806795228812	35.8472431061467276
1.8181318586486546	13.7852088961419490	39.4418315451692507
13.9783576357554562	12.8300499978719351	36.3152802995634829
42.7250425670635536	16.1291521359478800	41.4093265928794452
4.0349352320146474	16.5148616170691014	40.8007969984285737
5.0322106161743605	12.7591193363049964	38.1911009985747611
0.6548753276061020	17.7514081740616341	42.1379274335609679
2.3249370286482733	19.0248834105682398	0.0971333663304279
3.7642262111005480	14.3983715531421961	39.8117930975475076
3.1874612601184578	14.0094748885788132	37.8051790791511664
0.1571321971649758	14.4649700745287877	40.8445067277309590
5.3361338531318490	17.6874547082780751	41.4342944089157186
41.9297472567674632	17.7691843796960534	41.0636655231121921
32.2484417224045856	12.0005643401445035	16.1160502187563601
34.3087104526509563	11.6580413257504336	15.1806197059384562
34.8408181270913531	6.5752688687732039	14.1699125044863496
30.1023766873220460	11.5931584757125954	12.4831282272361683
31.3139119507617956	7.8564658947194177	16.5348703103593024
29.2817389916706823	14.4540770253324489	39.8988258350842884
27.7023052314986522	24.0685725839289759	14.2379672093625089
26.1317897795682121	20.1205285526745214	14.0091937512749851
24.9156679392805636	22.9455299462808746	15.3433691318377043
28.1988629911349484	25.7307073059995588	12.4461263855147752
24.4466190720518348	19.8769104289318790	15.4441176694665039
29.5917104351993849	22.0709518398362192	12.8889995483336364
26.3417559748856931	14.9940921701869119	37.2744601313951804
26.4202193503136051	14.9332187823156612	41.7969751444027935
26.0751492145143438	18.5696082617261951	38.5290985590610617
24.7642147036638818	14.4142438126055055	37.9496349047555981
29.5675192603415695	15.1887422465902482	41.8106227155071934
28.6400542423829556	17.2409479599295672	41.2730957982171560
30.6886132161397960	16.5143190296027562	41.1521541666001482
26.5758337553351964	17.0589198629077039	42.2403658796245622
28.1774489626177278	18.8871930936354850	38.4883202421487951
28.8383794538193712	24.8026436838619944	17.8694566568165456
31.0116094906365980	14.3822235267836671	36.7665812129294594
4.5256559488070387	12.9317756909103103	3.9386625427630815
1.2863438846368525	17.4924207339312261	3.2094192804054966
0.4757394494696274	14.6763060922130819	0.0070098660253208
5.4417109606380425	16.9584099535601140	4.3759163698862542
5.2125486380309809	14.4082080250843259	2.8707682251398912
3.1578929117078998	14.0413561637440587	2.9230290693409113
1.6307010074998547	15.7261329182474299	1.7585833056885980
4.2110856576431628	15.9290295803182840	3.5718080060460946
0.3038003183064985	15.0697150442860472	5.7715683119040024
42.2683143413860520	12.9318795703897678	0.7644396318821157
1.2456977044649442	13.8710942527220826	1.4792940823988554
31.9216831392854097	15.1536321306370567	38.6533280617650377
31.6664424904240640	14.0964715341396776	42.3955320163083158
32.6629877295529667	17.2650145580277545	40.0983958142455350
24.7925475753103370	16.0833319641711228	42.4781700512749296
13.8852043877289617	18.2538676537654254	37.2529798370933207
17.4423748221470447	19.0948018193762543	41.0732898670028774
24.3930048709830984	19.0517977606663749	19.0176463703955676
24.5183118968026292	23.2503976936821566	17.6015510062219143
31.5209110612596284	21.7597790497462427	13.5275387282265491
29.9053773836195411	23.3833505663548280	14.5969100179063709
30.5399441265773461	19.5853413273733494	15.9481819251153158
29.2474065792499367	23.3674790128083067	19.4761818905406194
25.9169249678029558	21.2476017074035219	15.4436377874667112
11.3270972726822503	17.0050327362854183	3.2968426876826524
9.0260829895944426	17.3284441285455237	3.2447607035641743
6.4176758038099964	12.6795081744911098	4.6894152751923928
6.8038247297313426	15.9525207018004931	3.3803507197575344
6.4895585596665146	14.6529563486201901	4.5815878028837123
21.3959497733767812	15.2803663899145139	40.8296272567036240
13.6533568224333184	1.3438418347712930	40.6757243651012459
22.5301576106699351	15.6841363832681058	42.8087405295889596
20.6295148818392846	14.9312665909792184	39.2015181351631767
19.3336485618815850	14.3511365506550153	40.3978018736367162
19.3587829679260928	13.6965161729443068	38.2130841848665526
20.9852475475111540	16.5964098167289578	37.9028639430178487
20.8515345962652603	13.2936052090617878	36.7202253512082990
22.7809027012454948	14.9326278406413167	39.0365090527640461
18.9307110514898440	12.4461178830981165	40.4752386535118944
22.1656230690084222	17.7901388957131061	37.1108074561220675
8.0521115611581795	16.3723544472026852	4.8594830274707732
5.7378329637378931	17.4789974409609314	2.6055180882012756
10.4830582267817523	14.2254954537632585	0.5615751963152907
13.5073102279477748	14.3447244698715153	4.3898005349615836
11.4496467971107680	16.1541521992168597	1.3512094930564373
27.3233991082297045	18.3736814296662487	13.0656865335962298
13.2056513626988572	37.3522368101759454	22.8634044577031901
15.5999223108653169	42.2986928679048191	20.1588457820359288
14.5029088819213232	38.0115277932997984	23.9438921455066520
16.8092850002713945	42.9408522169107982	18.5156923219536012
13.2783322281832259	39.0557146234806467	22.2212781267460322
12.7551733162053527	41.1247396165456536	21.5167146638784210
15.6344263013711231	39.7637921561349756	19.4602067314125264
17.3597210230566006	39.4110823999386852	20.0185706294278738
14.2212355825260612	41.3374816296439107	19.1826544724958481
11.9057207878274411	42.7990314198753339	21.6715934366686511
37.8130547710438520	0.8999311847771572	23.8107222528705122
42.3789301816630655	4.5250860145850034	20.9901880045408156
39.9514749868711547	21.0935704460243798	11.4780166815182465
36.8301269244190266	20.8221887655923936	7.2384950126641394
42.2016216107333335	21.7548823865525875	11.7974077913306719
42.0967015265447984	25.2729163549222839	9.2561271711253372
42.2490794371316056	24.7222655436134211	7.2280651344908318
37.8409156119960031	21.9588772751964534	11.2599543270564819
14.5944139577069425	35.8567365758137058	23.1895814356901901
13.9373754491516468	39.6510058005293899	20.5067369638423038
13.3861417633481974	37.6274064339526717	20.7502298617641330
15.7384789360547135	42.9487007928614446	22.3037361765740805
18.4327543965583551	39.7121107777943720	21.7825335827659714
15.3720859993877159	38.0441012339155620	20.4005663047706172
26.1128903736120499	39.8127203453861469	8.3699409738820520
24.3920281303317950	37.0565967421873950	8.8569284721405364
23.8078337422937309	37.4926340874511581	6.6224759017603780
28.4001814954326441	38.5017945018911547	11.0233758300056746
36.3396704340687791	20.5446154550250810	11.0899387766140656
35.6028220267659066	22.6677651512551854	7.6268220059490845
33.9285063622402348	25.5709976206291856	11.0626578158176638
20.0548786798571470	40.9535003983111778	22.5215784420072858
22.7475882647545760	39.1673060942160518	22.5605491172806616
6.5661747723351160	39.1839727376791629	23.0102922359631421
29.2439597642001914	39.9140559971409061	6.9347530708447751
29.0246341690775225	41.4374711541332346	5.9988767170117123
4.0673336380522329	27.5715460550506108	9.8438072071516665
2.6750095918879913	26.5737394098601776	10.5022810963828821
4.0910097525592848	25.7400587131001153	9.7190649513630980
4.7209449232623237	23.7484495084568010	9.1614619941874107
4.4195910128449665	27.4438413546247162	6.1332162614989301
0.8236729467543007	27.9867882998298150	7.2912272104964631
2.4029057394066977	29.4827981741699254	8.0736968479981783
2.6206587392055831	30.6534012851387132	11.8562020273272886
8.2270381407418061	27.6916106435795513	12.3251563655081089
27.5239466770785022	41.1793042285137858	7.1133172440775141
27.1340883010283775	39.1774529283638770	12.5048866614724297
7.5083922576637523	0.4542773491541713	21.7235491476836380
7.2956389788950364	37.7964375014604528	22.0473415426452277
23.6352062552046647	37.2448914928452410	21.9291284605546863
10.8753797187475278	41.0996714746030420	22.5160929944810029
6.8817431031846032	38.9475776340774758	20.6439080889901376
7.1572549254617730	37.7855065271588444	19.1091292414681106
7.5875945326115675	37.1391180528744442	23.7440203793332181
27.5264515378689687	39.9256451548861122	5.6165080686506608
26.7789919547695909	42.5125319523200957	12.4373549729499260
25.7646292868295745	38.9841778688471052	6.5338833689815745
26.3622571282541820	37.7143254037911149	11.7493916819603523
40.1473752991258976	3.2544211292723602	20.4509505712496349
35.6585067472762134	1.7319581192170899	20.6056407420153072
41.6611229325240231	0.1524506519459935	23.6041690264186350
40.2176837410014585	5.1124147207870578	19.0216613449356657
1.1557204101536069	5.2883648737301590	23.7180548010918173
41.3828588266106649	20.1731364269797631	12.1197246229315851
42.4601137968941771	19.7062087383773417	6.8564264541988500
34.1408054866590760	41.6221106390070048	18.5826501204042032
27.1776215948347257	41.7852459996523606	22.5893697682246071
28.8536748039062694	41.7027219777712972	23.3434999907558520
31.4295112694206864	3.9012545188545649	23.5694617682422880
34.6252488583072804	3.4746415950166734	23.5005027728629052
35.6454349258542180	2.3385591692812371	22.5219901251415315
34.8417299391146784	5.0710675530820453	19.0489604123870748
33.3024978727985754	0.2653831312592108	20.5320306543899385
36.7267984908586627	2.5153758443431675	24.0703335252714723
33.8121748215804985	0.0095065480468932	25.3550321142509567
32.5785261022242665	0.7293422545810477	18.5558844570536898
32.0652282187331537	0.7128161497820190	21.7575285828078506
27.0902885369930786	19.1075187437552714	6.8113909349809481
28.8144232076396882	17.8703676880727080	10.0470863482690138
33.7116682950598658	41.5025969270408126	23.7811815891057883
32.9482265041429088	41.8963122634112253	21.8419645128898026
25.5752745539049045	41.6068146608528622	21.2220138434928352
33.9809024029855564	38.8759449179377370	21.8693165117898651
30.1148105854040899	41.4725535766871900	19.6595623113149678
35.1854673398791036	38.4066377016402640	18.7165466181240951
31.4383396335001137	39.8856292109705066	20.0295933698344655
35.0418664967798392	40.5319949238293376	22.8968437867034886
34.3886428487986890	39.5645698298300701	24.7889396962695585
31.9292317098677074	38.1379715683435592	19.8739019630832132
31.0468578862832203	41.7768819836055556	23.1545072941974119
31.1134340130758602	41.4989803095575525	21.2210734630749656
34.7578987505004946	42.3409344292357588	22.0230777230476846
29.2679745805843012	19.8357615433547743	9.6968694452301580
26.7248544245374795	25.0638070393870791	8.3444616892023333
28.9757116102381467	19.0213829433614130	7.8910827683225628
26.2524243007226374	20.9286368933211193	10.2655549945240185
30.3635601730520825	18.8329481789498629	11.0817859515793913
33.7493601806041141	18.1347454260574814	12.0664749718445528
22.6239760121877964	38.4585176189746534	20.7254491160911698
22.0525117289867545	41.0495677543728874	23.0533497822438243
24.9014086349026194	42.5762791739205895	22.6301787323336043
21.2745635123269068	40.7533905793179443	19.3572530228381154
21.5167739886830347	40.1203725748377451	21.1612447816352649
23.6660127626198040	42.3092168530731740	24.2264652489075907
19.5340878118463515	40.3236083740237632	20.4798219048984045
17.9042379097340785	39.7687464533366608	23.9882461106486353
21.9166477553317023	38.9064511118152510	19.1526895804786541
37.0213992701398880	19.7362455453035111	9.0231337478028006
33.7987844601081662	23.3451199255793682	6.8661301018047007
34.4425401227257666	24.1515888063080197	8.6483043943473046
32.5663640078245393	20.1863364509815106	8.9575536587480666
34.3065403121520305	19.3546152388361357	6.0363371964019974
32.3701927219045018	24.0780275113755486	5.3045296452358537
25.2730034947380382	38.2295043940182069	9.9279182154219399
30.7594796171966323	20.8714910677348406	10.1684928670839589
36.0223813382234610	21.6839368118137834	12.5192568092136725
35.0011273682080173	21.5050190728011934	6.3611357373018915
33.8825158146354894	5.4143711854644332	25.2521628140281607
36.4802144530853312	0.6829834307594131	22.5196359321826058
34.7281006396739045	3.0727274414088908	19.7838693120532447
29.8096066572401597	38.0412296840203012	23.4495304802570494
26.0257340040671288	41.3958064115696658	19.2398489872281147
29.1568144352973739	40.7493987241877349	21.6647146484595226
24.3243775747870394	37.4869891046986794	24.1417479082670283
24.6404214407878044	39.8874014676767530	19.1110530314110711
30.4183996106024068	38.7817111393731082	21.5034047128670309
29.5718421671461655	42.5724693811250461	21.7708129476772356
28.4158877511599570	36.4011925113710859	23.9723536118211946
26.0477832954301256	39.6705246513491900	20.3925463168854115
28.2497519732144369	30.6901112434329129	22.6277234922233283
20.2124407381832789	33.2963117077118440	23.9753338558132008
23.2203085862261602	31.1220013771398243	21.0288372209637053
22.7355809393429311	34.8181277500713193	19.1498351740592767
22.9257188857935397	36.7546034237461896	19.8137190956197848
21.3055503615925730	34.9126453098275391	20.8182698069149055
20.1656291852533549	25.2786998164338357	11.1696506574049401
4.5345928537142095	6.6457777507017619	22.3349960551996425
2.2475326236620430	10.3304405735238038	22.5738717156955246
5.5499820559399105	8.1442304017488514	22.2063561095573903
5.6321347323657314	10.3110690354770664	21.3687011311315480
14.3638234608306803	24.5213257024807838	7.9058243438499867
15.9894109404382565	26.0240250131744055	8.0850508618764767
17.6938257095212172	31.9585301697570401	5.7191743479164696
17.8439092402120210	28.3718591496308079	11.2445484499877750
28.7964618225186442	34.6443881938866198	24.2020899364439863
21.6786554345311622	33.2745649282002702	22.4233301738881359
27.3008838652112900	34.8048151648801891	22.7683501746202488
29.8320758992562673	35.2149378574740197	20.5490114260174472
24.7203931130290400	38.0658575833080661	19.1809056276652079
25.9294467938257007	29.7419795322618903	21.3208599832473382
27.5646112304313888	34.8055393334137477	20.7683337201251383
26.2934411760676774	33.5014660996657199	21.9509227813629408
28.1083940235345864	32.9382470119883877	23.1572905226022847
24.9280819855130851	31.7170822793823781	22.0584632968436658
24.3411099664795749	33.1429755320544004	21.0217590537475303
14.5162602884020959	27.3042850176707574	8.8052546336955260
15.2155065837972767	27.8585416175862655	7.1355425078984727
18.0930968971972952	30.8258144907148015	8.4335545156175264
11.7098441433176799	25.7847046207767825	12.0722862381420697
12.7949363807871936	29.9179553494856982	11.5363015336434511
15.6074492316161262	31.0607910943738972	6.2740138505161376
25.3955547377702722	25.5455279519301861	9.6121597134973857
14.2911053618216091	36.7501335708390116	19.2621517771358803
16.1615943430966276	35.2835547531369969	22.4147772253188045
15.0109916833047201	35.9891273549389581	21.0025499943020257
12.7285376727236486	32.2211759403512303	21.7844554967360544
16.8428529996547169	34.2637410366781978	20.4221531052554148
16.0779077777553248	32.8111475524460445	19.2096847384255653
12.1733875050738156	34.1742105026683376	17.1566872847594816
15.9677216643721547	36.7420824219350237	24.2372250852276032
21.5365037894429605	28.5547465210752343	7.6397961054649741
23.9499481456964070	28.8787596832832705	12.6801685646641626
18.9886639815652387	26.7541993014742197	12.9139884573421373
22.7087775251328807	28.4039664210932727	5.7311698372886166
20.3378091447623319	27.6196737729804305	8.6647099268499037
19.0157938941328410	26.7109176051601054	10.0353251313091505
25.4984558246907085	28.4874891929706031	11.3745385992200134
14.9312392868931809	25.9355222314106726	6.4955741332224894
24.6326351322755883	25.4962104753604706	7.7119334241289366
24.4578524469118754	27.1605306235288424	8.3171171869573506
21.5707890245772944	29.2621772886085374	9.6457766084985312
18.2385409009912074	25.5450499337182357	11.5857727644369124
18.7039571039648358	29.2057977350651967	7.0447219453993686
21.2297833487390406	26.2995892923990056	12.5704410522727201
19.7293526333602678	25.7374959635059071	8.1692296132666300
20.8159352232610182	25.2945183174731092	6.3581507418684930
20.9255745940933693	27.4094649590465131	6.3749425745262780
24.1013216865399365	35.4874967993501897	21.1195746691006114
19.9455966019468036	35.9182519338031909	22.2874585335327779
21.2030490775902543	31.7649429915289119	23.8031412206008000
23.0387823552609348	34.2827316301045713	21.8770030784965925
24.5337638373282019	31.2318101833955701	24.1832478539890054
23.8512583314051092	32.8933690978933413	23.2873254602277626
2.0679620354843200	39.9758130782788754	19.2103265043644811
39.9068021801664727	34.1115393643905165	22.8931048815042395
39.2384866132851045	32.9137810042460686	24.3356870976804665
37.6279016561733144	34.5258269216779183	19.4648956387426395
37.7052025316787081	33.6490147583871604	23.6674179816958343
39.9894691408927088	37.2239374124808435	20.5516808431791915
4.1877884740239351	8.8073281608325029	21.2225292814058655
25.3257829790777862	40.8502241877569503	12.7610872117452434
9.4373237523018290	30.3340837017780132	10.2804371622012223
9.5777404253083525	29.5301160949041162	8.1082198228458946
4.3823726024826382	30.9354478268811022	12.1113880013623696
10.6134573758401878	30.4676543668270909	12.2518622694995809
9.5359351645676114	26.0865127508474153	12.1578070901869602
10.6794356005488122	29.3602421386151988	6.1669829191474150
7.5105931270995345	25.6634862800819370	12.5229015661264445
4.3153216264694541	0.4281101667104212	24.0477144828448104
42.0300975885005883	31.3939708420273327	21.8632467061902069
4.3414991447873623	42.1982912204812521	19.4588002069662913
6.2050066327960360	36.8344527438748912	20.5364773701847128
0.4275180879788644	40.7461828386089522	19.4216280188079189
2.6813364870357881	40.0724597395981306	23.1086967195701511
0.9567992583906511	42.9004105937469760	23.9129150551085559
3.8949362828462424	37.3613321294704690	23.0479498332708097
2.2233575953011733	36.8668350602676256	23.6344439866030243
1.4691163581336197	39.6164781179053449	24.8866835086734675
4.5641138837146693	39.4271022663507935	22.7393637533331656
2.6635119232055153	38.0040505080953821	20.1257808373422655
5.7254242332975362	36.3176211642099105	23.3611866186904145
5.9674964609596355	41.5798170415159731	18.3491489485862509
4.2254295483866429	41.4915368942166793	22.8681224875703677
1.6907948082669504	40.7645088286625921	21.2143970293120816
11.1837813043193961	29.4289892437222740	10.8619998608527801
38.2125861696728180	30.2486674053470495	19.8204429586362956
17.4609272194496441	24.5632666878269319	7.4270629346408290
14.8405402490055529	30.0951491402246702	7.8357986916757998
17.5935084915190885	32.1863432321843277	11.3191718648165303
33.4732742104854282	29.4436196358900908	24.1335514784563863
36.2951795966751050	35.7784254552048040	20.8248503610335476
31.3858232057328514	37.3406835013405853	22.9362520221945339
33.0504955365483184	32.5769118130591835	18.6939508173524551
36.7109818342067129	35.0947249500354701	24.3866900876704307
34.8616065371623378	31.8730528581636285	19.6531776657090802
34.2608753778302670	31.4043000145427307	23.9891977673810572
35.6833308287759650	31.4588677923740505	22.8512201198824734
36.2070789667917410	30.6637009850234286	19.5096695522671091
31.8090475197154632	35.9313545453949246	19.7982298854052488
33.5854424854127629	33.1895287307328886	20.5808997048673596
34.7764029717275704	36.9867158099609341	22.0500893372320981
26.9362456715312888	24.1856728823755667	12.5446386105567509
29.5876442979203702	29.6641266770236882	18.3601606125468138
35.5346842161275518	33.3357249233343751	23.8611895424365663
34.7255910074677345	35.0693131588154188	24.4801359048757305
34.0511948678689222	33.8164194699124252	22.7310039994365454
12.8863088134344022	28.5204937492943458	9.8332937538690430
2.5646562914569593	9.6468962109526721	20.4149737547047074
0.7562531584924116	11.0748751671816379	21.3466445019295890
1.8816123081609899	12.6974015352042944	19.8614340050106613
1.1857322478711627	12.5238908606819610	17.6840515053138354
4.5130093504277120	10.1392253397974095	19.6095012595696581
2.1711085125936416	12.1773080649480701	21.5971480890429888
1.9254124396954340	9.6985667559994440	24.6105069711694107
37.4394483231010611	31.5830120074310123	24.0277898827066352
40.5014117046469195	32.9115600167089113	20.9886400018558348
39.0428391291858077	34.9487510976513889	24.2722851995298008
34.3450215017421030	36.1990327724073140	7.1597698901633784
40.2697779369196525	0.6767411686931486	26.9683448571593907
35.8386202881136171	5.1953377045701359	30.4228077793663019
38.8213045202628493	6.7901141462445498	26.5980552685077605
38.9373893250990193	0.3778894807714228	29.0251570885056616
40.1870170152310777	3.3714991522580307	30.3861509524710307
38.7762707284559198	5.0612534044495980	30.9404473001432088
38.6750402817699737	2.2813132089103525	27.3795777386089654
40.4288687453111137	2.5011811370068324	26.4202172627282366
41.9566086299119689	1.7218051013306817	27.8498872506838495
31.0265873155663918	36.2128806716622407	6.7844560617835814
24.5767578188136504	1.7343761325687239	19.1656663427438687
23.7369667767703234	4.3635545653731409	18.8103209776800497
24.2292121675545289	2.1638830854270203	21.4434244058538432
20.7675610569710898	4.1754352527835250	25.0831996203791476
24.1844495735927900	1.3082041910107887	24.4696061494534298
23.5303259602097299	2.7593209680062110	23.2372208842224488
22.1844221891536328	4.1684775365189211	17.8474934956386484
40.2114985600506785	1.9527389576333540	28.8715507143440000
40.2352101603911194	4.1108274895417107	24.8655741910085162
38.4588439776399227	2.8289066591012744	29.5600580958706800
39.8278042922138624	0.3791355714932176	24.8143760118542147
38.6153538802788248	1.9109066859738684	25.3135639654557636
37.1194212679904822	1.9133990530366447	31.0138142632547407
40.0099031333185948	0.8210087494193732	30.7217702054596202
32.8443802309539237	0.1554243544377629	8.9060018178027924
29.1076986831693212	38.5553714229633471	12.9494716287735017
1.0906157851146068	19.4890856904121392	7.6213122037086460
2.2005401568941476	22.9038861594601713	11.6081613184659123
5.8813286804148577	22.8565116646697497	7.6215941890171095
5.3255463744399814	21.1226748577412167	11.2768063353584989
5.1305372406429317	22.9878468707737866	12.5175645770285016
4.1741853626923096	22.4977455459802478	10.6827748616167444
7.1941572648902934	21.2336370274145558	7.0490857652860930
29.8902970694155705	3.2422337368118881	25.1286114303031667
28.2868265734976632	4.5454815465636367	25.6803022022887291
28.8501601105794130	2.3497922285152213	28.3947897151202682
27.7693631710410358	3.8497868829189996	27.5264419795386139
26.9788668980380528	1.7810710779285752	29.5874448325077850
25.8456348144824126	3.1865277158910055	28.4412250522847181
27.9842773854551154	5.9345967348304525	27.2644919859962833
30.8322426012764517	42.8819340397695683	25.0862381417877067
24.0821812764623608	4.2931859816444238	27.4509425914275411
28.7906838281123072	7.9740927329529514	28.0180656130709487
28.3664238378646907	0.0098617289139793	29.3446813149333963
18.9579155265252872	4.1330098251895127	21.8231290926252832
14.1497870000312354	22.5565264804862728	12.4347077255376224
10.2657772930204612	23.9438900699899264	9.4731190141726547
7.3368921914299134	18.0720584854818327	10.3716742906295867
3.4647694635746733	24.2625589741044294	10.8819463790907083
8.9956814000017342	22.1097693135634721	10.0136608543338816
33.6573118613580249	1.6382773765317618	26.6073663110130383
36.4653759567921725	5.9767735921057685	28.5042564979965150
36.0507288403573583	42.5554834315565600	25.5810719155108046
32.9294062742847728	3.2120379599935553	27.0906191211675136
34.8342502275141115	6.6970305129552630	29.2280512112775384
32.0748896662815355	1.4952183193498412	25.6716760042043290
35.1154789133750000	42.8760602846255026	23.8862735329831892
36.0189094961359331	0.6768100629953285	30.3049161829302172
36.3882339291418049	3.0290633329827559	29.7827163855208639
8.4829448473014786	19.9963990495757713	10.2068509935906651
7.4872973509645577	19.4319607650166901	8.6877955940808427
8.6527048723630244	20.9175571059689496	8.3823909404332948
22.4065166364692949	1.6508120322840685	18.7674864816468556
23.1663096382894089	0.7867451012939239	22.8254527033301571
16.0433944823965646	8.9719942225335316	27.1037548597582010
41.9803843524749354	13.5781381039062357	8.3515134079720355
41.4960715888873324	14.8504116629791607	5.7647864406144027
39.3121927401307829	17.9798768343160660	9.9114224182223243
39.6375392831787394	16.4278624534998485	9.0110003646671970
13.3730810566846241	3.5237414013009642	19.2749122295153121
16.0083267593921938	5.4183754828310908	19.5339669307087398
12.6214152725092355	11.2681222554774951	25.0885545779719408
13.4344845848918002	6.8259776716812501	28.5249864186127695
15.8723315819101085	7.7500110382068472	28.5462774436901654
19.1574078474078213	7.0690876149013100	24.0248655361317880
13.6095109382827655	9.6285646934896700	25.5109719498628174
14.0961682341676653	13.0382659848565385	28.2723074106364010
17.7772979880287920	8.5157720315077654	28.2475429348414160
12.8280467107932772	8.1461098235808791	23.9790479490078425
12.1880109591675616	8.7022953757763357	28.4060060222226483
38.6514996822072021	14.6115961938813737	9.3295164575995031
13.8082458886914967	8.3761905883674324	27.2672660163717815
15.2004367313796767	5.5693644447393424	22.8637281512097630
15.9539836234522650	3.5488680330935507	22.9526264453644799
16.0485952196546897	1.7898501508410303	23.4418677642212572
16.7229277969599686	5.2450398294808407	21.7426060912420311
17.9146573242506406	5.5086694828206602	20.3983565558068634
14.0650624875686514	2.3805635519532085	22.8832744702701376
14.0333272435988352	42.7450397323675944	21.0401731308305209
12.0899833105870194	5.6026438977938549	21.9018841876805368
13.8456806981270120	0.4460158920459983	19.3507920884645550
38.8800235609239522	41.6500057640499222	8.1874238336063225
39.7095857545591997	38.8269170740702734	9.4354097845041647
41.0589429810796531	36.4697293997771155	6.3905758110666575
39.8214116006958676	37.0264088183729214	9.4902464918697067
36.0248608393406684	18.1439825909158472	5.7801881714274934
8.6427546016085977	5.8493135447708946	27.8364633343130379
4.7482031638916293	21.4700349136562707	9.1738811804867257
42.8431879685059158	10.9514792394355069	26.7300656072373926
6.0704851541595808	6.2846755682813900	26.3170124409826869
3.1805428092420014	11.3935427019488245	30.2607900235196361
1.8172319596387503	7.8260087543271384	30.3894479319958641
6.5718077599242308	7.7556878274582850	25.2901721239109385
0.2624168967963507	11.3996537750955671	28.6222607879220412
3.6527684076499489	9.1016242217773193	27.4986936534038122
4.5552704642374398	7.6190209220233003	26.4427638349503411
2.5204968537439276	8.1083334894481300	26.0597334007796704
1.9150989360929185	10.7662902888752097	31.8736193274295623
1.8047622124863516	10.5089503005752736	27.6309608334779178
5.1706966822715055	7.9359244258260730	28.3509333771410006
4.5049817186215888	9.8743154112771734	29.1724241950047549
4.3870342614216931	19.7835260258996293	9.7524605496376733
29.9518880495718882	3.2287833607671024	30.0630808895699495
10.3986915579478865	10.1975419469530504	28.3070596597726762
8.9718164042203288	5.4534771697424134	30.8965379938229781
8.7025934861577579	11.6020946668901637	27.5475163058217341
5.9651323147001714	10.6086704400894050	30.4695868928487847
12.1283613537053849	8.6451301647512473	25.8676620991856332
7.8351411286772867	7.3034592173978732	26.6291497098636469
10.8934937375794245	8.3361502256464242	24.2606477551698383
8.0106702628814261	6.5261933508136183	24.9776390209511590
35.8473913797417367	40.2058816161105028	10.4077854561969527
42.6443928332069007	39.2941051766902802	7.5050346193881099
13.4694276265069295	1.9539303313610199	20.7604158045604130
13.0376380575667259	3.6954666656201649	21.8198020872974467
42.0885599162345656	15.5952256385431003	7.6225114459966319
40.5133805474314741	14.4784386608208635	8.8296381415039136
39.3982568577135766	18.1037880943191531	7.6985589097184866
19.5255741158528444	23.9329186402083849	6.8279049218731052
5.3169885520161326	2.4173994687747977	28.6328870891874381
2.6264154385144627	0.9568160741445343	29.6283739924358400
4.4016742156067616	0.8330701215637486	29.3705023110950663
0.6017310124165799	4.2854343896725915	28.8141966152031053
5.2011663448769063	6.1449844763997445	28.0335502741464140
5.5072217448442835	0.7599606827184168	27.6622500299188445
4.0087641412470338	42.2911905442678133	28.3910237476662139
1.0255158264054596	1.2718083858964191	28.8193111592429432
34.2170961397408533	42.3907812602101757	11.5042587657268669
31.2287558726284225	40.5650233301620062	6.3171663869080188
33.1804994753320059	40.2803554047318642	5.5820113977746502
30.1807809477670048	38.7652785729246858	10.9206317743363233
32.6297823509654066	37.1189751505326413	7.7134284416983085
23.8185050003887078	21.3219977859574996	10.3509574053423350
25.3238105516974770	18.7720469265544487	6.8525863083696104
42.0772571036075860	2.8557245610868618	29.5571408948941396
24.6275323049295949	20.2011802956299427	11.6941182854479191
21.0987428160157364	21.5045077469244319	9.3878009302737464
22.9308160134938852	22.5540366856511802	8.9946414103147418
19.9881370359222501	22.9963689191533014	10.7055871476617206
6.9889021713103530	4.9387853398668566	27.4001817859186971
8.4820143519671163	4.9685825216701094	25.9653682174393907
7.8169483443078240	3.2529182800112060	26.5399021892977345
6.2555583119795628	1.1785008287966272	29.6378914638352491
9.1791171267902421	0.6239375820816688	28.3160278282131017
7.9138652465004649	4.5389597642016764	29.2765974643158309
11.9153233452042109	3.1315123812705772	31.7002805176815485
7.0409615780956347	6.5512114585339223	28.5115727675503798
9.2977730672991559	2.8472724689910578	28.7706046119727290
7.3747490870802332	1.5121797618316635	27.9122969712836309
9.6829826042299842	4.1151555171020497	27.2269824564480416
24.7817281398164795	17.5575962042908422	9.7760061307092485
36.5725204145257194	36.5647910910825473	18.2906991488513881
36.9530943135650318	40.2277140126977386	22.2591823874452466
40.9952087921815362	42.1356039330401231	25.4156389027379781
36.5925828747734130	42.0046754977936700	23.3132268631347976
41.6576755167077053	38.0066191660387460	21.5502221370266760
38.3915617336495316	38.6135638036086846	21.4276111667364262
0.3312139055758268	37.5106927839658084	22.1939687530190000
40.7834528351073189	1.5442912723954303	21.9293272729012472
39.1414949897087610	41.5769687646061357	19.0091678553160506
42.9655166397176913	39.1848961707182397	18.6286387153238557
37.3941931197292305	41.9541446228463144	18.7759267270910470
42.2276144244354654	37.2235866228074528	20.0325482506074266
29.6849060731828409	20.5136163828127636	11.6006223471601864
30.9028672892148180	19.8958678012594312	8.2731364841220980
25.5087824200137128	24.1747044545128205	11.0776108611147546
9.7585699986766663	2.7528719261355867	31.7812123423620783
24.9129536191570580	21.7856650575148834	8.7637797153071979
26.6293721662830123	18.5615816642650380	9.9641425572656459
28.4673864226667881	21.5870962384002212	10.8064841076352032
26.1925963838881550	20.0609611809944219	8.5128918045057045
24.8498140105405696	19.5321877150599050	9.8335765950306726
33.8789676488176994	2.1013644436650756	21.6200664958477802
32.4682102565875752	41.5584669536988756	11.8206700784048877
33.5659243242818235	38.8053769851289445	6.8872020227363970
36.2242005564407776	37.0932172556452215	7.7138731108999394
32.1509389501435834	1.2679871182240181	10.5745106587592428
32.8175240770807051	0.9071686762140546	7.0932295070868516
4.4383031970433224	2.2541997383080150	26.8435617625804284
2.3742284120345580	5.7906671519448745	26.1266618391067880
2.9047184575253668	0.6221369816931934	27.7746072439885126
3.1232275665988416	2.3478082755346676	28.1586434174944600
18.1602971391387307	5.1414556941427110	30.6729327144165396
12.3876689472976178	23.9111738933546292	8.6063368515044516
17.5920679753559277	22.9586340567805571	6.5479065788021122
19.9071786741067669	1.5467692087572547	30.1817430994928699
22.2460084739166497	4.6399302297227081	26.0356998080227129
20.8672189140044928	6.7020447558470595	28.5700255436710400
19.4146441549931481	5.0517536908672156	23.6336451738307147
22.5688670050452203	6.0262656964807588	31.0015387693369071
19.4588339396417531	41.3343133164904941	27.0214012043424816
18.9725866336599402	4.4501306020034708	25.4876021220578188
22.7509900915632954	5.5253380498140849	27.8272631320869515
22.4906114844207252	0.6703767912301025	25.2186705509123179
22.4593750555155118	2.6799391672576585	24.9838199616697523
20.4448559253607591	6.0153699419092428	25.2424977554974852
19.7546167480188792	2.4954129644025671	24.7075442034220707
24.6882690716281026	42.9956377133740304	25.5930469818227628
14.1493405852481171	20.5761068672190497	7.5060257598628475
15.4971914235735060	22.5007735476805308	10.4768973058784134
18.1049124081993931	18.6422148022035437	7.6971205722477318
15.5615266254797344	20.6063291824064514	6.1611397687652323
15.4496622801296901	21.3903530100172894	11.9008255811349546
18.9201641105237073	20.4794017489416795	6.5719971026589592
15.6197926757648773	23.9462409916389056	6.5066931715122083
34.8350542910541563	40.9565762572555556	8.5675497624215904
32.9826585567804429	40.6657471101962713	7.6888287824490016
35.5450712198594871	42.2948132589670678	6.8083059839791780
33.7564439758442063	41.0016403029316976	10.0187261574443216
21.3751810994758209	1.5806488966860570	23.7302770994906389
21.3115931651452648	42.7906587325977128	22.7178159821561358
19.9890654148863049	2.9640752410114213	22.7866807179941198
29.5188480227309000	1.2999553161020854	30.1493744079212078
28.1922201842744684	2.5616384686928613	26.1845086574978723
14.0942767168888032	1.0773405925747759	28.5909757175738015
9.1424133181989777	2.1594334509899951	27.0089322617629719
22.0583903419987450	24.7235188948508977	11.2587704406710607
23.7035128856371564	24.3919123227670731	9.9063692869550977
23.7429243093075826	23.3367507075776537	11.5011613753277615
23.0086440151197316	20.7508661550316482	8.5868845114531798
31.5974482330126030	42.1574324615126841	7.5897347963524995
28.1938040753757519	0.5677168531463702	22.9656533458842880
24.7708572367853748	3.4252633158010037	20.2661669366328354
29.2915360526280466	5.2860368874471710	20.0727272057104500
30.8018069592578989	4.8319171957828004	21.6279065065753997
28.6540116999825045	4.8148617568835288	21.7168034098269978
14.8865374109904494	3.7831746794921530	27.0259177361806628
13.5527377385093128	4.2022373705030454	30.3951390613420216
14.6989322560937659	3.1176065022297474	29.0476885820479502
15.8855636040140524	1.2107863397037077	28.9243043770549555
17.8754890667501840	33.7109257329052809	18.6303528244326628
18.5276066610169430	5.8486788605217059	26.9341988775984582
17.0343904219371076	4.4412737200669419	26.3880858474016264
13.5948136765750576	6.0624532801395112	24.3647170751636679
14.0028519116519874	2.9371028387344906	25.0372853125327133
14.1853095414706800	5.1540587249750915	28.3636036299591225
17.5885157223787729	0.5376790017329198	28.2185957372671901
17.9935319192236420	0.9659351550322320	29.9450845209387637
27.0279447613888202	5.2950944711554770	20.5801342531031999
24.6603935734248907	4.1552190929873145	22.3174108044986141
24.0286154190879131	4.9109711722617089	23.8322079285786899
27.3227377797437505	6.3857070005862537	24.7614566341501003
28.8054877821232935	0.5912586587425378	17.9906436415429027
27.5418568480653825	4.9572264495948444	23.6816212130912795
26.1147432760904259	1.6941897947153655	25.5626042278733578
25.6994880741622147	6.0170532838300463	23.2532269846522226
29.8945446415904641	32.6723479534228360	6.8380026164332461
25.4477938642538497	34.5141699397660702	10.7734619394977855
26.0968413273917399	36.2568536348288077	10.2073685078558842
28.5082233081446859	30.3939069243473803	8.8397185496279587
28.7399543023899930	33.1801066634037625	11.1845982607188077
27.0793960187157268	32.4085859393423945	11.4924164877527168
29.1540423540179816	35.9682541851920803	11.7220813917590050
27.4499821954040968	34.6886762672561346	11.0420354492521273
24.8504855290319782	36.2890094695319547	11.7518368962225246
28.9004683078322842	31.6827462753152069	10.0979201889783834
41.2716939864243813	4.8345665583839352	22.9766232588509531
40.1301854247294258	11.8475988713622815	23.1113766537111722
39.3943800033720493	7.1229679619945996	20.0209446403825169
34.7863181242737767	5.5583450496830986	23.5982517077270195
40.9831195253212854	10.0827851367961721	22.6276369955288601
38.1996637966995607	11.1112566105430126	22.5475663980271008
40.7544029210600414	13.0839999456726748	20.4043737249515544
12.1692526385371025	21.4921676587210015	24.0003089620808687
28.0161547678648191	32.1851351790622502	8.0606371177696090
14.9614105079620821	22.5813799553104637	18.9134031685474220
15.0922817731015790	24.2022414899411942	22.5395428677841920
16.1555539879154360	21.0491820276062356	23.6574490653901037
14.8400786627613961	19.7758867950814121	22.6867216476258164
17.8591317289580687	23.5268541416164965	17.3908789122324272
16.7653283814832221	21.8645456049654072	18.3757123717205850
15.2303498564781830	19.3782811567203872	20.4444701326123131
15.4968213736712794	22.9643152367292238	20.9307117020900222
13.9179237553230379	22.0834384145467588	20.6566277138210914
17.1890191563046990	20.5525199460471590	20.3048144651100380
18.0837765488158801	22.5125697902305362	23.9207180533325783
16.5169667337895838	22.9408324791222960	24.9933688428360341
15.4586493708433270	20.9108602310251861	21.4207460840745334
36.6402066382857541	10.7422966540853064	24.0408071751102135
40.6906137540906130	8.2125014411349966	21.6175440800453060
34.2892524980531732	30.7593760787240669	10.0753556323672804
35.1718625758828978	31.8379929096712786	5.8004695390919956
35.1426541408679185	30.4514679789589984	11.6472023371953632
33.8064137561735620	32.2712912414433504	11.3167695593533892
34.3111600384836350	36.7397599054249113	8.9136762089684183
39.9676033527246872	11.1907772096742786	21.2714014309834454
7.3449497680509097	19.8952755166010782	19.9671426964992555
2.4082575767172205	24.9993822933723493	21.0951265260551502
3.0719572508599362	18.9874811178188168	23.5759560689983445
2.8966363201985006	20.1481853630918835	19.6022999968382869
4.5066692981390926	19.1416112847759763	20.2680252905836831
1.0080831714785414	22.5233384908001710	23.0735872026825852
3.2051486717170898	20.0804763567527829	21.6752662268141592
1.6310704921766195	21.7898523369884032	18.4292307166844402
37.5404939957378261	12.9113658252877528	20.9745810850779399
34.8736501345298038	8.7531929410294200	21.0571549996853662
37.0489973983229675	12.1313756193452935	19.1278913322522506
41.6784494471329907	11.5510968271450185	21.6784354066878358
36.8570846476530107	7.1444001282626228	25.4805908657483187
41.9237941286354641	9.8166028365015681	21.1205575142092030
4.3259981980733135	25.4133773385012596	19.9987017409768555
7.6565412026188104	18.6914466212896997	21.8850554336692049
11.4055363529511702	25.0108553273148928	21.6423513817252449
9.6124070048824848	24.9130926079554662	20.1102727871001044
10.6343678893118287	20.4934763952549517	25.3218754079273118
8.8083177717333836	23.3744336690257377	23.7434670626386293
7.3433309500791717	24.2020770897716417	24.8464202025763754
6.5072534655642347	22.5424395078438167	17.8777705020851734
8.0088153052953643	21.0969130705364307	18.2379409946647044
8.0278945977302332	23.5854692413411051	19.3845380825304616
9.1958632586025733	19.6578239711044347	19.0610310110464845
20.0518471169677497	35.0846909320319824	10.4710081795540315
22.1826915110809821	32.0836796914879514	11.5183482867926159
28.2858803709511122	17.8173040734975245	24.0362667258315810
25.2606642695003174	23.0832028479277476	23.6672800609637086
27.2947150853602665	22.9224813939679848	23.6191201570662344
30.1358353921860740	17.7990342762227023	21.6359947843583704
30.5107460639736203	20.0152130476048349	22.0306349702883146
28.6275959270141627	22.3695421794619094	22.4909633725174345
30.9295847357163218	22.4620819041010513	19.2478937948693662
29.8138213733463004	21.6810772766540332	20.8037840712271134
26.4625304644894506	24.1684940907774219	24.6400020644137356
26.7615268341111836	18.2088638670874765	22.2440207601278743
29.3927413489498193	19.4928819613237607	24.1044026582370776
28.6122547601025481	19.0149938532730971	22.5313573153511051
27.7280858386447413	20.7597253728205295	23.5452194885511048
19.2166643227460199	33.7003562002238652	5.6242351169045985
22.9499762295983345	30.1780574367759691	11.0705166056388755
19.4434174469808418	36.5907140351275331	8.3150012728455298
22.4866202891674227	34.0394137960567633	7.0648698232147984
31.2299056640968438	11.5535954627377677	19.5145965458207975
35.1846211896035541	7.1527808002374176	24.3636744397936411
33.0258156683869331	7.5662729133017761	21.4380568094857864
33.8129830245263676	12.0465075361254463	21.5664672362383669
32.1174803106990794	18.7194432480569652	21.5545219924288283
34.1178763053392728	18.1839280883218848	24.2837081217049473
35.2615262630763766	24.8650186573215635	24.6696443929605920
37.9212896629713896	21.9670445010787105	24.1743283892001699
34.9241670817228069	19.6439540253060834	25.8184092534573395
31.6723123499026684	24.0914437443828291	20.4396406419911365
32.2632696389260403	23.4015311767730516	18.4665843754596608
33.6141417571420291	23.2793557069412387	19.9009484803104684
31.1054328927203123	18.9614354558986378	23.4128869218153532
18.5463527887220501	22.2379264818876266	21.9102263586244170
33.4624940340086283	8.8783560455504755	19.9188613563094137
33.0906340854823426	12.3078999963064248	19.6350253240114760
36.0691371517015540	11.8328573396090899	21.1730607323582412
32.4118702445576687	7.2140501811224587	19.5119754572044002
30.8815114299168130	6.9143651000124349	24.3510083676792490
21.3083570439549668	23.3205603025634538	20.5098066664438861
23.3634751495196866	20.1333368235173680	24.0552587884644424
20.2179298591588186	21.2679470165478932	20.7167151351476448
23.2624850934025780	17.8992663009448627	23.2575932505505492
21.7568804667929427	21.1482386975548664	23.6933561315155892
21.1561487984302268	22.5122345991561374	22.1276115960086806
20.4411897723931908	19.7099080908186544	22.8767665611030111
21.8190199916138035	18.6887286348336730	21.7577760934246101
22.2337814816487551	25.1390833700265972	20.4148734247389960
18.9092399018042983	20.3346965938433364	21.5605893075450297
32.5719108989890955	35.3528916121608603	8.1520397029523544
19.8542753213327146	21.7852475369562875	23.5974579285486747
20.9382280402600429	25.1686550885194436	22.6663511333589085
20.2051642900803330	18.9579342308992089	20.5510641198641757
18.1399328179329089	34.8655523822327424	9.1322349300882824
19.1353223618620731	35.0989996210478665	7.2916155359995063
23.8949759346477784	31.3516113233757352	7.7314456136009548
19.6884830117343625	33.6383506114235473	9.4301529276871587
22.8819850831031033	30.7182640829108848	9.1056200732550820
21.3939622289101550	34.2639939092871018	8.8247268887012602
20.7222094364579092	33.0960083234456235	11.1304852467930822
24.4638212012394298	32.9890902222460767	6.7662866302174658
22.0402512651232527	32.6082222022822705	8.3658325076580216
23.3365405928401088	33.4212211788778788	5.3854753671282554
20.4393253100849144	33.5581074379593574	7.2799056462348588
21.8617963010577760	33.9774420041678624	12.7554913356469566
5.0432219880469713	15.1767132247373127	22.1158622316535833
14.4223433261134115	13.5768281242193609	21.3080841306453266
14.7270568956136110	15.3126257073762186	20.8363973815307766
15.8753061556207395	13.2390635630493883	25.2731718301792725
12.9880853324616368	16.4646103566366442	20.7216446103473046
15.0082197687207142	15.2049188818328016	25.1547938855089228
14.2499260152112690	16.5129354116721672	23.6328140331863210
0.5784813142911530	38.8150381988087503	5.8678744219040126
5.7386149872996155	0.0543393550757065	10.3480047573568790
4.9938257129386763	39.6982785689867725	8.6649942622822085
4.4062832598640629	17.1557970000780955	23.1826567884900179
5.3305210065806685	13.1033948731613474	22.2558004661908058
42.2003776292552217	18.5149770602764079	23.9462654159794646
3.8158727904715541	13.2671922187728839	20.5194603013747354
5.5724727049478320	14.0695148923833457	20.4348272015445040
4.2454547033272929	14.9800016910569678	18.9980335621363992
17.9814192303586182	15.1146685360405684	20.1983429204766658
4.8001171871508284	13.2769642703817947	18.8186801576715546
3.1039798572600303	18.2501614052647483	18.9399940477428252
22.2412845705579727	14.3022850330547318	24.5279193103671531
19.5520655523447680	11.7801065731290908	21.6916351674709702
23.7745817656061149	12.8766114975934052	23.7921979238554258
20.5732273113284059	15.6273881501874907	24.3956605053863989
20.9581965339026972	17.4376590757074368	23.0488706565730546
20.6138817691546308	13.7889494568535103	21.1341240677807889
23.7024784512146596	12.1976379606956336	20.2444600095010756
21.1588637423176742	15.3676877210817633	22.4974770282074950
19.7316709782963180	13.4868111646507103	24.1162850367775157
19.2303614282616522	16.8067691495819638	20.7189720933609891
17.5767893572265734	12.9708909627484132	20.2932992430280663
23.1845065717238477	16.0915054228759793	21.9735784043583173
18.8562858569287322	15.3839802486851731	23.9509034397027385
4.2169036049495645	41.0954998392674113	9.7877206702065429
1.4865960731737826	19.2842117316179298	22.8119138009745264
42.2139758975073960	17.0026835853632825	22.3819145479531088
4.7544401405469419	14.0192249565399276	23.7879561642253670
1.0328894594718208	11.3687546974162714	23.4652239386359831
4.0267462964675946	37.8793976931433178	8.5406849862636953
0.1961103674896137	36.3817197027292210	5.9578461685366095
5.6476664013087241	42.1588238896058201	7.7973331685979872
2.2375045340653634	42.9908784145640226	11.2415458493399711
42.1851392024298590	36.7364782760073894	13.3136564608610168
8.0108631134222392	13.0212571412545000	22.6715372270765805
8.1708172891877009	13.4935095996130396	18.4650349886378677
7.2254723743808453	16.9610790513362204	23.3678259287378829
10.4978540818540953	18.4783678947046042	18.4786711264134986
6.8679855052495409	14.3223862051287991	22.0918472388889668
7.6210069993137530	14.8247989249671370	23.9564916280593110
22.1761473095345920	16.2794516070649387	23.7530877956857047
3.0890465726190053	41.1585986452343775	11.8644042068629485
5.8904728034087492	37.9811089448627826	7.8999339551040650
42.2503170456402017	37.1702267349944506	7.6299715213775121
2.0533927833442780	41.2240106585834880	10.0568557368745353
0.4815702549664655	41.3333903047785896	8.2941640714836851
2.0628897341117889	37.2736166084809284	5.9593662061596397
2.9945221899520051	39.5823323479618239	9.2701379252959892
1.8779087804225703	38.2771515367127648	10.3586903704358342
12.6504275979672052	17.6320969444074294	18.8130858151458611
13.1720744992760963	13.9032145082271885	19.8421238164578071
16.3977787777937110	14.1105909586257017	21.7684519144364970
17.0046904206045184	20.0538424520557079	22.3654506994584494
17.1775505135441904	14.4591069404004475	18.7146070745526316
14.2487992308386282	16.8214621250443344	19.4315978289861846
18.6566808666397783	11.6872716434837116	23.5962911968838753
32.1872175244629162	31.5385543875778005	9.3673892048640877
31.9828913391611636	14.5560868826971674	21.7040462486707675
31.8399073185491162	12.9011725809910249	20.9616120462425748
29.6750810130991844	15.7386464202335450	22.2579894631877977
30.9222261268584084	13.3584946902105610	23.0033131477931825
32.0883509733856727	17.9103688916704122	25.0549326548620606
35.4649182346572687	17.3233379898685449	22.6366771751882006
31.4799806084771667	16.5713036635122570	21.7746449037029493
35.3574983345878877	15.2530403463299251	23.4881515996309496
32.0617333757788998	14.1834336789371687	24.7676678636066434
31.2875283201679437	15.3003537997308801	23.4966120109085779
34.5055898188607344	15.7089566532225202	19.2513316360817797
40.8174090665095193	7.1052727187529019	25.9211802450248463
40.1164946901401009	12.7461095786770073	24.9242597976290980
30.8429043307883290	32.7326722220976905	10.5340592704276794
31.4417045982959849	31.5281547998289255	7.5105446701678025
32.8002774627575562	14.3141423141282917	19.6095113648288510
31.9132730651682515	33.6926662867131910	9.3123879667467655
33.5919180386706131	33.0476125803503464	5.9934480484868464
32.3755812507174738	33.3789267963767387	7.3448067378824238
37.3448949220186392	31.3151889526525871	6.2217746289098432
37.7970253358477990	14.9404084358261198	20.7408213675142221
41.9975132829346265	14.5575953985076261	19.0894958856109724
41.1970064733149712	18.5382384724870626	22.3840160357534970
38.1077865209263251	18.0176887136874697	22.5424231121290397
39.0450716210373940	14.4949707856440355	24.0010822047491885
41.8096701396071069	11.6544963879843539	23.8622646904250821
36.2668747952148038	13.2781704768208080	22.6535897488806413
36.6590483976586938	16.1216488207820348	21.9739678198351562
38.4606402458637859	15.9784084884145763	22.6423186179413705
41.1665050183060401	17.5942143684489416	20.5021946072830374
32.3352511866693391	33.5989677376636564	11.4523991711730933
25.5932877946043078	13.7643212962590713	22.7287646304046298
22.1238683149968267	12.0614745302698285	24.0720048421474537
19.1781724002567699	15.1026462016124619	21.9002289189180743
23.6510567483789558	17.6464934512336704	21.2091779450676725
22.2623343379019509	13.4942103128898161	19.4763093202442015
5.3036276640480366	11.9185020525142029	20.4305345309766508
1.2599137397084588	18.6108209716393027	24.4985277088853053
38.9891292888737340	33.2907480386362096	9.3266251381831324
40.5990311143608622	33.4817424453224746	8.4671341536165023
38.7282976752332715	32.3230344700937238	7.8019326051729676
39.8390688434376443	34.8286500228006517	9.8119084382575856
39.3271738930459449	34.3507251939503249	7.4706730561080974
41.1001298512206716	32.9959936640961899	10.2348798917787214
40.7341623769938010	35.6520515240155760	8.2755823642185522
29.3441823865112710	16.0763542597775064	24.1769521589069640
28.3166378556671674	14.9446034128543630	25.4807879085185967
30.4054011367318964	23.2164633421016866	22.0198082305264933
27.8955551048538375	15.6014200878066518	23.2719257684301013
31.3339816343169097	18.1032385246089689	20.0372656105778759
28.4115448317063084	17.1276209541200863	22.3234272812230898
27.1066569548604193	14.2525924762601992	21.0685288745273951
38.1924723794850394	35.2691536733300310	8.7649691934877776
42.5300754134263670	32.4633298269740180	9.1209502882283946
42.4891543915675811	32.6515325747184377	11.4490065733835014
40.7772057274208706	32.6878266367287438	12.5979391492896351
10.2937876993358906	41.9135403003277318	12.2692251696709285
7.1061190643342576	39.2060215012420841	8.4099057000137272
8.2639151401131379	39.4524013724443705	6.6857982009712602
7.8648776040501875	38.9176857633694837	10.6266669301930659
8.6963918009088044	41.6152590740841575	10.6019471907796721
10.9913581729819434	37.1952082627386673	10.7151569208781776
12.7362894764029484	41.5374813229703079	6.4325324763334226
36.9457995486680417	30.0000580992225139	22.8359794814709929
33.3227166858615149	28.2973911935066944	8.1592470162975630
33.0268289650345892	26.0647864265234688	5.1931754737921878
32.4994173386913801	24.4529339620430868	7.4408266584008187
29.4836572800220154	25.3327911853736474	11.2103829162327493
31.6228419352806789	25.2093454506579349	11.4419724106274465
34.4278748498665550	28.8684058859920505	6.6269105305632756
33.4138961189498218	27.0354897894379107	9.7423631168349782
30.0722379422238966	25.5129758987372242	25.4068331094973665
35.4716137628209012	25.6130067101074737	12.3127927404623083
30.8042392103715592	26.2091360307848653	21.2520946423078172
34.3699776288948158	26.3770132773562196	21.4239323352467785
30.8569882218090044	26.0992355904442519	23.2694086235027093
34.9686885553872884	29.7602809249332552	22.8722702486012928
33.3987911617446969	25.1440222793040000	20.4093582523323498
35.2336629192349662	24.4676665452900437	20.4592849318904051
33.2887682130607843	28.9167013743366823	22.0436418583210134
31.3060305638433931	28.1716897086646405	21.4817224128237001
35.1908714394246758	26.7854033384793908	9.5875203227202430
31.3807627696155436	29.8785344799681134	13.0441583144051663
31.8980751296217306	29.8524399676586505	8.1053695642198598
31.6713378533202352	28.2904273698301729	9.2737533035989816
23.0506617441402035	38.3289849914846386	10.1279978442156402
17.8201769002307522	6.5087778945676700	22.8842609773822652
11.7332453016365470	13.2867649019486382	18.3156938757401555
13.7911580556438818	6.7217053425785700	22.6832162401604585
40.0502661676379432	26.3696247128538062	19.3376766014187957
1.4282806770443401	28.5881954088636725	20.7463716300744920
39.6287921345038328	24.2200628271037495	19.1987771182916909
37.7042806640393877	28.2688968169095602	19.8630390668219583
41.8866460854987537	30.1212096916683976	23.4961030584055734
39.0635136380147117	28.0476369633317510	18.3221433118807333
38.9474423887015391	28.6063891824808962	21.1187019524327404
37.9247413499059149	24.5040396073823779	6.5295383039954222
25.5215058320113855	26.6599637916032322	21.3048473106323932
26.5102885067857947	27.2917492761601075	17.5599021572551273
27.4818136528669577	28.3070631110353617	20.4968011693816123
29.7062416539316310	27.5960769335537712	22.5826161450147929
28.0642420783535691	27.6839367075995426	23.7011081109521946
26.7706729904626890	26.9004362750176220	19.5934307824369327
25.0890590015250368	25.3737889258189497	20.0877020178458601
26.6424503643110953	28.3498546129929103	22.2808528275104933
24.9826510269597009	27.0725815581526987	19.2013837819520710
25.2802859519099847	29.8978255845383387	23.0017815049108201
27.4102742770596990	26.8074395766069884	21.8219574996652810
28.1746061733614361	24.7467244123206349	26.0406788686802741
0.4958365269877562	26.2061648261747742	11.1936639499570934
38.0825080733654886	27.3149613177625277	10.6416807431174050
38.9446396817041318	31.0279358765667759	9.4685484238780084
0.1141044735664042	27.2631825342295073	20.3913738943355796
22.2428443695689744	39.6621083910463668	11.5486504649369532
20.9671960852612358	37.9984640686913764	9.3160179727683126
22.5721341987456015	39.9847760187634123	5.7124037110063473
21.5452384043120375	37.7749006657756325	11.4351445159045753
35.3623250690596720	27.4949289862388859	7.6574729077703205
36.3885123931839587	25.7806319046676187	23.2079573564932033
33.4570706451629007	28.8302770940519117	20.0579201887638696
31.8780106808333095	24.8426953310193177	22.0470958450462433
36.6784009924120795	26.2092128211252167	24.9167144816188362
32.4297377225252532	26.8362911161130100	22.0723311893427656
37.7633689668378949	26.7664383577814746	21.5396231960775424
34.7014539608092463	26.7254896102672461	24.4016316659093384
34.6656004169335290	30.2736494605800992	21.0341508898102099
32.5379221737376767	26.9464600716004412	20.2321080347218150
34.3507272929576999	24.6065398923238163	18.6507690842771403
11.4100501490932533	34.1102314594677765	18.9677028394369529
2.9244413850435764	31.7613209672535746	21.5085636748701212
5.4184915229043549	35.1341904900357420	20.6789857366116969
0.8977790357442489	32.1288056508811763	21.5929708015761754
4.4883990427601965	33.7089647643122134	24.3056850314055168
42.7267772587786041	32.5087295893650037	19.8800103623259368
25.7759771449514794	28.5370486000241534	9.0659681107340422
19.3586301468259663	37.1598894245060478	10.3100443385946576
20.3965205151776203	39.7527606788041012	11.9212507744655216
21.5694720517818759	39.5940963243619208	7.7440507915899124
20.0812888111979895	39.9144999090577741	8.7795443716111894
20.3694706542314492	41.5095929513098838	7.5964735435300099
11.0377134461050712	5.5676512324179113	16.9645437549001841
6.9874423963543766	11.9890836793433895	21.5980616728817196
12.1083828820883905	32.7093081756022954	23.4669925585158978
12.3269438287716255	36.2222636515804695	19.4267654429302681
3.8923627423477067	32.1474361172594882	22.9728398489711942
10.0267795282416952	32.2795377005993345	23.7860912047014814
7.0703280548129452	35.7592514960167733	22.0997007916558523
8.1510117071648889	31.0852722899801961	23.3884155951808701
10.7197817388889565	36.0798572418237740	18.6118721186984857
7.0083877784113309	35.2205771402426322	24.0512460441720037
10.0492618299017131	32.6182299474264923	18.2719490975567496
8.9891023862398143	35.8320059184507116	24.0845418995960898
5.6787404514790776	35.9333141157568505	19.0549331641655932
11.9436165163522041	32.3152835121327087	17.9616135521730733
9.8600456016660711	12.3653986842781887	19.3422704548494764
8.0201832513954177	11.7017586551365618	18.4419562233006893
11.7548060116132742	7.2300470589364920	22.5798121378666536
9.0570465982317856	11.7352813902341353	21.2533770726607791
6.2774953646206955	10.5155330602315420	19.2691869361070971
12.9274978685842914	34.3210431921864156	24.7124543380744015
14.5075746833027779	11.6191099368410207	24.7439584063378355
38.1572812370346242	25.2327687412691901	22.4486932191076214
1.8488379465956768	28.8987630935215805	22.5342921352242769
41.4264639800224828	25.9754222305857390	20.8823484612605270
0.2531665094304896	30.0173710303023462	22.0079367540894424
41.6091799041366883	30.2218732604320621	18.5357955620103354
39.1580590857220017	25.7200642554029244	17.7282257902267055
39.3849420760271087	25.3534434491870257	20.8709114772260200
41.0473440760110790	29.5057442879487510	20.5662550575107765
15.9748584006219208	7.3075133309621574	22.0655002361404691
16.6959502428026383	11.9475646036375043	24.2726833030477067
15.7498690223344120	9.6363443516246896	21.4944410696641661
14.2876510247331581	11.3922880370233415	21.0959148524251319
17.3863075981900401	8.9054601999801370	21.8356363516190903
17.3263345662312709	10.5233389649031164	22.7175213173209798
18.4700059394888818	8.7248181690222228	23.5403002371785810
24.8373863681287119	28.0024214157531404	22.7283174738212956
20.6432221023362992	41.6468735524301223	12.9116718608610910
17.9721009722452258	40.8793083340093659	8.9859528314779666
24.4841287389706146	38.9322614162722189	8.4470391604440298
25.6165335671366421	27.9359914257333486	6.9462905310960270
27.2637687254636312	25.1305984079652305	10.5952255936023629
30.3232168874114869	26.2839130319590843	7.9161882514253756
28.5082672074334695	25.4594668119879337	7.2859118132161562
30.5343937910731640	30.3380627926983308	9.2391324868783613
4.2578303440884220	33.4367978424576862	21.2068606574961329
2.4265977809166985	36.7035115156847809	21.8196029506363054
1.4950226928679264	31.2579454377461516	20.0049490775515189
5.4582304970852489	34.4979369491914838	22.6133056542823638
3.8489219032479829	35.5069729207453690	23.2455858857340800
3.3113695522472431	32.4064404545357618	19.6307559320964131
4.8087311750995383	33.7993777370510955	19.2444751367748204
1.6942660662573055	30.9867629062969563	22.9449583879919849
15.2544383496297637	39.9917618418785139	8.9497099755762779
15.9982637125401688	41.7601392524956694	8.0989654240164377
12.3276389738926113	39.9760591021286587	7.2630848964810477
9.9313388715838968	33.7442198446283470	9.1386474355939367
10.0301589240886528	36.5135185414553334	6.7684424933336365
9.8553678387466075	35.2218088846476505	8.0437140571023278
8.7850502677269233	35.5574712948464651	9.7554649560327764
8.9382046840084488	37.0786002467963698	10.8757910658582411
4.3299277486893022	29.0752250084436845	19.6166495557009206
1.3895676038364997	24.6849431834566921	22.5791674858109914
5.3446967963111467	28.8041492867942850	21.4817535115648859
5.3131775003274822	27.3193050796713628	20.4630145004396375
3.4468206166314030	28.4231755378716429	21.2456759180137986
4.3518714309195961	30.2105290059550065	22.4605717233401911
1.9629387663498894	26.8707708555423643	21.7223073854302058
15.7494290663694283	39.4181833273192765	6.9373032766116802
0.5807274699974273	25.6098661269657732	20.9954000192386516
11.1258920225658091	33.5961517389904500	10.9159507814019126
9.4550536433384824	33.4909519557394830	6.7994810376437957
11.7263608795363385	35.8292417926420583	6.6924499935024704
12.4510318686739669	35.3851384596761065	10.4303253963577518
5.5399669017912734	30.5923588389531247	5.1196083412501556
13.6621437434626198	39.4488055207756929	10.3412429050935781
15.7088081799396821	37.3996061730150728	10.6549628803417971
16.4084331180016463	41.3376216524297462	9.8561156432282271
5.2888703003828343	27.1261879069168543	22.7459650682584353
7.3115927010414561	28.3527506046946662	21.6844387382763024
8.3289427950103914	26.8455066499210027	20.4452241693494265
8.5275525124136689	28.8364649347576858	23.3618946885138676
7.9562051606395352	25.1568834150634473	22.9041684426565446
11.2890499084856817	30.9110601114690660	19.2548799799369483
37.1671798004877161	17.7254755709382117	20.7656385292722057
12.4518538912620720	42.0952241458024901	8.1261919345291105
18.7225213549221330	40.9021911494502746	12.2957289209855265
17.2278911316850696	40.2109983545982388	11.0559025184658459
14.4055851043483383	32.0141854442789509	8.9413377136541161
16.6006323390526305	35.5033796265777255	10.5574958290805956
17.7121671633377247	32.7852241581747776	9.2406165304960748
15.9858840904684971	32.6005509281724244	10.5397618913547451
12.6590232439648815	32.5983471185477143	8.7428074252725754
14.6064906498890359	35.7705419041303117	10.0079090080454627
16.0281834102250862	35.0393864895076987	8.7796084272051207
13.5978917955190841	31.4528620370791856	7.1369386305619047
13.9817418096782315	34.1807087862197392	9.4033082511952042
16.1834989356088563	31.5479623557519027	8.8795172237833491
14.0121258527102306	38.9048646519275536	8.2406098902076241
14.3572768863266074	42.7832940448690309	7.4384304239201233
7.8835139699089707	27.1526480958061001	23.5166285045837853
39.2650481469098978	18.2444939905662480	20.8630897233873185
42.1850536948877277	22.2395141023013814	22.7572258390569147
40.1550759056771867	19.8842919839397219	20.9814805335458985
38.7680417644410724	23.5093022877083158	23.7863913279469870
41.3325399163293739	20.4537063006171849	23.2751385309173173
39.5267034776220711	19.5347382905016858	22.8720595929496824
13.9183739513016675	39.7367273110288934	6.4142978525716359
24.8508379159170474	8.1800270824679746	23.1202451724911704
29.3299046185337566	12.3624768016128002	26.6710484248598263
29.7660802078023927	12.3712257140082489	20.2315832110073792
24.6158895507884807	12.0673609598737528	22.2403451475140947
28.0340931721714099	11.6885419131027000	21.1810645646737079
29.0961651987934111	7.7241843816254736	23.2167818317186168
28.0094591171856919	10.8186019034082168	25.6361498756007720
28.2343920850443979	9.6607351929033705	22.2867943932027011
22.8653281701661406	27.1508927603000316	20.1619805632810696
19.1098511364751857	10.1046454318479935	22.2532440899582689
24.5740344057516289	10.0513971677296450	22.8803012268198600
21.2663812126707583	12.1558065846163164	20.6442426642090773
19.5547951515897438	6.8142521109507159	19.9319820935030805
20.9918963059475665	7.2848816029645329	21.5938776039359084
21.8102845897886368	10.4367671792557921	21.0740316322133197
22.7198162398142678	11.9086408969046094	22.1308055553153196
20.0182955283708459	11.6979981151547765	24.9992854180280837
19.5070903830384488	26.2337854269544408	23.1354455610245857
18.3534312813900726	28.8611344223358692	22.7349593779480728
21.9548027765932829	28.8022680576868630	19.0972034396715422
22.4848750806131257	29.2780278071942988	20.7652682574877616
19.1579821425800674	23.9926493741896465	22.9603332804919553
23.7260072773000061	26.1694482632248793	21.6330059494832803
22.2909139012065651	30.2663891720907401	22.6943086259956424
3.7650898839870957	30.6865954473713707	8.1481872824754031
38.2793529436299522	28.9911314564409821	9.8533269391293601
39.6180013991159754	25.1797375073765366	7.9546744629124264
40.5793869164192245	26.1984538132788600	9.4684158487449910
36.9707604267225420	27.8427418600977745	8.9675309564609993
42.1302853455515347	27.1539646524326983	8.1318213959909684
41.4760900569485216	25.3296529188974908	11.3254332819550321
38.4567409873703028	26.3447872380260115	9.1726912895232164
0.9197646562228997	28.3021274295529714	9.0688943662713992
37.0011423080217128	25.5074673595645187	10.6918106601178931
41.1503556311544969	26.3112349184637146	6.4675783301703174
41.9255554066488827	25.0135300945261960	5.4551300264710214
40.5304089680806356	30.4028730426097944	5.7970104770810087
36.0604595742908742	29.4164662388031140	9.9197984161666231
39.7108294862394757	28.7857589762335486	11.2542556419229118
42.0858085457509716	27.9633316589004401	6.1770155610826700
14.4164322267869807	31.6629230296249276	20.3827283117081635
11.7612817880624068	26.0896100521684104	23.6160282329898585
9.6179557917990266	24.2258301292979219	25.2330005835022213
24.0028619396263068	10.5997720793235519	21.1963789831992777
20.3884369812751416	8.5966154952048939	23.2359536113592675
17.6142021867528094	10.9840158743553609	20.8554046420436521
20.4106751636164034	10.6899886692797086	23.4500891502490774
5.7265027074953077	31.2593291019828960	7.1622378045941639
1.3476675209287738	34.8077459258643955	7.0446587019482436
3.4666272427939324	30.1360840179413998	6.1765360739243071
2.8893071693969632	34.4155193594431097	7.9907607306841424
2.6931635789115833	36.4344827437132466	7.7803857226795472
4.3010313192971870	35.8380875762142637	8.7658612825929385
13.4479568704566077	31.0249958722255244	23.4645865142412191
12.4758361759510858	28.6174048878145122	21.9170837849444737
13.2128237721256951	27.5859278319551748	23.8554775662770879
31.8011260486682765	14.9818827788026336	10.4914407916360855
17.3723817182374347	27.2189642686848821	23.3064793434318283
14.6304498016145974	28.4082028676808918	19.2914502187286452
13.2157087076063924	30.3390626370577152	20.8448199412113055
12.4401451928547200	23.5393482178985387	20.7375431197678779
15.1756869511410777	26.8267460429579998	17.8268523908977201
13.0775207498977348	24.8715838810623886	22.4581587182195470
16.2794203962435837	25.0336038079916285	25.2620478876956582
15.3638743842490886	26.7496655924149671	24.1383155676369370
17.4434157296353227	25.5393382816800383	18.4312374685153628
15.1281907300130758	29.9212086502206347	21.4547812001286466
14.0315856114667099	29.0344470528557075	22.6792513254672414
16.5972514498329780	27.6755204521320124	18.6571224698688418
16.0571689116744984	28.4332580093830813	22.8966409443487571
3.0730376164554754	30.2907644820789770	10.1322604063045780
5.5936906033538261	33.8070118172335086	5.1397923945799899
4.1698468571332779	36.8229370790945509	24.7974191605646261
5.0216121936222677	39.4855545162003381	24.5875713397483793
3.4960725702258824	39.7771926860794167	26.0305785539920294
3.9933754798436416	38.4614114933744631	29.7314749151509972
2.0418233732018556	38.8242787032917178	27.1500207218800789
3.2717194856185619	38.6309165877716225	24.2773654961444016
3.5205589358925198	40.0443791669665998	28.1269488306173052
3.2927684455597883	41.8913980681989031	26.4094402675270459
4.2995518043644454	40.5505822069033641	29.6999857240509044
0.3977089659941105	41.1188849192890160	31.0033048103331588
1.1960931329461988	42.7403265281674223	30.6167537693413614
42.9372307564277165	38.9919592777270836	26.2891583257608552
2.5387639198414536	37.2729972453042180	28.5261358575302459
19.2405544480082646	3.6849078610972912	13.6899914464709802
7.7561129674497025	42.0270177798089151	18.6732954227860120
8.6870692319186507	36.5424132414914666	18.2441939422431645
11.2454941269251734	38.1253857757023766	18.8194229236722137
10.9278522447768882	39.1588192950533553	13.2645644951942394
22.0672554240133643	2.9989520697375971	10.4215723499476347
20.7594430251117075	4.6144688983751028	9.3907329330935863
19.0024122431079654	2.9189987204943439	7.3131642076895229
20.4180484955675325	42.2971207702130698	5.5740018936301503
22.2853530804187656	4.7789743545986489	10.6786233461853381
18.1014859817966780	2.3136815706869753	9.2392267919809985
18.4100933768444968	1.2468519321633058	7.7889911257908810
23.6767877602460857	4.8610034082647777	16.6435919819379876
20.9325534441076826	2.8844569138529241	14.3447620601498986
20.6155748779064538	4.3394649535740131	12.7181901458350204
8.9995008039665123	39.1879065477833137	30.2400582960524282
7.5628253977747475	40.6910988428841165	29.3712796672624634
11.1087054940357550	42.3041154656408693	27.9516374613194500
7.5101943375753768	42.3881812358837209	28.5068733930399745
9.8677348678056731	42.2757883093013334	24.2277123847685907
36.8607563014295891	33.2699603553880436	31.5077231527408763
9.8279108355730553	38.6541908795929743	11.6769772515569628
26.3930165000357775	1.5968542742663592	6.0836249011571830
25.8220905240328307	1.4346779759945680	11.8851366939197600
28.0925003859307587	4.0417846597821185	9.5191698669005387
27.4256330533756909	0.0910916681059417	6.2148290392607803
28.8894953051291914	4.5629837911798168	7.9431615856873243
27.5598256008360778	6.0243971675138788	8.9757358348985345
26.3007382006661423	7.0295727203542313	10.5459416025588109
10.3504112659514114	41.5717830006316689	16.2701188935128940
40.8912702128382577	34.1174200504954968	24.7354467165279850
42.5842017410056144	35.9908376688900162	28.2991522558295543
39.6980463442668778	36.2580107525498008	30.5240860995365715
0.1454387472368761	30.5587042542074805	25.3674955076006334
36.1594321814080217	32.5112249111007117	29.6622253218344163
36.2478937891213562	34.3114183962922255	29.9178251729930729
12.9593104630257105	42.0777253089270431	29.2494829227329838
42.9855831007938392	34.2562896303499045	25.7597127338449887
40.4202479451965928	32.4481235772852799	25.9545850277764103
40.8530627754075155	37.6527649930583479	27.8153012320815094
0.5927072342116643	34.3573858058546691	27.7041131041482949
40.5465431297654888	35.7839952412278137	28.8599911203802009
42.2698078677037117	32.6978858325425037	30.2710096083845350
39.1178249973245471	29.7119829173383216	30.5179868909161449
39.5910136381754043	31.0285704096444412	26.6941514115734364
41.0902618941560860	30.6116508500177780	25.0546381091424770
42.1455324400793927	34.6876393697993564	29.5076067234526747
7.5467576468225568	41.3412322552384239	17.0256250623060659
11.0624936178856697	41.0368603722695866	14.1354524182139354
7.7725324527257857	37.5984993719629799	17.0784575710181343
9.4171497322883120	40.3587090421663888	13.0744299722591943
10.7123174543697974	0.4787335789056242	16.0580444743206208
19.1402323537506192	39.4129130485275923	27.6211005067208681
4.0598719042966671	0.0083497179041530	11.9175340372779353
2.6520837719811543	41.9498720072581506	15.2224719545447638
4.3748359949426181	39.6774028402385426	16.2077247357514871
1.6048504710440881	40.3165726295788289	14.7532736900224108
2.7393197907484086	38.4051272220059872	15.8863330120182056
2.6185103674419419	39.0006742577805028	12.2892985459875899
6.2592483487404067	40.5903963296959205	10.1712450324311323
5.2813297965526482	41.7146960060296195	11.5788264729924855
4.9862007952756864	34.1867169852280881	14.1650611232814079
5.6346195961430929	41.0101234089998385	16.2635836639093192
13.1421716956882744	0.9085691862895989	8.4912213211086698
21.0623896581646015	39.8937069592996920	27.3178615342929092
20.0982278819531039	40.7501096890743071	28.7327871827223937
23.3897174956865612	35.9413232963705411	30.4416283055340564
22.1829102583936582	38.3283962818920116	25.9945140150718643
4.2660681708085768	41.2935189729862628	17.5553106301209922
20.5517889591877214	39.2135596494060721	30.8790862960861858
18.4261658519993823	40.5310182377807564	29.4040961946767894
8.9748402477912173	1.3081473330496842	6.2638414345041502
7.4879112729747783	2.4511648014454419	6.7226780841816538
7.2782912066194978	39.8169808700883578	18.5826935154865716
6.7018752194049753	39.5049595728490459	16.2135440260835502
3.6322063617721914	38.5807856183053559	18.7091568093139955
2.6870571404146553	40.2806428267311887	16.8133553045013642
1.0385981894683340	42.5186908057640665	14.5320827320536612
27.9676391113452851	38.1884476174666361	28.9703378513158150
25.8135969568570118	36.7505778846335929	25.6345902236865832
29.2906672915682549	42.0225940120353698	27.5186310853120268
30.0150401281873229	42.1285679400882671	29.4991250607513358
24.8806804502312744	40.7949838031082450	25.4084200982016135
25.7225154986466507	38.6701717144929233	25.9517437308858163
12.8695726937764618	42.6772641398850325	27.5138732953241458
10.9985112960147386	1.0778229825403423	27.6617837490460907
8.2817194435685551	0.4395878637830779	23.3628804426118357
10.8675472218582119	36.8163185093864129	30.2260673882820043
18.2925833013836154	0.0949344550349869	14.9051045766813388
14.4439071018048732	5.1940185766924047	11.1139779367781006
17.0009933336031835	2.3670239145074206	7.4385611445643764
16.2158720423860636	4.3773347834264849	7.9991461873690630
15.1149189376489623	2.9362233807204556	8.2544652364516402
14.2761550921329814	4.9078963501610717	8.8988360630095276
12.0388188167142509	4.8097319823786018	6.7101152262907995
15.0266804034626063	1.2397279289215091	12.0186736062950281
16.5459443811056630	2.1653810307151300	10.5834260709633963
17.1717818100736253	39.0376645155616089	28.6442200582744562
16.2825473374188334	40.0662179449263789	25.4875496266647517
12.5679000297118080	37.8521500353134570	29.0251122938235682
22.0510387006135957	5.6163786328860716	13.5354384807307806
15.6367404534937666	37.8340934846976396	27.8769045333606194
15.0899187598793780	38.9497097956331899	30.8053803084927971
19.1118392058523980	39.9057027667769120	25.8722483020339240
14.5370018238445464	42.3060236144199351	28.3234043658927064
15.6273829183513584	39.5879456553031233	27.1433387839204663
15.6324224090853203	0.4090053910769872	27.1522399859790653
18.0264710401319803	41.1576738876162054	25.1568010413416800
14.5209950549156055	41.2301465743752900	26.4731660508546582
19.3020876978109719	42.4391951855251506	29.0083507723687930
13.6773534553983644	38.2047315311702960	27.1172292204585297
15.3934279039965851	38.2026838586764228	25.8329143113299011
17.3839863805674568	38.6923068740028242	26.7622008947558214
15.5483103591801850	4.1075702874363040	9.9969069324672351
0.8091317648687084	39.4944403624909199	16.1561408868167327
0.9852130150541144	38.1347858777916500	14.9824965652183586
4.3510324658270836	33.8255220424426355	26.5171140199561854
4.2059538259170282	7.9684563123810106	11.1752330846953214
12.0165350911491444	38.6184674764517268	11.7291101798463266
7.8359264361366368	36.0343254128719437	25.5133096288056294
10.4722443372151037	30.5373325825696469	28.1677159117323015
10.3860784280108813	30.2552362368465069	30.0785810454902069
6.7470512295602942	33.4676506727730896	28.7966165867018766
12.8711498842993475	35.8982547652015356	25.6503478489948193
8.6740322891747930	30.6888942235430591	26.7111782347617854
5.5734205546063658	35.7255865632650469	26.2176298503016625
6.9820758629498592	31.6103505218365619	25.4629549479378348
7.5024391739085337	32.3860761948595766	27.0583420237239842
11.5518195678487317	34.8814676742453216	26.3847380900118260
7.3646870538938130	35.0501275155024601	30.4515098018081254
9.0344470937932293	35.9288081419859893	31.1537585838653079
7.7609520705275923	32.0242448657576020	29.2299654584143731
2.4426085935037820	12.0839676316154154	8.8491535784735991
11.5388575935295279	33.0319695994941540	25.2516918469783889
20.1225572299993303	39.7085319655471736	15.6305477664411594
16.4793052993369997	41.3788128370547170	12.2454184170670999
14.7421694517091897	37.1557377616015359	12.5592510671141682
18.4618983959147158	36.8227555210185571	13.7482666678061403
12.6302927360956421	39.2984180680819080	13.8286484841825601
14.3053923915705941	39.6317992303978954	15.0264904429972201
18.4037405642909917	38.3330115659307467	12.2320902845620605
13.2764019460212293	37.7931515966535301	15.0654623663521736
13.3673143220589417	41.4098810826780408	14.2551208076557394
18.9412959694388867	36.4054072724326190	11.8962554399856941
16.3267810693844702	38.0751022363880125	12.5703324320345580
13.2788786429586736	0.2348846621302274	13.1272531292361290
13.7928708108499176	34.3710030882145148	28.5074308530429370
13.3738038608508880	32.2503594570603056	25.1664515212144302
2.0259334460800100	34.3232753294131072	26.1803268899918464
0.3174919675510501	24.8969927763321621	30.0448032020861078
39.7643233702436802	24.1714939579744623	30.1863015415792795
41.3634864250873520	24.5907728028397443	31.4093306983396729
38.5420114333343520	24.3335271543825478	28.6308052412825909
41.3579202479242483	29.4375575209756839	29.8367823741268872
38.0519915784087175	27.7514832971830820	30.9100393055531661
39.9008729142983256	29.2344766752088425	23.9007210550920774
0.3256903859558452	24.8227573131176911	28.2207988644186010
35.0969379408244251	30.7192060074765472	29.4864217453709401
40.1869236292226120	28.2072722101893305	30.4654577353513218
38.2662612282248560	27.7743041519550431	24.6230389813806703
41.5757288272109022	25.2098264327355928	29.6787471805570320
40.2709766213600062	24.9255022517614826	27.1885370999299347
13.6436040263064822	36.9521896309042717	17.0706541069139597
6.2393628790721385	37.0022919183981784	25.1565613529427807
18.3097499850920578	37.1914355943756902	28.1679789744782170
5.8612041015354945	31.2829243440700253	23.8376589710270110
6.5200477218121051	30.0201893718801465	22.7421973175120087
5.9448840984211540	33.1588831898989795	25.9765176208187967
3.4598505055204996	35.3892362141750922	26.3101723408643871
0.6454180912413193	29.3616279686883956	29.2785946806948552
4.6842020300959426	32.0802891554211058	25.1063238626720633
17.1398842919226553	39.8491048522664926	13.0195362334677363
2.7147989078326820	11.0509718730631761	10.5577780388512075
5.9919353649095255	7.7198398468797720	11.3495789661160131
3.9658123749377645	9.9820805939974786	8.6675598072200710
5.1336718534317267	8.6236371965430205	8.1284522351610757
5.5898336768736305	11.3298391956159215	11.9407213739813169
2.2814513864082113	9.1101647830717933	10.7324772527737551
3.3056343525887262	7.9098221262627542	8.7841677732696297
2.1632876854496867	6.3006773646291609	9.2606930490866954
33.0068346450811774	2.2628923723309802	5.1878644606012481
27.2666144593542192	37.3251338824123735	26.9547962251188018
27.0051350683669753	36.4904654066230094	29.9134482506417143
30.0266811039127184	36.7301185445536476	24.7648272484786496
28.9625398946862056	34.4562193591899373	29.0908983331934365
24.3324263824727005	34.7760988993606333	23.3086283194950461
27.2039458220246537	35.1035134771735073	27.6106319744066724
32.0205733154091448	30.4955970070289304	28.9768222580499391
25.0678426715799958	35.3927797803419182	27.1682586265982060
28.1457611141052162	32.6957312172907777	25.0708161352664725
26.6285402926345327	32.6402359816474856	26.4113841326440593
26.2775677804239756	34.6113095190285165	25.8872759722696806
28.2694062619693405	36.5388355539528078	28.2882008235931437
36.7042932280173559	0.9788130895328425	7.1431124205188858
34.0169286036084060	1.0451656084792476	10.1355376163926323
33.4294944580025728	2.9725313920063789	9.7276834286089358
25.4031799212212483	35.8048401602435646	29.4097086172774524
30.3433370567685401	4.3414279984048889	10.6236780202117682
33.8055694222087695	4.6538931124851413	10.3887919477324733
34.9777686208260192	6.4646942797198079	9.7604822909087989
33.3448292162853051	4.8117112697388285	8.3395423272581439
34.3708693079553740	6.5546923483434494	11.4465124074310136
20.9654293253145774	3.1275680698178974	16.3093874378858885
20.3950906732794159	0.5819342085395955	14.0935035558326245
22.7219959411840975	3.2661937942903525	15.5808568586350784
21.7141737855856825	1.3696960829243767	15.3455420335957253
35.8976832103774086	30.3592221608738875	24.6536476606641450
33.5511552964949260	30.2839170453647384	25.7258441706609524
33.6913244509642027	30.4237784532516535	27.8183629392244534
33.4246784914882795	36.7468951243313811	26.7534279880997303
32.6709129557595332	32.7009519205537345	29.3788847463404430
34.4719497689226344	33.9102248234340493	29.8887945836827242
19.0482213544979544	35.1302108138167739	24.2492136292081497
12.3878345838898181	30.3878924422903154	29.1095331189373496
12.8834722838461637	33.6783636139866402	26.5909786722599222
13.8142681905181952	32.3836974202873762	27.4505695834814958
12.4046002638060990	34.0059756112222473	30.1945679800400093
12.2031086227055674	36.7747441665149850	27.4253568543799275
37.3368784456793534	1.4643523329577040	11.0395386234898272
40.6092765866463523	42.4681798638089063	7.4400329840960149
38.8411192848023390	0.4942978934163825	7.3333773987832593
41.2962185124010261	4.7357000155870228	9.6396894031175595
37.7941204907753630	0.5635074278958329	8.8851827372603687
40.6382314852601283	2.9336702943340702	10.8791513604415560
23.9318486927638041	37.0436329186092195	25.9926505472185418
19.6785108829379638	33.0635331462035325	27.8961683860461953
23.2051628238003431	31.5121594256940405	29.9271591381804356
22.5250299441441371	31.2058041202109315	27.7509614606763044
23.0053942087711008	40.8636610731891139	31.3970222882929519
25.2131208760154699	33.2120599459863612	24.7979463931390889
20.6719312741951811	32.7511675617034044	25.8561269491291661
18.6764283182505899	33.8875320994760969	25.5159455726849380
19.4691761151813694	35.1570753918109418	28.4776848759882988
42.5281755709384441	2.1011312017236357	6.4395219774631851
16.9868139007169212	41.1649441542663581	18.7441662802412381
15.5190851885369270	40.6432773192889911	14.1547578797840199
23.6033079934801009	4.7129126204179821	14.8179641079088675
21.6101511179238237	4.7418608150152002	15.8975800003707270
35.5446295980211175	0.5651290234534475	11.7613233079172304
29.5126458745065925	2.9209480845197500	9.6092964026521894
27.6875591161616015	30.8851674792496134	26.2437078244312119
27.0761991946789848	31.3754140309450591	28.1125826675404298
27.1938624941399532	34.4289928978418871	29.4985177895823156
31.3177609121819920	35.9877338525658956	26.2015251538805281
42.0373543206584230	4.1126954898854065	36.6311251852827908
23.0096173834050397	38.2543174179075365	4.7508530650145628
23.5852310724651346	42.5046003482958099	2.4192386368293497
19.6963328929074208	41.1233646025917494	4.3635089188350396
41.4242295176152311	2.7937348746502000	35.3232572849964583
42.0881319826853542	42.8742402773830591	30.6184510327386477
38.4754673421881108	2.1286546797231609	35.7996005823908732
37.2636109136393543	3.7352756269308829	31.2360428637059080
40.1401198260616638	1.8240266766049436	36.8554855967002055
21.9820293505111017	41.6951324822459455	0.9017016037064586
37.8274243805710171	4.7033566481906508	32.9310671813035967
37.5735416132094784	2.7025050922567537	33.0578978091662563
23.6959585920721665	37.7386810985731387	0.7300499297128314
31.5093998635710442	33.2180642581664856	17.2563109164366040
32.3576866204103766	34.5360563781020460	18.1785724729730234
34.1537727139522644	33.9489852194360324	12.5628329839521751
37.0354224835969958	35.8193296659055136	13.8265072187451601
32.2321494878353576	32.0924333497207073	15.7483594534107052
22.6570604706945318	39.6912375602038665	1.2359794766211256
21.8750003732358600	41.7025168339627825	4.6318050746792849
18.6602298613451794	37.5315260214669877	4.3721543673310519
21.0763672694966147	39.9407193012463537	4.6483651074737260
19.5143999511469453	38.8034721903789190	1.3190587158852689
20.9871743655779248	39.5611327846608418	2.1089457432195351
22.8186731961167482	38.4258023627342524	2.5576147064849928
19.3612864035281298	39.1711573536440198	3.4493624979575768
22.7331479739945195	39.8515304435602715	3.7495561113520615
35.5284449064837347	32.9396198095481623	14.0626827975079731
1.9911188894890204	9.0333089646163280	33.3322556376700021
0.4303903139115257	7.9422732303756947	34.4809390636621984
5.7066950857423899	10.8061838179488134	32.3573868700506253
2.9819688899321202	7.5595754296696640	32.3971574695517859
1.2301339953554511	9.3533033852534579	36.1433112148977571
26.2703378496261983	4.5507892964400236	15.2260831016473013
26.9648010712766535	37.1839122225634071	5.9334520702906630
29.6215663733667434	38.0733681471799201	1.2371992116624004
23.6838416121911344	3.5357406249221146	34.7919275876212808
29.7308173609821971	3.7359946870850518	31.7879676849569357
31.0613245906227142	3.5646995215833690	35.6486615179325455
30.4427543391064965	0.0387335842987619	35.7765442752715117
29.6330734665848397	3.3982736075259123	34.1092676536068566
29.4189127657793215	42.8042407865163099	31.3154173666467450
28.6925300586544516	0.7211967932401873	36.9797302122615790
25.1204554890504106	5.2686616404183457	34.4669207054717859
28.4656342032724794	38.1593167200775838	4.8624161441384448
25.2361766417409648	42.8376286967199462	3.1346515356219884
27.1808260366718208	0.2668816225225971	2.2748076202985148
29.6783804813300200	39.6102962583027747	2.8305573367116557
27.7495107807831545	38.9095737224265150	0.7125698120144166
2.1482125618624375	12.7552023701755921	30.8877291477575397
36.3865684220090699	0.7715482251750881	32.5717771737395410
36.1459230032838690	5.8987711790576478	33.8400196020165893
36.7663258993356763	3.1919368470732667	36.4904241753663285
34.3877655283247847	6.4224161775064514	36.2888405628899164
32.8175884255876227	5.1614179635065147	35.5719681704057464
37.0513237445230175	0.0538584434329792	34.6668388065550914
38.2052969899609920	3.5894359940212093	34.7619179583603994
30.0328746514090135	5.4806502894828100	30.6201373548821749
26.7271828349428127	42.8829741039713639	17.6532653552597374
24.6708872086826005	2.6494718333558116	12.6138278584619545
23.9969851287452904	2.3420013593927309	17.5594959598197065
28.1577409732745920	42.5699940153481222	16.5185959160463902
26.4030302420960687	2.3675927958190184	15.2540218619573924
34.3412048999357324	33.1102295306266043	15.6895085069819995
34.0831596294553520	34.4611509339153130	14.2958095352481962
34.4465917344320260	2.1620430092022742	14.9126466581896384
12.8966962243076324	12.2741439244600947	32.8373965645350694
18.7727486714640328	11.2888519725030747	35.2310319996972368
14.7413040686686596	11.2231490823974216	32.7087894570798454
15.5268990159585822	7.7831305024707227	30.5537137741070524
15.8376765251121263	12.0626212488625910	29.4538100609771192
14.1381083408666370	9.0658112700722171	36.1251007674331177
15.7886839331358235	11.4725467263110321	31.1862524508718266
15.9006663835616848	7.4999904784731388	32.6636585749439021
17.6060052996206302	8.2721552502404787	31.7244662347009125
13.0398654391418702	4.5702522352527444	32.1039381142442863
15.6200679992427656	9.8579373182400065	29.8337194064072548
18.7226147753343604	12.9032311566052407	36.6800041986688754
17.9712956520884681	9.1712684268488402	35.7192450117230251
30.2103570771216141	33.2878519335059977	15.9449274913273342
29.5818229102769834	36.2388323540266981	13.7667527129253546
15.8170244921250198	9.4163787273546795	31.7656813367589770
30.5721547089382817	5.2924991201940337	18.1345630993974183
31.5851089452324381	0.5998359406235733	15.2807220415757268
36.3464349255601746	2.1063665654514270	18.5947486021525101
33.6491456360627410	5.2979730458228138	17.0805605340419291
33.1294602158582236	6.2500548189977669	13.3014003234856197
21.0467321992923644	34.7141428108634713	18.6097425419655416
21.4778567392476667	7.6453010816947780	32.0212695930986229
22.4195869494644420	10.5391495627165437	36.2619083430318696
25.4975373997295449	11.2939966309868218	33.5408687768603357
22.9388470532046647	8.9993002340018791	31.2945934448714951
22.0292590912647057	8.5287781254513906	36.2075655819702860
19.7083659556657160	8.0641761331164457	32.3282758252946252
23.3080111402502084	8.6195173287298967	33.0201076520110419
24.9437654877228780	9.4049875639297138	32.7471231735910635
20.6009396252079675	6.7970530983038895	30.6050245832242886
6.9462198200699605	7.5877353529923957	34.2017961036066538
4.0332624722816641	9.3269625934125919	33.0501606723360979
32.6738295703853794	33.8759104922204628	15.9788321955007806
28.6891345774585851	3.1845614266240894	11.4992635283954190
29.6711185495803029	4.4398929632889494	14.7218687489369398
1.1570502714063113	17.1010723970157912	22.9804132626542383
11.1644144403484571	9.6872034661798292	33.1661158463227395
10.9405325230171542	11.4552347833512087	33.6683976473824202
7.3060878524776047	11.6045836961953945	31.7904252279493811
12.2013154895404234	10.0014163564496208	35.2837025479504973
8.7044327495649281	8.1862324552514529	32.8800675568733709
11.9437232883178499	11.0871269601344498	31.8284101005282629
14.0797899234695159	6.0779658603951932	30.4661494426184802
8.6878097152360105	7.0639530752605415	34.5039212350693560
7.0785147185285524	8.1563145398392489	35.9399168721582356
9.3970530151255875	6.2682533938287479	32.4357688584543240
26.4005492938307711	38.7282078843157578	4.8268453604467698
9.1324307090080836	10.3535936583107731	32.7134899479845203
7.5418814989569025	9.7838172069542004	31.9388832654732830
12.7521044137481656	10.5118675646048541	33.3719398340302220
9.0901274283534690	11.0943364378275273	37.3258030538792553
29.1372077363932220	34.1074571713538290	14.2975955852533474
27.3642762693825254	33.5127304051524462	12.8906364710527601
26.0814161443554084	35.5547493756153230	16.0015914820692444
27.9791555501890485	34.1330535699934785	15.7483562402683415
17.7191016526291136	37.7936959832555246	1.7425697144210539
15.8103193869823517	40.5605892846548386	4.4135971475363576
17.3099401488208819	39.1346788865933704	3.2260148420171446
13.4987753572330860	38.5220235906208046	0.8606975181722591
17.6056641817281019	39.4158310029404717	0.9081530304886550
15.1677511448051590	41.3573982678940339	6.1488017295098896
25.5777301853029400	32.1084684157115845	13.1940142501989595
37.0452291633383268	42.5833748564559187	3.2348745519372630
38.1226755097466281	39.9400511781311351	30.6748135064695724
41.5360404161493761	36.8703171226547752	30.0118231734588363
41.3829138018471170	37.9598227257306817	25.5754429529711942
41.9336332409020685	40.0546311834413871	25.1160029654582253
0.9651877646207925	37.3323358890825148	27.0215975655910476
40.4611044308589953	39.6250745416743371	28.1068501177510797
36.5960824982366333	40.8930521045860900	27.1754657678680402
36.7152703154251085	39.2086808191276575	29.7779645628234526
39.8294495015850529	37.7926466699787866	29.3172251975839551
42.4480486384074212	39.0190021219412344	30.4343472997708311
41.9148040956477885	40.7764681129729425	26.7522988362053233
37.9069354219972965	40.9070446520836768	29.0071213239534913
41.8802880722640296	38.5287970801683741	1.8307810021153013
42.1010856820876000	40.7564345029770436	1.4587024489523728
41.2853456403794894	36.8007046770574959	0.7149237648470221
36.0188469914573872	39.2953155513121857	26.1161114025333880
37.2015578220083327	40.5735075310463742	3.4085825735197250
39.7329268177735315	41.6788182127069291	41.9078157305147627
42.9184049237515524	0.8079355018672332	5.2495490127483899
3.7953450604695886	5.6193768374056212	32.8522417142700007
3.1764318782285255	4.0352348055927019	31.3358621689076529
5.5660292400399642	6.1801737783121009	34.1925735163731090
4.3831842107696719	2.3042996324276155	30.5561940411936348
0.4102540928894494	3.1496286079325566	35.9908032938953539
4.6596636732759817	3.6995308595375072	32.2816874226297941
1.2561623704085867	41.9472256404327553	36.9266261990866056
6.2870024971525247	2.3409284522827605	33.1990817924117394
1.8752854415403313	6.4479928124179029	33.5148070798980768
42.7260893471853223	42.3596033676970123	0.7976444007833352
0.1984421959122082	41.6072059889158794	3.1177689584278947
38.4167885722887377	38.7442204241660235	4.1758255103865363
32.7011492335429139	38.6387314981907934	26.0549327598995291
3.2465523656015418	4.7109133570166470	7.9654749637370452
6.0663966347362326	4.3852746468341222	8.6442773842462017
2.9571412162921002	4.4889300981792255	9.7658229888422863
5.9439287144363151	2.6038869002591301	5.4215186021006803
5.2232633503804999	6.0393900894793644	11.7078673181932675
4.6454593259122738	4.1937662846122530	6.3186684493654628
1.2364503845194019	1.6618709683904387	6.7904726614270086
4.4377289107610114	3.3820210262803800	8.3253148184967767
5.8292484009268621	2.0801915858418925	9.1033691551686040
0.0077493483522541	0.4558554762857688	11.3643491073698204
35.7617939142225509	37.0555472034483486	26.5391915117752255
30.8389130087497172	37.9239589611035299	26.4172867082811074
35.8274333755008740	38.9046936028548203	27.9552149350400896
35.5650330581438183	40.9560654659681518	24.7093678144562752
31.5474829338598290	40.4905852880826771	30.1707010146052959
41.1194029985085265	42.0398864362567295	2.3475102569954616
35.1520510418273062	42.2129299655472394	29.0435049727595391
32.5950586586894246	38.3294208746548364	27.8691720323659098
34.9172153012949948	41.9842512534810695	26.8639942774361593
34.4217613521394838	38.2702788735943642	26.4724033620123755
34.6815337975805207	38.4954789393105514	29.8032982987986443
27.7442062208127389	1.6000336126399595	16.8838275802510900
37.1886829207778860	36.6625140181865419	15.4175283816204782
41.2121928052615161	32.3572752137760631	14.6125701006688189
41.1925176856939572	30.7254531663395980	13.4958061277221084
40.2294189024889306	36.6214959856026496	13.9082015690053122
38.0764142686890708	36.2802662610655275	7.2418321473473792
37.3044565617596362	36.6905895204602857	5.6807293707561790
38.8184479996688836	42.1905676144119397	2.9041100855827464
40.0280918553170864	0.8644674349628436	42.3137060369433655
40.7435961079169147	42.0306267843817096	0.3569631804635143
36.5544218307871134	33.4474908169843488	15.7586487891257576
11.7551140999553727	3.4775282562109666	33.7958181463614409
14.4477138038235253	5.8416758872042056	32.5342623220127010
15.2690891044536006	1.8219213450739591	33.2854239925414248
13.3289129234640722	4.5989405932527667	34.0682836501853785
15.9808448929317670	0.7971960754620058	34.9441823593569367
14.8593911196509616	2.8992901819611281	31.2310292235304701
17.2600232056182428	1.8940936867345515	36.5875252830276523
17.3453951346185562	7.0233161313830959	29.9509453763358202
16.5390719180234171	2.6952510663766782	35.0201347525894562
13.8043906295371333	0.1350598176278990	32.7866738181691133
16.6866104795729377	42.9100218342749287	36.3881492483860143
18.5496522246425108	4.5987683489957867	33.7569536955646328
31.1503031159272403	37.0347102281334912	1.3485466097559737
31.5422250239364779	39.4121934762642283	4.5107027383745066
35.5559693690632059	35.6911424316457371	1.9923867897729168
38.1336028354930932	36.7164276600063388	3.9592126967336592
39.1056759095378155	33.4199326525634177	19.0751399153160932
38.5543601343786762	35.8500425158218121	18.0974726217920505
26.6056608266815715	5.3966902097873364	11.9053395254474399
26.4298604322191117	0.6091054641829057	15.7860061131703997
27.8275976038591004	4.5968045422928352	13.6317851060993025
29.8100147580231507	3.6603651807650133	13.0787332015796807
24.7145553217188301	3.4629702135685605	15.6900357697990263
25.9250114980072830	1.0466250853827157	13.6630385081193815
25.7332265173195758	2.2065469016683492	17.0901500423345816
26.0332397177715329	37.4547614870261754	0.2611149469027451
19.7129461820860072	2.6552795889916938	33.4211505349403737
18.7188613899487954	3.3681097478694224	32.0845416819983811
22.0025292621249307	3.4752207194613915	35.5547132974531195
22.7311072152622629	1.6143440779022129	35.9046955996121753
24.6271265704722104	38.6476874190946731	3.6364542277875556
9.6332827350738892	2.2067671155964352	36.0120902947175168
37.3794004397706487	29.4339167243274211	18.1749347376546559
38.6509036759242761	35.2858412237734171	13.0445618060965138
40.9261577771086706	33.2616540331901831	19.0718518959642793
37.3424132112402063	34.6240176945123395	17.5315578550939826
40.1121247465825803	34.6994747293371972	17.7151324454998758
38.1571600748309407	34.6241540666093357	14.9093283631307418
42.4493181873535264	30.3306926309627265	16.9306378067814016
37.5199686043473690	33.3576923141415378	13.7930096437425203
9.0831060937992216	4.0802418210945328	35.3587335706871357
6.2372507182403911	0.6480262682093678	31.7640720827466794
7.2183301090293295	5.5364829822132577	31.1930696657574735
10.7661844940281188	4.6307982738036744	31.7117380635974406
6.9745599369651154	4.6979321754437091	35.0026712041539412
9.5922474991084599	4.7262632392210282	37.7252230531103336
7.9163128220622188	1.7551302934197228	32.7041317628690962
17.4216169200767226	3.7334168157607146	10.8161144452307454
7.9957532664672231	2.8643980375982849	34.5603667175571303
7.4600111291044264	6.5351488164346945	32.7231238599590952
5.6407697058107553	6.6405612743521001	32.4595816045828442
10.3322986209296097	5.6588053820026198	35.2353075218439784
36.9593212396782533	32.6067690262639545	19.1233695392047558
0.2188734178899356	31.3872871424270805	15.3603807759578572
41.4501467143336200	31.8680856064530857	16.7384965410426645
41.3097376034662673	30.5629786074997440	15.4971344788660623
0.1492914870352074	37.7304729588056134	17.1036142976754064
35.1224647510651025	40.4334267520611661	4.2309728840682768
35.5201628313315183	40.3537201099895384	2.2206673142702442
31.8973415760708967	40.1421043961289925	0.2824447909081986
31.8697006664978844	37.9446962977283349	5.9993895226991558
33.7739135516624032	39.7660657691979154	0.7670162445545899
32.3999710422004767	39.8735422569222209	2.3669796960871632
4.1540631303076667	2.9590663197963072	24.6194517654796492
2.3702947143916524	42.9589876608166463	18.8881551649314652
25.6969933520749834	16.0074917986961047	27.7118650855423816
28.5121140981774275	14.1111223880052528	27.5249780312136352
30.2156087751988416	17.7892116341391393	25.0151671762739163
26.7781964728053339	14.9665092540995666	28.7839316183475944
30.9612242208614035	16.1708639781544612	25.5315198734087154
28.4984395846096064	15.1649863433992245	29.5038593656407393
27.9712194259252662	15.8300558161985130	27.4689742980449267
0.8561484091348679	1.1506993973273214	17.9762474902201674
0.7923212050245980	3.4917474147236907	19.4842934905571923
5.5594984707403512	3.1649387390400756	19.9675987652831495
3.3890453128168359	4.7949552542402474	23.1607803870801234
6.1090845211092910	1.0092279166367233	23.2947227389024505
18.3660875956705105	16.5559970705888624	8.6935346729430236
14.9484278437732350	18.7750007643546759	6.7479509484244833
15.7145847457149408	13.6362733301759267	10.0531498715142771
13.5690061142764087	14.5093938562332507	10.2050234045973642
12.1541862123592708	16.0707423337326638	9.5880376886229843
7.7808644818863328	12.0921499868594040	8.7082512460809198
7.8292997013584618	14.4164374719833361	8.2742605692040598
12.0805607262758272	17.5562184970868280	8.4770210297286770
10.1517552917826048	14.5265452841577023	8.2000911905703973
5.4108272623246307	13.3846197117751693	11.5024079723443577
6.9858382127508012	16.3670755856496228	8.9709441072069289
11.8362182118529233	18.0382347441276139	10.5824266391545674
7.0244639306803798	16.4256298100933051	11.1477226745437648
5.6348820083661950	14.0024876723006351	6.3987315130086850
38.5188506939574609	14.0324317895910333	30.4316495978894039
34.4244413505134119	16.7113804380613118	27.6081497675494205
33.3047315032516948	15.4649913873918390	24.4751810402038537
34.3712613610263347	18.8035440750518390	27.9280161200524617
34.4408152868291992	14.1324920002921779	25.0196214817662010
3.9654251919014931	0.9109174424847964	19.9180694685509003
15.4867743011676655	16.3222627633197988	26.8945554513194516
14.2451309273897007	17.1351647247409424	25.5108701975007222
13.9182556234887507	15.2796485953889594	28.0602824319710145
12.2912022067102242	12.2603182029327193	27.1656668995586585
11.7033891459185799	15.7726843981224292	27.9585034220318605
16.8004189952010954	13.3176295795842492	31.0215997408499327
2.3680035375650141	3.1962437379105721	18.0234240702786899
3.9243505001106169	4.1220857317907154	11.7995833087080211
4.0963074834193405	6.8059977534039477	14.8176449622394149
5.2663326696515158	4.5178274012612292	18.3118260951777394
2.4209468125122395	5.7193941434199136	11.3091604092689852
2.0258520014750236	6.1982780732732774	15.1185240469185231
6.0060311744501744	2.8797365469518064	22.0606181527246292
3.2943123625348498	1.3727189153384809	25.7819965271866671
5.7657270060605548	1.2941082814519138	21.2412873868521466
33.6766701217238733	18.2870765724173587	26.2529857925311170
2.5689705579283197	4.1890859362412192	24.6621847763468729
5.2842163120217069	1.3999322293540502	25.4362912791186808
2.1731053280847723	1.8856009904094786	19.4370252919568216
21.8494421502521270	18.8874226684092896	23.7865892193792909
19.2963911621558317	16.5709615903540879	25.8399823564955859
24.6096337251562538	14.7084917876005683	29.0537301154770056
22.3277157422735080	14.8857829292447992	29.4375411453639941
19.6470450910623846	18.5173106485983467	26.5546147050096266
25.3227391603933434	18.0212813513143608	26.8036969699804608
23.5454915168545078	12.1372277394242865	25.6840733313271663
18.4578359911818346	15.1300877340907807	9.8642006800825701
18.1195981500792875	14.2845702783955684	8.2824340664511702
14.6501583658446641	14.2536203163508404	5.8196209489931610
12.0018323903986417	14.0017147366706336	9.1399861814174255
11.9503196892336661	15.3997792358527530	7.6955814714029751
6.3136595491167622	13.0807767411354590	8.3798753931652215
3.9357934688887446	21.0856465795095431	27.5993474978473969
1.8894905711307231	20.6743773230100878	24.2543023140749803
2.2433973630371709	24.3709571835348093	29.2751629089656689
0.0813665865146945	23.8197578219790778	24.1568068711086816
1.2725039633727528	22.0425440168486375	25.4131769015292193
5.4339896395941230	24.7611566481179501	25.6988083542305681
1.4146683878200756	22.6202319726861241	30.1514120140364206
4.4018516861333268	22.3328848285122881	25.8362059963762363
5.3506290844910831	22.1273463274344522	30.1518822569991727
2.9790867299324590	19.7540509491070857	28.4151303589729132
3.6137601142337901	24.4441086693577923	26.5326550969096573
2.6733525283568991	20.8173236317943982	26.2925169418898363
42.7703333672302435	17.7502198767102968	7.8041860909892424
3.2726811114644581	17.8966616400450356	9.0600046472130025
0.9415863756898707	13.9389966344277205	7.3230552366684014
2.7773397115160199	22.8153604361491844	26.6136953549662536
4.4860901991423541	15.4991613338822827	5.7423252827241766
2.9001802328894160	13.9858363085633126	8.6271607426974910
2.3986229690170826	15.1233926648507087	6.6505628767774914
6.2852686276624414	17.4140528791622273	12.4539262134064757
37.9663760614459704	42.4924683534294942	17.1073523671593755
39.5615322563201559	39.9009929437822422	13.1219423792508163
39.9577469140828896	38.6119847536574241	14.5105348625407036
37.5174898906383589	39.3527906374443504	11.8419632888072979
11.0003417487712838	23.0732285525292227	24.5348705084128831
9.0680051004892732	26.4926576693588807	28.0365973607954579
8.8076872786418736	20.3625366032330462	26.4956274079912042
11.8238372314995317	24.2118944329396655	29.8677329255713850
7.9062989299738300	20.2862927422682446	28.0627380496116530
12.2516480825694423	23.6663650082720309	27.9079573807542616
10.1962870611565570	21.1396914796729440	27.3871263501457243
36.0678290569779705	15.1850569183587538	28.1268579540588348
3.2631322971002406	1.9081840646022514	11.8467271904539011
6.8530812984748648	3.2001331830312783	18.3364048869817751
0.2366142910484788	1.0732061608897772	13.3672023870271648
9.0699103454254910	0.1149777961781284	17.2592419127679015
40.4798377856712150	38.1030139518826232	12.7270647779470174
39.1369494255022303	37.4368100823213652	15.6623527000515779
40.2207946644108034	13.9652972578712262	26.6981074497097381
38.6749340607662546	16.7428298198105772	24.3072478489534731
39.1237325769412223	12.4016820219141266	26.8148728001748040
35.7812925419633814	12.3595241213072438	25.4436078471459304
41.7975167015449287	13.7883124472918581	33.2941731390297875
40.5434144886165484	19.1553099620375065	29.2395701268719641
41.2407007083731330	14.1536531483112107	28.4959450781370194
38.0432979478498865	13.9441039756082272	28.2244167436472182
38.5991100763826438	18.3974732966821755	30.0267659427919256
17.5972050759982146	17.2066438407795772	26.8023618482186343
40.6426869687124181	17.4766620360254628	30.5899959781233264
41.7906354651039749	19.0626339703307259	30.8170761915131415
38.1707801729611020	18.3653763094464928	25.7994324848107475
39.8013933448532242	17.6199267437092502	25.9857438151451952
38.2968255430474329	38.5471681527153294	13.3140798047979416
40.7033821135821796	40.7280574562312481	14.3260693624748168
40.7307561350488569	42.5600432065991754	15.5763805850795585
37.8947540746186817	38.7117238265827908	15.2805824684444573
40.0342622048386474	42.2109466890519229	13.5387321226153396
2.8123038836310550	15.9879129097583110	8.6473915495734293
2.1337337295336347	16.8413704893542118	10.4872544233149014
3.4205379673676557	12.9682932009022558	10.4686809634594855
4.0272722815978454	15.1907999815828649	7.4827811757910450
6.0387246339120040	15.6122810756686885	7.5870720249877914
4.9878387495849488	20.1941843788744748	29.4063741773873168
26.1565373482529147	16.9468900684770425	7.2830163703964752
38.0052628892193667	16.2413512962513735	10.2583555640595812
41.6392290349719474	38.1294999121746869	5.9970026686303051
27.5143106243294326	12.2821141614262377	26.6149085370445420
27.2857486356857990	8.6433897501347658	25.2762653272800932
29.3990097052337021	9.8717027622272990	28.8146505645665840
25.8768652525688552	9.7995678153562054	28.9470151925449208
24.9022375586800315	9.2576558998809642	26.9214612664188060
26.4668943922965987	10.1503060524159512	26.3225367651798194
42.6414554237285088	0.3955873995563445	7.6575327523128056
37.8901835615622176	37.5839590648335076	8.7576626231409040
42.4854884705870361	42.0787524395530070	6.4764790720373675
39.3448779402317399	37.3560987179139303	5.5904133897530466
1.0115323281883071	39.7364822125825725	8.9892713763063750
29.8218299214083906	17.2176502555309767	8.4649312439598052
27.7328397460053964	17.5081109868329321	8.5512596709341580
33.1191987354003317	18.1932718950025070	9.9940171041119488
26.4251072254864887	16.6920081502651776	10.6271066887187988
26.4586966085389506	17.4842577324270998	5.4005423115434192
30.7063148377628643	11.4116955861476068	28.0402446167977466
32.4354067778911954	8.0773172667327771	27.7943156912288245
30.6378641425825222	8.1323649158156215	28.8571287205873297
33.4143112559920183	8.2985771811795352	29.7239289427112006
33.8223055978134397	6.4554213213879406	27.2584106002834901
34.2421773565386758	9.0146011931492236	28.0293254274326067
32.5014821078973171	6.7656213731600943	26.0182821929590133
35.1994744320191941	8.2259770846581173	26.1690612744299465
32.4055680270018058	11.5639030846231172	29.6335476175409411
30.5970413355880808	9.3611682062494346	27.4823589077505943
29.5124595892218835	14.3498506241016006	12.9360525473887673
26.8079580291914006	15.7023099342851591	8.8557377966277322
30.3729135776431889	14.1084987481956627	9.0887242659447374
36.9701560342394941	15.2944985165557004	8.5177665132546938
32.8029571380113723	16.5573940873479195	11.4675934128382782
21.2569934123037676	10.3597560675194504	25.0802153352038779
19.9286327350604395	12.7533958660812203	26.8291933540694281
21.0043154012007918	8.7182266566072020	27.9262099906486156
23.8652461277165635	4.9595845816534174	29.5210322574689492
19.2450015702843089	7.5686132836479034	27.8414984457300143
24.2581339632419990	10.7651296808523025	30.0130480696962572
19.9522996410929494	8.2572226547730843	25.2065953230034197
22.7555626920770599	9.5728133536061399	26.3124405579005938
21.5921864826033243	12.0247964989105149	26.5975589333988900
22.4904082679041011	9.7680275534152887	29.2689399796428980
24.1148388899667871	9.0211214359254495	29.5725687980937195
24.8245635912224465	9.3426351526466007	24.9757569781131146
19.0043611105456094	6.2165373041816432	29.1160207255983003
18.9827768566472059	8.0342806600298537	30.0948415859780027
26.1198046966860815	14.8790750978658473	7.1298182527915026
31.9547962318123311	11.6011544384845529	8.9852415559267573
36.5351441245719002	15.9411091475685911	11.5877237277550744
32.0938121398611784	14.9647103754178978	6.1100359806879894
30.3101324368387601	16.0586695674508810	9.7358899380278352
33.2217282997665393	14.9560051891714707	7.6772366472750084
31.6989243782383241	15.8127368884744026	8.2468912639689371
35.2759541744364000	12.6872851648957674	10.0280772014784176
34.1391491559138487	11.8767631548897796	8.3846400871358568
35.9422892339517901	14.1974099146761521	11.4853043482917929
32.9723396633406125	18.8319515393768135	7.7353469192112811
36.0794335491929630	13.7422070517366848	7.0555664801341784
33.4356262264014887	15.7550453460054225	9.6495601100923842
31.0875999097420816	13.6215530769816180	12.0304362117436501
34.0022859475069765	17.5782473501338288	6.0926727615234268
34.2451738363647209	15.3616294097511314	5.7696979930953010
8.0033030894970025	17.8748717032804798	31.8244971808049115
5.8554609709104186	12.9102150792671431	24.6854742228188506
3.5903599012980361	16.6430672509945303	28.6772597978917787
5.6463537944435132	11.4388232905093989	28.5710317091249308
4.1164728599146052	13.2331845125229481	30.0279626018288788
20.0432239560077186	16.5725489105876704	10.0804098202496650
21.0283869965182006	15.7319672398194719	7.1187649306995633
19.5195951713448785	18.0976128368223499	4.6847727057350257
23.4338352801101060	19.6558372602052245	6.6558993521163758
18.5980943808520820	13.6714428047635810	12.3451416851490858
22.7753535399408733	13.4988226853820645	11.7902688334669730
18.4849669530055216	13.2229103973492954	10.3315180789181476
21.4553666839976316	16.9423301177727730	11.2016386857701367
12.0566607502294598	12.9452464106618823	25.4905536342657619
9.7405229423110224	16.8139171406897354	28.3606816859647424
5.6894252925422135	16.7653640727519502	27.6428122627283450
1.3673416063431985	18.7329834617775717	29.7747429576099165
6.6840691916719042	12.4316404860490319	26.7632815015872865
11.1547321923753628	17.3654211744544007	29.3456675589952738
23.4999232414338728	16.5841458894199221	11.1964029242099521
19.7043182860445185	13.8544643873236311	6.9901309475738156
21.0498461547780806	14.3949115123577194	5.8768139923170075
20.3276815958552994	17.6042603802746314	6.7214675317369865
19.5706169021217704	17.9592399501097226	11.6286584454970896
23.7639229967176462	18.7878711919014876	8.2559401089291455
2.6632969395683319	4.4940171581289663	16.2442253818763760
1.7340749500790327	0.8776050474966816	15.8798405537256073
12.7752182951924755	14.0038464815883810	27.4128761495009954
16.2549380309452793	17.8866265110765141	25.7589208574227868
18.1070442875107425	12.8880256533660678	25.5323654538166132
19.5073762736894132	16.8796680918596564	27.6527135472807224
14.9938927359274068	14.3336343437966356	26.9300068842094689
40.0654344424320925	5.3712409091734212	29.6613253182170773
25.6061166820097768	15.8990546762532059	5.6910966713711906
25.6067947596646377	13.9522823757160097	8.8580216031002230
11.2223728414907402	4.0391422823863117	22.8118547872707893
9.8767769467479596	0.2385575884552888	22.0933302586961631
11.1203162195517624	1.8957810602107397	22.1036503540458504
6.1458567148237284	42.9403052648800809	19.9408484974355780
41.6679820079550112	10.6094908118659941	29.9839195780269208
41.6870167084714538	12.4896515188752151	29.1292788983398196
42.3040431080395294	5.5825497178056196	25.0860053486316943
39.5176396324333723	13.0741609407450596	28.7744083292582253
39.0457592924075598	10.4054468717967783	27.7256204969855418
40.3569736910061962	6.9310118568217245	27.9595814402943716
41.5150845630413770	10.3734901796556116	28.1827544944675417
1.1268093109049586	6.5138325509985808	28.7213379121972210
41.4021328654029546	8.5389046691081578	29.4059134177331174
9.0046536725798845	21.6109160013214670	28.6650048547763809
42.4320782223272204	7.6420270898791252	25.2664565118870712
40.0221727779958556	7.3473142117601604	29.7408668360031676
38.6658513509739379	11.9766588202207114	31.2981859620830534
40.5375732244128244	10.8099757618308079	26.7203116855871521
40.0752129771287358	8.9202592052603400	28.0489146744644096
38.5526581526481706	6.2464789376125998	29.0856677904409757
9.5882873594288682	3.3329931728723392	23.0286013728016847
7.5948812936354466	4.2669842681366088	22.9257216397622479
9.3446890886376757	4.8843239201236903	24.0155232550769995
21.5028573529718727	14.9417143175216349	10.4818116026491293
4.3935685305045320	15.2900279418689973	27.6845744210159879
2.0294938831413143	16.9446388354083020	30.2511617105078265
0.3736790439743256	13.5478625755154631	28.5390051465679662
3.3152629663254078	15.1779108901435063	29.6889304537314622
5.4948165822205022	14.0851890929678483	26.0740790735134631
16.6002392895973720	12.0692319527916148	8.8949614458711217
16.5208934829072263	6.3953861802635350	8.3898075834284800
12.6078165053043545	7.9631995400452329	9.3368920938840549
15.1193098697617732	6.4410429346912368	9.9199241577366326
13.3311516290120426	11.9539454986213549	11.0758477440699217
16.6974532835014386	10.6564398767055692	12.5713974724595410
13.1398580164190122	12.2954221470562164	8.4457421400306671
17.3944229895115150	5.9925529900438983	6.8391015313205346
14.2508660625609203	6.9302436128284794	12.0050877067821880
15.0076558632794939	11.0109111200986511	8.5108940173828760
16.7611830880433601	5.6530028129214633	10.4242180633629413
14.0618075791784971	25.0481283190350723	27.4315602356688437
16.1276677496309766	29.3385151755768661	29.9761695846606138
15.1754714646179867	26.6143888151613197	30.3296364944441912
12.1299415661470569	25.4879595359751967	27.9942171401720863
13.9279219052852294	27.6758376616976776	25.5006269392944809
13.2928347561395857	29.5317425736713268	24.5815647037397724
16.9888863084957400	27.6374026609986849	29.9964546974469926
15.9729053340193072	11.6109866617647999	6.7934829647969543
18.6699764956647023	30.9648932604457130	28.0745480764258097
20.2021717015545512	30.2473153508953239	22.8720798611325691
22.2015533926356987	25.3758389762664400	27.1821815482744746
24.5018230326032374	28.0335155340234436	28.7275867766319344
21.8929893289356343	29.2390599298779108	27.1478294992816487
24.4559517493779808	28.8659052282789261	24.3181106087338179
23.6241984508424494	29.4537963373091856	27.7327841352705313
23.6919771238376349	26.9092994478510299	23.5818786764476513
22.3712288200754159	28.1862560565556315	28.8228576169357282
23.4084197411170436	26.3147110892353915	28.8921604240506085
20.4612370106331483	24.9355273766449841	26.7888100475799327
23.3256977019575835	27.3835831483541554	27.4478132678724052
19.0094887081435466	23.5610350540990758	27.3252926253384487
21.3518943733856439	26.6360044805019243	28.2318450297656582
12.0877749217949066	27.2822841681463757	25.4520675069398941
4.8683082105688200	25.5657410609299873	27.6993155984997514
17.0879704439017850	42.4067832442536385	16.7552036647347400
14.8791556207760163	5.5480495386005266	17.4937610247545763
14.1654282918770598	5.2509603080829166	13.1222157007219042
17.7856929505117165	3.2936345039459956	15.2036916551066614
13.0756511052270046	4.0903301929796907	14.0842649497647070
16.7649011223483200	0.9553537275124376	15.4258176549734216
12.1251055206629630	3.7690028645787668	17.6087817684467254
16.1716654863189433	1.2162703070039242	17.3440182181159095
17.7778097297949671	6.7179885028255768	13.7924502853755406
19.7101670492058432	10.0562904907923087	10.7430002834880867
13.8934083575601530	11.3576958588846875	7.0498747954125269
11.0747791472911459	24.6844422761766857	26.2643546838217326
10.9908610024791944	27.1348525716820888	27.2381875767875314
9.9779074717591261	26.4092153407279966	25.9646167544549336
19.7319480833728029	29.1718472801903062	27.9920901870785492
12.9922615794482947	26.9593092997345458	27.3733478430101016
6.4209158643357611	25.8509123130429188	24.1645842999462097
13.4927866978962250	9.9384306297688223	8.5161287728786270
15.3107531978472018	12.0099154758491160	11.9376380742682109
16.4203294244167388	7.9306039918880158	6.8577406497637847
16.9285358916072823	11.8211003460658706	10.6878232528171004
11.3922005597452980	6.2314607012196328	10.2314718444149086
13.3234503020525175	6.0786993081504619	9.9866497378124617
15.1281769312554921	9.7431188350446565	6.9811482847127797
18.3492027565913496	11.1919342365327825	9.6929720887146260
18.0586865424970817	24.9719715724974627	26.7526486171606059
14.4494628684667941	30.5895937469634767	28.8167425858201156
15.5444630691590291	31.0196932236680212	30.4923830866090171
14.4627973799260641	24.9476275291649969	24.2284449397349562
14.7474112400204440	23.8017274518203159	25.7829779878905754
30.7755811598696667	23.9318609831745803	28.6503343803492427
29.8436711264844163	27.1476065884046740	24.6718448075548800
29.7300975937448442	25.6630401696962984	29.1994680713273134
26.5393085028868789	26.1183761939413301	30.5390679138305465
9.3543980066124615	7.1834089136970887	6.3993185927810892
8.4971537726157926	7.7988750088381975	8.4053206304840238
8.6291154494102322	11.2091176041369192	7.0844576318369663
9.5019856178257101	7.0271891942925997	10.3709619482668547
6.1564333069145070	11.8174948757764291	10.1694015277142178
11.1538174125542149	11.6072062409619257	11.7686952080081912
6.9446956827848165	8.4300442748324507	9.5063585923373672
6.4850537364376741	6.7248262513547523	8.4939975545460147
6.0855592272637873	10.2317537720463392	9.0261807892606001
10.0740632165060529	6.8435843750551220	8.4794635655137345
9.4977746134308454	8.6823676776350265	9.6658392391779824
33.5607468427348152	29.1942920469840246	29.1539759707711852
25.3815341921781510	29.9427587638319537	28.9073517605365673
34.6462904836649344	24.3986268229741370	28.0754234917216294
31.8246202255144439	28.7666498505450861	30.1460212441993960
36.2212571071253109	26.1680651926846330	30.9849776306622395
31.8788592154627146	28.8635655316727444	28.1209467264256006
32.0654685279544012	24.7792070519679122	26.9539669556107064
33.3383571184412588	25.9442501765302005	25.3715857905940929
33.7374241771580188	28.0261627941390330	25.7994565735604233
34.3584012571993540	26.5610872732839027	27.4044165674721683
6.1776715097455401	9.7182290468451846	10.9506640442415595
12.0675711245239921	6.2601569018152947	8.3037105694743101
22.0236394596393481	42.5020117310868741	14.2468860155393902
13.9787281429891959	2.9338112013941400	17.5103013183122371
17.5082968801169194	3.7969295701253287	17.3667498459007845
12.2182326037746058	1.8767077621920383	16.9884854937878522
17.3569369353073526	2.0875561221550356	18.8375294979093582
25.2291727838214648	26.2989288531332406	28.1399444680462629
18.2755257691202608	29.0133299292382709	29.1070376786748106
20.4143451585642772	28.1607659290442314	29.5763156189022993
15.1833432334871095	42.2869516493294881	17.4849107005354121
23.7934461912943611	42.4220566075453149	12.9828363706372869
19.6162978620580510	40.0924391721287776	13.6397795487750368
23.2720564281374926	36.4489388964402323	17.8015116820169048
20.2434632591280703	36.2274862000842433	14.8350411977237169
23.9889598089051752	38.5638784910254984	17.4554934493899374
24.5948391886261390	38.4472905095618245	12.1814875973576502
21.4055450670348684	42.6352905292974214	18.2739961339572652
21.0771079634041349	40.4875700859577421	17.5886534707334619
23.5827004985799142	40.9650538405506524	14.0697008498845957
24.0440843513189684	39.4119816132669669	15.7521227101272991
19.5439418399011160	38.2062072487703048	14.1685446685943237
8.1200741472347406	9.9602909493431131	8.6333721296474888
42.5477364699448231	28.0835928237953638	30.0129026314669289
26.9114362742918054	27.3468682996987411	28.9962651529264761
25.1423502982673703	25.2595522682730440	29.8499776678713751
26.8411516751665928	25.2051970017811797	28.7147800419785781
25.9528082508491771	24.3951076952315020	26.3454439753977283
26.1272274360628174	27.4564543516975554	24.3152490030894910
28.7594374089148950	23.8928530116975644	28.9512300585908022
26.7235223651845537	30.7647936564836257	29.8224063642680512
27.2673332352146218	24.2183093139575298	30.2306938250141819
25.0467842620450973	25.6462338533431087	24.7894295304254086
27.1808748418494517	29.5124501123237870	28.0589276511104018
27.3722009329515892	28.9710909153032929	25.1422364787043335
28.9444495867448524	26.3945773472283740	26.6581510524492309
29.9452198568916366	24.9417777562618710	27.3559208571339489
26.9168870834942524	26.0120404560419942	25.5906523843808138
30.6483503213329556	26.9971314022349986	27.4558868107251612
33.3286607581013641	39.7917412061047173	19.1241128732242984
35.1617328804847560	11.9475018097490544	6.3663542270763855
22.1181234232444552	23.3844903241306277	26.2501768498167358
24.1768586742949871	18.9197997292721674	29.2402570790747518
24.3686180714670577	22.0680444422999251	29.1855089057204147
20.2065916078715269	18.6509937073597349	28.5140888736070472
21.9113883165952856	21.9727952237282977	27.9460431552980850
18.6204736433325202	23.1199489348747989	30.5850078110005832
20.4376575840252741	17.5174193921233190	31.9034900090810787
21.9240428723622394	19.3065990056341050	29.5056070487600763
20.3722731547705642	22.0993560831403677	26.9799658594863701
22.7979760168186054	21.4548602538221758	30.7018485070625964
23.3088458121489559	22.2973704192044657	24.6794394636318266
41.3683591927297343	8.9859128938182433	7.4478766999804229
40.8972432266628729	7.0114275272956839	6.9850021178337753
39.7734632070844256	12.6260245275440752	9.1823390987439755
40.4452270968467360	7.7714481255564030	8.8703945078624233
37.6220227512745211	37.0380428662405166	12.1697241790546187
34.4286154263464113	42.8990696688504158	14.2321502898104058
35.3907954871022099	37.1769508822878549	14.2042096522772923
31.6594687660985628	39.7916184880304158	15.7512221502673508
30.7725544593036737	7.9032423463906198	11.0237886062652386
30.0570035378690186	12.1192518417053687	8.0658975565820636
35.9341758108940468	11.8642110983099602	8.0539091483928562
35.9188055003968429	7.8247486659814642	8.5136781615123862
32.7330010974336929	6.3890347369856499	6.7858380655646870
35.4424196795797002	8.3820604680038588	10.5281872647227246
34.1324850832468840	6.7920459917330538	7.9167245522577794
29.6638486231352161	6.2099016936840776	11.4948188820576345
31.2892855040308469	21.9157824629546347	30.5730209333663083
26.0985463271878189	22.4190060968653846	25.6559157694421494
30.0508706825893732	19.1735013291380412	30.2281568938264584
16.9286208883742546	19.6604705451245323	31.6596392672283677
6.8998741742961807	21.4062627666081937	29.5097115750133838
11.1254905576782672	22.3928848361078288	28.9179501502720697
6.9158683824332856	22.6014900943851806	31.4121081833140856
37.6207312968818073	40.2397701900731093	13.7048351829809469
7.2840365156313736	4.7689883190722941	16.5062819771427591
10.0647489948543853	4.0448135409933093	17.0564794579170886
12.5069448314884291	5.2404483051647279	12.0913689048998858
10.4048408624150888	1.9583967060984522	17.5559471279553065
9.0053551536043077	6.0555412835154803	16.3130327282417724
12.4029786481229216	1.8826965539785867	18.9001536853157077
8.6180262283307076	2.3729728964764116	17.3002687468942966
13.0342734929649993	23.4156318057738950	24.5422174428761153
16.7965813966430666	22.9439041390558884	30.7217844846573307
17.5805106699514795	23.9798923849268775	28.8475455619878147
18.7686879810230387	22.5628280367055361	25.5930933545388370
27.8703844259741693	22.3004800625098767	30.0822712798659460
12.8575237052978988	22.6042871893644985	29.5470103014240983
18.4291118947223076	18.4455302856621017	28.1871765952963429
13.5786350258846937	23.9732748833462104	30.8088019979023784
16.1439293617266557	18.0795100771753212	27.6506852059189754
14.8281800737411569	18.8483705040707399	26.6324959493818270
14.1357310308591586	18.6308755049672961	24.4726263398316775
17.2527451721651026	19.1166342047791460	26.6179370814952989
39.8179700918863091	6.9282607756412826	10.9217913882105719
36.2450842466860905	9.8001305813802304	9.2084052638478280
1.2677471504276163	8.1320076732607394	9.0946865416504146
37.9572412068932223	11.2466663531117295	9.0636845232383667
42.8686797566839104	6.3317019702026656	9.3383888895018039
37.6606663244065061	11.6931208945723260	5.5589685801867077
1.1946155261078881	7.2912280133165268	10.6446409755285547
37.4082832054142074	8.1028696234714470	6.7363013659791786
37.5713815444028825	19.8517375070786706	23.4293785081710375
28.1327471528320494	11.0990935108373030	10.6102753474030411
28.5188685113204450	40.4675528129988322	15.9651898695829768
29.8450385670742406	38.7601518728630410	15.2378205989124442
28.5289198225844594	39.6398934810161236	14.3029081344087530
29.6224875140881920	41.8158158098506263	17.3534388882348871
16.0541647785529378	4.7565360453681542	11.8556504849678035
14.3381834206507541	5.5290049744945051	15.2293771162667184
41.6512436612725025	20.8748055076418240	30.2541745742258676
38.4427031474443766	22.9781598078862714	30.6618775794992189
36.3450008623455929	19.0271792136111024	29.5920059433033202
39.9691183229270592	22.0099791490195109	31.0502758441681692
36.8698208468921962	23.9631357637228746	24.5618608038145254
1.3193499337801824	23.9490390348231905	26.6020174858746792
39.6575036692228267	19.4496637424759378	27.0933078664493472
34.7975329855584548	20.2173001927975271	29.3039239813359984
28.9940511379433730	7.4717749824499302	10.0961909151284654
40.0203589221485458	21.3224505114854743	25.7710227572702273
40.0298657196731256	21.6446490431281759	23.7487392863606388
38.0408322190075765	21.8540508374359845	32.0981542629709793
41.6296263000093845	22.2924455513853985	24.4862140754473074
18.6296965532723284	1.7487222175322357	14.2188708480746797
21.9090444176965100	9.5421905118939101	7.4701491696654099
20.2173902791112141	10.0351036978472994	8.9641967421883937
22.6496065972578684	6.9494994200323363	10.6722089300206111
24.6992802947527892	12.1633271542993064	7.7253293217528549
20.9462461190885030	6.4386185574762047	10.2471118193319590
20.2773072235323717	10.3295275270427371	12.8904413354056846
21.1968096818142229	8.5851828256212457	10.3100148903729760
24.2324389524288542	8.0956424952528607	10.3653342136886266
23.4289199465330604	8.3664642930850430	8.2082188617454594
42.4083677945326016	24.6092574648476372	26.2841465395704823
29.8396674282221817	0.9678995935918254	16.5438797460785985
25.9263458470044093	20.1998073402289151	26.3383681421556233
27.2093929323287718	20.6179099801519925	30.3934803949356436
25.2813953850367490	23.1473024193786436	27.5044446918597103
29.2311972897953645	21.3193870313404226	31.1998730993937379
26.3713105915946144	21.9444785626102501	28.7058760638306651
29.7543995521770448	22.1958802170946861	29.4614317401300490
24.4593977620272653	23.5686860754224021	25.4422769716640822
26.3339198053671524	18.8222923852082715	30.0242537632477813
32.4226076745765326	41.7800871838822090	19.6396321667307738
32.7055931455163318	41.7664175547414587	15.1423564558133084
34.2137677664698785	38.3642333334784382	13.5220579107580896
35.8710260309445630	0.0142909966796387	17.8204238148364631
33.9216275850024900	36.1726329516173948	13.0172017539641249
31.2726219156994851	42.1566829465311983	13.7679424827489729
36.2271568541117688	39.1209159361486059	14.0862402915420581
24.2882009433892456	11.2345203417512316	37.0407129224381464
32.2995410969088041	36.7043481020319291	18.2420216535404940
29.3022760692447015	41.6630531057386051	14.6863952899193730
25.0445424878435858	40.7090826643512713	17.3920217219829816
30.5915422279338891	6.8639794646231094	7.4413052299515829
27.1370114862276814	9.6742504170680110	11.9699244180408453
30.0229981402535060	12.2628277264140806	5.9557901328269773
35.2785776295455875	23.4111893305058025	26.0965710018855859
34.5450493468784003	22.3326078949815674	28.9431558186540734
33.6581717650240577	20.3380345115392949	27.3537534351642080
32.8806066337778020	19.6411242790684000	29.3171644316606077
35.6029171876387949	20.2233755153881170	27.5200549607887481
29.4778502286862896	5.8907907391073051	6.1593581100618264
25.3813987308571214	8.7899617733091020	11.6560079560683274
24.7957491383045152	6.7318765636010411	11.5099839361012641
28.2539083494694019	13.2309678055466229	11.5043314513510602
