Li F
 1.0000000000000000
    43.0000000000000000    0.0000000000000000    0.0000000000000000
    0.0000000000000000    43.0000000000000000    0.0000000000000000
    0.0000000000000000    0.0000000000000000    43.0000000000000000
Li F
 7000 7000
Cartesian
21.4416645054648427	42.7172762855008301	18.9553708773318732
20.8395475886521560	42.4134406766042247	20.8287194512535656
18.6420826439176537	42.8637182663483784	22.9127524368677342
19.4528316132605816	39.1789408145012246	21.0542523482259760
23.6499048779565086	38.2524741922912739	18.1085633111468631
19.9544690163213048	41.7315837228251354	24.4827708430581517
23.4779261845668969	0.1834823399617013	19.2947965378602611
25.0911105471298761	39.1421131785569472	19.1904675576689279
21.4536266810386103	41.3063670171950150	22.6707625245749256
22.5108604170628190	40.6053297337105050	24.6568041624935077
21.0823559724985046	37.8609099014955390	23.8709973680766723
19.9323400599493219	40.4970933316120849	20.1188913477504130
22.3601081940479922	41.3209536220738869	19.4021414025950207
23.3088929014594015	39.9560710997541690	19.4014929143987125
21.0298553944634179	39.9525910084705842	24.0787032552417131
22.4408688586604512	42.2047515426991993	21.1479867930240921
22.4738908069519603	36.3078667829745712	20.5049409436122119
19.2261422445224994	42.5520459896210852	20.7533442132412347
26.8572744395395802	42.3932150712847786	20.2394768742217117
13.4476439488832007	41.8255409544903145	23.9478214768931643
14.6561603680655974	38.8091683338116056	23.7718361072203130
16.3680497549343684	41.5469109006904915	16.9071299795543446
16.1820547998098476	40.7872204487277656	21.4176488251851005
17.8874643186729294	38.6526811230866087	22.3715922228275268
15.0228577546411763	41.5216061282294575	18.1175492266394862
17.3793099206462713	42.1410558274520710	18.4493342517039665
14.8661217026782779	42.4439159799779233	20.2322856409450189
15.9675351928817317	38.7064441731113433	21.4019717243889502
26.0926701419423708	39.2429669502350222	21.2021898012368553
16.6820478346757888	39.3350941703934893	19.8037815401776882
18.4042474073666718	39.2243852259870991	19.3408152591866482
15.4802929996585164	0.0315231433648151	18.7927063944809696
15.6294656916340386	42.3142663460391546	21.7302578834458338
14.0303250362513481	39.4087433267813765	18.0988780606614625
16.4380342889969988	41.2714489040772179	23.6142654013576312
19.4317035129535576	39.5740821191606784	23.6540368445713263
21.3664370239933632	39.5564509564861453	19.9317210035741290
32.0869474912159660	41.4994130371896546	21.2708734310213288
32.4095581289803576	40.2338204083202697	24.6769495381291293
34.6164197425523454	38.7459044023615036	24.8431423036619812
34.5639341140594212	39.5671730408674875	19.4874940700077062
34.0723314868397011	41.4662479690020405	20.9047628638283456
35.4526220881570353	42.0445490239010908	19.6995653285383341
34.2048458825512043	37.6197081807811813	20.7861498101706772
32.8091902930484025	41.4817049836250149	22.8700583784551945
31.1885864696087367	41.2687480178983961	19.2806764432064597
33.8248188987940708	37.5994841734598708	19.1801651634417034
38.3980106008918654	36.9227756107429386	23.3659326889281367
38.8053641063688346	40.3290750228856325	19.1240082114285528
41.0523233808747179	39.0806323186526825	22.8421114789051565
38.1979390180448988	42.3834094699907880	20.3771679564960522
40.0340782838163918	40.5028845608717631	23.9464145345047363
42.4345509204044049	39.0751310829264185	18.5721020411951407
41.6493821108712581	41.0757696019907357	18.5984430572382387
39.4707416885645230	36.0922812543759903	20.2599558989539510
26.8457795378874806	39.5511031801182540	23.6113727496216690
26.7250751502042263	41.4844681933191666	21.6393845365598914
25.0773973793294616	37.3182492424023948	18.5154102909458125
27.3469107138990459	0.0263795526293790	18.8567038117543788
26.3897011594172994	42.9798830231753115	25.9567041092717901
27.7656466997717715	40.3438683563254656	20.9572926467937783
27.5493389600977103	38.9036985842372260	21.8734603192523167
25.4253257654939127	41.9249017563286301	19.5678445476577032
28.0482439449580738	41.1048378877948437	23.3149647539202576
15.9869679343358921	37.6169831585131362	24.7926966107731701
27.5512235041636515	38.3615586870670313	20.2625031693493511
31.7233066249767575	40.1307018083806071	22.8251281946249982
35.1010343864086991	36.2522550832833232	19.3924614563274282
34.5218432410832108	38.2724521355682086	22.8524169452947561
31.4423438130665431	39.2862788842159816	18.9235101283399594
32.9665522261259198	40.4680132382736772	19.7168815334224377
30.2585335607089334	40.8473397539521059	22.6118938984488835
35.6402568276056897	39.9063951403700514	23.6131821867515548
1.7178197670343143	42.1799923302630191	20.6494988467682710
1.5255170660414736	37.3445199388694817	21.3990862553348222
4.4008176288225558	39.5777220809689538	19.7029940275286819
5.4323688510844299	40.3396733621940129	23.1598289378410023
1.3652119694346669	42.3977988695382351	23.7258689078764817
42.7076508257503846	42.2895669347318659	23.7439084602744330
4.6643180796150538	39.4434016690775948	21.7143330512000610
1.3897470368923479	38.0431241160726401	23.2333715982738127
42.7854155433522294	40.8239272567394451	21.0190837959588279
5.1345099620729675	41.2252996554529716	21.1027645315709691
2.6856418670544611	40.9845530690314490	22.9137764418648402
5.4039477267663685	38.0623177298783446	22.5845293260645761
3.7386314505534641	42.3008336636679303	19.7807821626479488
1.4040535248125967	39.3339521873199232	18.0775576095914126
2.9714731386505679	38.5563616402079532	20.7284202354442755
42.3426557325242712	37.6567875438594726	22.3143919717850849
1.0846412492714721	38.6080971194226308	19.5360095335233304
1.2473138843520171	39.5991958397533921	21.5679580291426234
5.1382089787010345	0.3799553946257090	22.7703989828770439
38.0490624612138859	32.7673374702681954	22.0338851250504497
31.8004230748151109	35.2312174798479987	20.0055534208819878
33.1516685560679818	31.0240266856318527	23.3671029492267266
32.9886166317026692	32.2090411003762256	22.2365468200784626
38.2541640570984427	36.2133898738147835	21.8241722820529986
42.3072719375717483	35.6408805795424826	24.0477095524528437
42.5136158979758036	30.4895369579826188	19.3587442702568282
38.3765247093203641	30.9147537269850794	22.6736938206222831
39.2727711016058620	33.9292290037912778	20.5381374464554796
8.4862779912350632	37.3386121822993573	21.4596109449069061
41.4914114085324357	33.4909072542263146	24.4089918300994988
40.2362051273848422	33.0409322915224593	21.4782962135227926
41.3121585626887509	33.5302494369423769	19.5593112959221145
42.7491188782626921	31.8541742667659911	21.3784603355320044
36.6055220179780747	35.6790824648236935	22.6381796499054531
36.9770824045806350	31.8693147919421200	23.7300862195902553
38.7259417605788840	31.0114143939871916	18.4863473549830495
2.6828828271454337	39.0404473528888758	22.3391478084572839
9.7279061558576085	38.4378524645107191	18.6506359615584856
6.5892555863311433	38.3681018788479520	20.6677006551645484
9.8828624363654853	36.2556420141572886	22.5445102377506252
10.4745846689141953	40.1931029130802457	19.1998436325769184
11.6386974798281013	40.2339003476324848	23.7453331461311805
8.9294062370561278	0.4038489124234914	19.1295746683427623
7.8669274171431116	38.5626199298734207	17.7596935824796738
9.8588153206735001	40.6637844128010855	20.9725296654358146
8.5501112396264798	40.5087290442706518	23.0143047440745327
9.3381119212574806	41.8776341392808718	19.3230816490026420
13.0140236262594726	38.8563317797976495	20.1705209941947246
15.8814206482537035	37.5131858436093424	22.6885875174059990
14.0416474590206324	39.3668883935814620	21.7048790864818208
18.1108933087801596	38.1031915942310633	24.1925562494492112
17.5108077201078558	0.3019580468575102	21.2992466658991013
16.7352951515174624	39.3941771373092919	24.7761520291566519
15.0134635649460026	40.4370503761215900	23.6072488917883057
16.1994002374913570	41.1530064359111662	19.5527667700337098
9.9804968350608991	36.6810526157928862	20.2679731145247146
7.1695471396085795	38.7202920505036516	22.7081287654534627
7.0859163368360818	36.5894336748524438	20.1640973199477891
7.0145948597767935	40.9877597364083286	22.1667734651530814
7.3657350262580072	38.7085412809613558	19.2505113723735839
7.0143538424947920	40.5802016914443939	20.0771000627525744
10.4550530023611756	42.1882353178692497	20.3753226829238976
7.3271261097931992	41.9514021666350985	18.4112880259192764
10.5673105786578958	41.2410491715509053	22.3144904852702304
38.4963256564052330	37.8406803106828704	21.4914647325627399
11.3938080820613674	38.0863514879925660	24.2215902591474581
7.8571876139708001	41.8667779184323550	23.8857237779211715
11.1793196245143260	38.3395081592996192	19.6127297406819849
9.3448083147065493	38.6807468836578749	20.3481203140003650
8.5258400223211606	41.5576702996251441	21.5564175564684639
4.7998023817062290	41.8898764021384764	23.7823069469376946
11.9424430432058646	40.3600285388444249	21.4744688803733013
7.8514262618027697	39.6061756561066147	21.2806941267433842
21.5536870434657999	2.9592730347172296	27.8593516977723539
22.6319635621207667	0.2833637934315325	24.4568157023935449
20.4142960258359665	3.7709947136038395	29.4928566521034661
23.9329509336494439	2.4896553910928763	26.0228218833287706
24.7450636353408839	4.7040225299588538	26.0556277762542088
18.5528051018995299	1.2567394319715390	28.4706744951986188
20.0375191163011692	5.4811629344304942	30.2189570500801175
24.6287962172641031	6.0564471297799116	26.9806552320690471
21.3742555160768575	0.7378493011976456	27.8531427771440327
24.0176290411674351	0.7015647321638937	27.3644047910211690
18.3378383498872921	4.2947064322354178	25.0951424181273524
20.9043583337845824	6.6813971453563283	23.5265044280281934
20.1519027399409829	2.7593031517742332	23.6386401117146150
21.9016956660811779	2.2371628510289394	29.9171120218161732
22.8985362969408826	2.4562637674165635	27.6990256940377400
22.4249951374794918	3.7479851015917385	29.5098430615000744
18.8214396181043497	1.5524880786532458	25.8507957225335119
29.6450874391100747	4.5750850727674441	27.2909596050590153
28.0723278892825299	0.5355921615436162	24.7462790243489472
16.3163851783996954	1.0240275169217012	28.0987200408320987
13.4434696974196068	6.7950244314439949	25.2846036514509684
16.0309148513281947	3.6419453625266707	25.4979105561500710
13.8970018055939786	6.1626317259094945	27.0651210679993497
16.1423575100612240	6.4391641165436155	27.3448269860970647
18.7556789751968935	5.6256809113009680	28.6373596680236879
16.7402668296560009	5.3225405981582314	28.7472507519768428
15.3795902758971739	3.8877105993276322	29.1692962675475016
17.3082918646564110	0.2141704216138327	24.4764726092501412
28.8837684813582776	2.9663644661672746	32.1492089914161951
13.3582965493230699	0.3541292006052965	29.4155444773973258
15.1014453872351293	2.3647380488805982	26.8264917785505332
19.7669901678628115	4.1674257187900023	27.6593210987151110
23.0820789692182338	4.4720949516743671	26.7813014724102274
19.1542477466537235	0.4412378981632288	24.7289512641514015
23.9572345202319958	6.2399987593358359	23.4822374297122636
18.9608249677304279	2.1654633266167025	30.3250766451618112
24.7980938983291814	42.2935601521611702	26.8784469390570671
33.8250719729190195	2.6526071275148406	24.9701137928861279
31.5793199803871154	4.4862279222524490	26.2059000202999819
30.8176687144942640	0.4962012562610940	25.1732594513558752
32.8989670628396169	6.2815884165925988	29.1686380212152372
35.0985033592254680	4.6619085416116768	27.0852653750483050
30.0731965489900794	1.7905935651561597	30.6877055369923752
32.2657217459641785	1.4027252249626341	30.2436747848832752
32.4700321662675506	0.2563146866209743	28.9103062984001689
33.2869465159267364	2.5313045571114179	29.0104563840276910
32.5778311396139202	5.0922030897285122	24.4046619521374808
33.3880897957687495	4.2013260718095990	27.4048079640048776
33.7684550785191746	4.2133389039839866	29.0021693062110515
30.7284650301288593	2.3201545294822550	29.1960403835562410
36.1053955210582913	1.0553677301374580	27.4910390958703239
35.7683803277643904	1.6507737496207351	25.5212751277350485
36.1302803708211897	3.1309721358653464	26.5654175284241880
32.0078194036304140	2.3432489287319904	25.8798784164338365
34.3763196773010549	2.4410614362820717	26.5847924812125740
28.4888868546859158	3.7326506924779297	28.1022973718657170
26.9176650177234471	1.7960807434063428	26.3297679418673063
28.5766526219239836	1.9889803545623970	29.3385393805529198
25.6061566479008356	0.5867391466636176	28.7629112184999407
25.5264862870893268	4.2769075876120137	31.0035859721704377
27.1083482198425365	2.1328783157915936	24.5992169577622910
30.3044550239788499	2.9843086083785493	25.5980533175557881
29.4456865349390000	2.2209652907676767	27.6783113148943904
25.8203835350830069	3.0216394559399471	26.5278341752735898
13.6197057651248183	4.1915869891804558	26.3194999871579398
31.1937844457910245	5.9476126363037976	26.0890050445962096
30.6621042556824825	2.8697036138496501	27.2594561264667234
27.9171212800488746	4.7393638666767455	26.0825624986607423
29.7168870306336075	1.6774344779588484	25.4166307988081535
26.9241581496306210	2.2753935781983010	28.4299273113271092
25.2995920547908888	2.9323320863100983	24.9295774411611468
31.7049928930038973	5.0320243524725896	29.8171298109900178
32.9209719877147222	5.8054457745969232	26.0045769243305678
2.8001451297240925	3.9156852213646545	27.6076210326333644
3.0962554081961033	4.6844053302757063	24.7656115067239924
3.5078619632203316	5.3838524630292843	28.2669217419958301
0.9098699108455990	1.3513454596769594	26.7687080319476891
3.0171895383879614	3.9880620843725585	29.8256272227046360
2.9464584596262635	2.4884362291574806	24.2950096444716586
0.9205157101357794	2.7712255812751367	27.6614407382239129
0.0227581563526544	5.4374021486801443	25.4701954459891873
5.5044373153848882	6.2409615220277814	27.3542752890119623
42.9641259695976885	4.7744848416635488	27.7655318199917787
4.9782921285231962	4.6134946045348864	27.6160465326216631
4.0946814740527397	4.9117684032458513	26.0691792948104819
1.5431957634261413	2.9005715259867717	26.0448744464742568
10.3509524959772765	0.2155100940940960	25.5660235209728022
9.0147783889028830	4.9128110139898888	30.4213266317964077
8.5264699279203757	0.5165051672927174	24.4650025922950611
8.5932088054376958	6.8357393931200079	27.2669234274138184
9.7965987560058583	42.6144418460059669	27.2762970210042290
0.6650082036797609	40.8774302402543199	19.3861237717566546
40.0659354829515308	37.4353023335440795	22.8790529868119314
42.3810455263136632	37.8518520097350830	24.1422659601786584
38.7259608355748668	40.8643316254106068	21.3551308181694104
39.4860778755735922	39.5708334828200350	20.3971221891267831
40.8197669200217916	41.5023112877044795	20.2742925032648387
42.4419371808481003	38.6918962161383035	20.6200871248276663
36.6407959053380310	39.4792433339588342	18.5573693685260359
39.7191009596881202	37.1884127272465648	17.0220077657813214
9.7078545339628111	5.4202380972312332	28.5775921916074616
41.4221591554269182	37.2720037380319482	20.4035366054517802
40.3595129946097870	38.0445230979420259	21.1904512186860892
40.8268716569827532	39.4698603664767731	19.7344711412738789
39.1539393652291707	0.1584196758356344	24.7534864127276002
42.7462918847399180	42.2077028861265831	20.0510015338506449
40.1693134376106471	41.6916737405184605	17.9112740696556862
5.1411337674868740	3.5723657333763397	29.4039950001638850
4.8123754521680304	1.0583909470972244	24.7009839055747484
14.5932665495006457	5.2145310321888427	28.3168114119406020
13.0871557956047297	4.2738551830431124	29.5209418724541983
7.0212027258601415	3.0946591855041943	28.0271887768641896
6.4946886219624504	1.4896365394760622	26.2736782754884892
7.3564650929854896	6.7139114229984331	25.5143159236814974
18.8391580776410663	5.7783617164624443	26.5152074447886825
13.6619671436075141	2.8270243623998983	24.7515733531299063
18.8818162761749626	6.3475260652069698	24.5267523654170745
15.4524417977078148	4.5954627404925139	27.0742183874381261
10.2032442045860439	5.3753464706974015	25.6681195561442550
13.6436396572960543	4.9126311573520862	24.4611499519736171
16.5080292738015331	5.2851498730657811	25.4535529320114300
17.2022532981555010	2.6192310356196038	29.0285078029087771
13.3620133817340747	1.2250239191692980	27.5365044885774104
18.2734533769525065	4.4076032630357833	30.1419723680551250
17.1382806995496431	3.0917441825250167	30.5500996232451243
18.8629700644694545	0.5801584349387195	30.6810932736835404
17.2871412027757891	2.0368692196345948	27.1641745987905665
8.8461584801193602	3.5046675982219053	29.5039223743316441
9.0054164615494710	2.6819776209565358	27.5531921586782289
8.4870768610476013	1.9594303873759906	29.0343661566990114
7.6468810234490503	1.6730919865840859	30.8586047310460820
12.2103898787810081	5.7277633846830778	25.8806235915668275
12.3298006349687483	2.3084362934613862	26.2215446720744332
10.8237313135101836	3.8199486992136387	26.8485222581747252
12.2521597376359299	3.7045290361761576	25.2394913089039399
6.4801453652890650	42.9835649022683199	25.2073883657182520
36.5938188331742111	36.5323461268829206	20.8672156222796943
11.6975529504722910	0.8686249958059805	26.6429508510340760
10.1928888987782056	3.2849064365664460	25.5892605480904507
6.9386547256358488	4.0363997464044692	30.4926268129467672
10.9322554684477460	4.7099467699144419	29.4523678905649575
9.9257135808363177	4.0300946118063905	23.8281267287197842
8.2799231177466215	42.9757123636612945	26.0658048338373405
7.6744525001616877	1.2412105227310206	27.4546085185141600
10.5408395017982315	6.0222894337149233	27.2382139755958086
25.8382352270880560	30.3225273430285895	24.1954801862448576
24.8941722386144271	26.7032149044651597	23.7834615682652100
20.9811333915726124	31.1138296205834628	23.0963314955313521
24.7292814511547157	27.6861341425718201	25.6198814914937465
24.9134024631186222	25.6046851589218853	25.4997291156607488
22.4018153230807044	26.0113850013542880	20.4670781106857724
23.0264527683385083	24.8261010349490157	21.7043112476141786
19.4285993357058082	30.0627835033531738	21.2445140144514220
25.2159636747640477	26.1579824717466636	20.6687446149752958
18.7273318123879591	29.9126769573851625	23.2377267640195484
19.8178936577211573	24.7132521417759534	24.0104212519317883
23.8998677411280127	25.8378386499042669	19.7780512741178676
21.9678152635758259	30.0723590451328562	23.8215190220386646
24.1417630655424418	29.4251478194759066	19.7780814949761883
22.9548942919862533	27.6100970843721001	20.3246798638155362
23.7817555011586528	29.1310102898522523	24.6232647393544788
20.2070304633427931	28.6819980189983106	18.9180956116447980
24.6625068406804218	25.3283194432007157	22.0007599367078477
22.9553831365342340	31.5051287701197538	19.0935013367017845
17.4210981803216498	28.7733975278594514	21.7498407500089357
17.3108612530401977	24.8033726313579486	19.8302084573960080
15.5099090741844012	30.7364154608244959	17.8788099630853630
13.8279307322965330	27.5522237211983168	20.6423653066791672
12.2581676861883917	26.1369925466487665	23.7223657421093712
17.0192068780584975	26.7341940307522137	20.5120034222602605
13.9643755761008475	25.1464436192211274	22.8034251150547398
12.0879106911347751	27.1375952489756145	20.5043096147669246
18.8650609528464130	26.0056587584077334	20.1639625853781652
19.1424631988075546	28.0798087192965831	21.1215170994115553
13.9987197702370185	26.9392363858910784	18.9553591158312003
15.6156647414262260	25.5588238515640001	24.0623108970492332
17.1425705130193471	28.5112562938990841	23.5541845894604656
14.9120541077464299	25.6930549756305631	20.4198058849891133
14.1218252772106858	28.6400621744955508	24.2861130096556508
19.5162506520539232	25.1001101975673429	21.7287103776397146
15.7732875953725706	27.4009297587215777	21.2939375835297717
15.8026886533272481	29.7690995752330672	23.3170467708391271
32.3954032737034368	28.6374107195087646	18.8039106635843289
30.0718080451204273	29.9825963199263406	24.0814648956297468
32.3735480043472208	28.5016651149395344	20.7518959502004741
31.2760492206220633	26.6754450730508132	19.5113497761070818
35.2386861051646108	25.5435590705502236	18.3328780629816244
32.1152166454801602	25.4659291555408380	21.2428636028597886
36.5379890908686704	30.2699898379987005	23.3637826362048777
32.1171578711016394	30.5673785637629365	21.2896479644833256
33.9133377219864443	26.1900301812791341	21.8391673222241032
34.2599694841172990	29.3383564540774131	22.6143169521003493
33.0512372459153241	26.8115588386988080	20.0194277165020544
35.6278277897591593	28.1707020685346059	22.5187275000259888
31.2992638847496174	24.9681795009736867	19.6382249917806213
31.0150413641723439	30.2572765812552404	19.5036381994471633
35.0931509423324428	24.9153430591545764	23.1999438671640874
31.5272035090502385	28.5909392665993281	23.7221697777627547
31.9407019774458583	26.4079884044577931	23.1236331999824607
36.7941142039417102	26.9733211895985470	20.1619239431590245
25.6523020034492291	29.0903999987367641	19.2005049647736570
23.3630248570458789	26.4782709474544369	22.1084322697224493
23.3136076573692463	24.7787086638934433	23.4976875359542454
22.4238994251150174	28.3822688299047599	25.2734728253955261
18.6594354728882692	28.5795399912690335	17.3668793529063663
22.4642667015187172	32.2984989597822079	23.3485402463735312
21.2436548456905783	30.5944771799179449	20.1863017105505342
26.7207773599286789	29.8658196272499730	22.2628800357653418
28.0558008930065874	26.8465185612607478	23.3375586595402851
14.6380960477070392	28.3891171603195289	22.6266232100873843
26.9402023779000608	28.6291615207890722	23.2215971221166271
30.3808038359169394	26.8033723729754207	23.5587545541104859
27.7725645250008562	27.1280052491269217	19.1992682638533871
26.1521721477331717	25.5287457854244941	19.0703761595057273
25.8426661446508170	28.3322497153263591	21.1224409740358681
26.4534973824993145	26.4120089944962224	21.7723652863306931
29.4232107208199309	27.1337177329932828	19.1210564143584278
30.9296580702975099	29.3931384369703217	22.0075114984555853
1.2000527576692692	28.5811799959055577	23.1569926917546915
41.4063321033697704	18.9417387219476971	22.6235080897365108
41.8085073648576042	20.9438264475932989	23.3238583577760465
36.3195972416830202	21.7007354566814854	20.8321401352680837
42.4693301505028202	21.2380196277866133	20.2660072237318083
38.5019227083574052	19.2437511143133442	20.9520241359655586
41.0346228185051132	23.9175599401027483	22.5565385951639641
42.4888877274923971	21.2858491657912090	24.8065265726952440
38.5520049322805036	20.9828453267064710	23.6557848408764642
39.3859583929495969	22.9976336185517631	24.2828662056611257
5.5387771625596569	25.1422577432453416	21.4552557919741140
0.6605843186319124	25.2616930395277386	22.0519152440429202
3.8306864124643396	25.6526878172997819	20.8906921230001501
0.2672945086155208	25.1435041906071142	18.9398934838300192
2.1563222655746475	23.4637464623606036	18.6481241694666977
1.8264620584069751	25.7687510434342570	20.4402396961801820
5.2947027023901132	29.2630923132680252	22.8213660543620911
4.5236590922341158	29.0670172221582490	20.8752710237081374
36.4514949422858550	20.9183527272002010	24.0804687885569706
32.8975251270316633	19.8647535937076007	22.7755225597615052
33.0435294090775926	22.7439303336782643	23.0665159918352245
36.9624560204850425	22.6230838781553913	22.5099582301251395
34.6988187000622048	21.4220875240012596	19.2375098805082168
38.9204241946154710	23.0627496120625359	22.7795577080398104
40.5655310688305022	18.1846625776484174	20.8804830219810960
40.7021401393757074	21.2286842499866815	21.0329049837917772
37.5868298579258422	19.7165630769909157	22.8062903608560639
0.8095385699663943	28.6663462235777367	20.6147044379378954
41.0469496209426623	20.4670768071136067	18.7969488146075001
38.4679443398380485	22.1878540690130350	20.9870273058745340
39.6644833708985232	22.6005253977495251	19.1787593738192825
41.4121061041065204	23.6520925050376469	19.9207945313628301
42.0073662665127898	22.4416733805242892	21.7118647837406762
40.1506828743948390	21.9054882170922127	22.5913047543406691
40.0199157042798248	22.9052951074422886	21.1872571552565638
41.8839797373149736	25.4181539957717995	23.3695937693574969
11.8120466685957179	29.1841529166263349	24.8261687617611884
0.7405785637011918	30.7608957566494929	23.0600578299459329
12.3180214890670747	28.0704615146507983	19.3396786155879354
8.8257551557382907	28.8842818898325575	23.7366358544263178
9.9243618889396163	29.3981373494284810	20.3122045724950553
9.6820989494181084	28.9684803653774594	18.2507621410942136
10.2950197285260430	27.3300973962869804	22.9033297870389845
8.6538903689957518	25.6881562856922656	23.1687896854113227
6.5644068129105566	29.2551389939096715	21.1366748831987721
3.1587462903625645	29.1561165447018347	18.8874163733630880
6.6948258594373034	28.4636299084094020	22.9463375751392640
8.7916802661977709	26.5547568398089950	18.5796155566721062
11.8516252660321566	27.3823612468269530	22.2914579956153709
7.1353726254847105	30.5973226430250023	22.3969770968497137
11.2424984205642140	28.9156325539350192	21.2565864143990062
7.3658201779202486	26.5781813190029439	24.9270005849974439
8.6125727482450181	27.2890820944494266	23.4303986778554219
13.6653587951720041	26.9922691732936570	22.4297943850839197
5.2031854630146199	26.1629654275048011	19.7315340345489361
3.3904216165253316	28.5128615644875971	22.6085218148305884
4.9180769482029509	27.8839073985218278	19.1430460235371847
3.1289711458294120	30.5316927781663061	19.7947603011471074
3.5555681977694062	27.8177796006139673	20.0989409564541326
4.7134369828548266	27.4771124346679159	23.8342361875207125
3.0107992045157315	25.0557372657364752	19.5547507498055353
0.3516596623443584	26.8830768752484239	20.4135104307188264
5.3979105218991359	29.8388571068647401	19.3108313679002208
29.5329242437627570	27.9117405665947764	20.5564811471647069
2.7185683463363555	30.4405455600191850	25.7973374085349683
0.4448557920415053	26.9174639681671444	22.1293385806094776
3.4076875822614903	26.5226787160338446	22.6455666042072181
5.5722853356287025	27.4158911420198805	21.1944304250361810
4.3968902977962694	28.6762085745460773	17.8021179251907178
3.7546723522741474	26.1756783194929383	24.5860305013417531
2.0021209111623319	29.9299174129798295	22.1163738880428973
0.1091134761908464	26.6030314558763443	23.7512005221182427
19.2072789732524747	33.4973870019245297	24.6111562197018934
14.1008634361665148	32.0340763706469360	23.9475984404648656
23.9779238822053138	36.9391356168383709	23.8955662599388852
18.8771433759408964	30.5626899279591981	19.6283514704648212
19.4007940183196652	32.1753720264807725	22.7892632202522414
19.1907669287598104	32.4473314499307079	19.1291558438232840
18.9331431254123181	31.3436677801805352	24.1438535668226351
24.1836555988036395	34.6247141959926807	21.0131858237814448
24.6802802565602946	36.2661920343444280	20.0436374772528723
23.4445238882626406	33.8998728527816837	23.2106127069829142
13.5523106745163329	36.1428771247986802	19.4776707801963305
20.9103937938525561	35.1563439568005691	21.6509154142383906
19.3348992328501801	30.2814165595598688	18.1426933833394983
18.0498130166671871	37.8587885876301229	20.6372137860339535
19.2110373020661740	34.9368791418261750	18.5776491849389203
20.8587882274763778	34.9277130788994867	23.9892162565912024
22.5566861681086621	35.3972455917326059	22.1822748367225451
21.2711967478465844	32.4756509168615679	19.1686221588586569
22.2945601529733857	33.7228750071449355	21.5342472894501356
17.1322094887691669	34.7880411303625934	20.9724741189800277
14.6307075540063991	37.2340561100470282	21.0791148496182252
14.7617503469889453	32.0232225854796440	21.9594804506520163
13.2692209590204069	34.2446174291755483	20.9313624421229889
12.0228841231231680	32.9946278592962301	21.5835007812662134
15.6892015187392797	31.8140264458895210	20.1372997785391412
16.0419252694473329	33.8824198862489183	22.9722377308701198
16.6071753990937552	32.9822415005361051	21.7662801737899692
16.1609815319178018	35.0836457722267028	23.9955936047953386
20.5642980442631220	33.1740012812565581	22.0725999509224131
12.7994165531885802	31.6249102705936416	22.3800332714381831
17.2893609645098572	32.3504735832153614	19.8819538157153239
18.3452732355038428	34.1040503894475151	20.1076063337302067
18.4026684456840748	33.5637715091416098	22.0000458061610260
11.9784332161294760	32.7852839032731609	23.9133697883645695
13.1961852287086217	35.8089780577078187	24.3049282788709107
19.2466824632076445	32.2555266775232923	20.7469953189004919
17.5732149086262837	32.8328580494667222	23.7361435785197621
33.6188495137830756	34.7006529472083400	23.8572444763849099
33.3065945643655823	34.1549739282973306	21.5086923079056547
31.4937314316999597	36.2052802748477589	24.4524741084173272
37.4238622449495111	34.9826569004210484	20.6350027870749315
35.7254399768606135	33.8001833288303573	24.4028873345834469
32.1797148463428897	34.9084224540087149	18.1961159085692081
36.9517907744266267	36.8270177966306846	24.3996406686890630
34.0234353448201077	33.9661321151274294	19.1531758968131101
34.6443672352229441	36.3537675590515406	22.3241740350520672
34.5118553060401183	33.3133156445622163	20.6773926075729619
34.0220261758730658	33.3704949405295537	23.0523554324920852
34.1152341622455495	31.8522405746781097	18.5389900282223614
36.3637699115460293	33.3286768847098358	20.5669608864145346
36.8205333414494405	31.8848542396115278	17.5525731820496240
35.8199155328722298	31.1187503817594475	19.8252124148489273
36.8412225212610238	35.7761328651488313	18.8067233032199255
31.3666668992060629	30.7683205475453896	23.4308532575462571
36.1150190708746095	33.7680633877769836	18.8021351326816735
25.1275621601213253	36.2836818286259657	21.9903752775940582
20.3139637820140706	33.8061839929416976	20.2014446547365196
24.9268821958167806	31.8089212931975531	19.6167403355319472
25.4969433235927632	32.8071415489889304	21.3765811556723726
29.6308397263127468	30.5705929533088181	20.6339929549388792
26.8241685449486731	31.5400529284856610	20.7349431744402857
25.8282200039324259	34.6384845223521936	20.6737913130265341
29.3016798941161234	32.8296301670181379	20.4792642450889169
29.4608738902362504	32.1772274081370924	18.5941149508024921
12.5228618817218003	37.0236647556168421	20.8759938377211007
29.0673760207953293	33.5895215831265332	22.3786616568668215
27.9294551170735446	34.5675720593503470	21.1062560082464792
25.6333378704884716	33.5238627746702988	23.5824319936997036
27.7208689202332010	36.3710309751933636	22.5974219523202642
36.0689044558678020	32.1874310032566342	21.7963655982314073
35.5150176681482961	34.8019898678531874	21.3794963831361819
31.0214640183384667	33.3524648530951708	19.1899571675132634
33.6894756249865495	35.6135137497729133	20.6014854414966884
40.2346613568662050	27.3832994995430816	20.9929058683496557
37.3764571719643470	29.2304422064243852	22.2651321666502220
37.7864771464342581	29.8762336571792027	20.0648930069459261
38.2485441964939739	27.8186172688380218	21.2855356953422366
40.8305623141463769	28.0800059225389731	22.7299373109359699
41.5136048596447225	27.2740350328721917	24.6869425391804640
36.8810119287834368	24.8040304162302050	19.3653954467284883
38.8678646945335657	29.8493114333835443	23.6791168976043380
40.2892368664099294	26.6304290147048022	19.0901163663839455
38.3842353598178292	25.7833534205782762	18.8585169210734058
5.8407505819311263	32.3032707229872074	22.7644920879228359
6.7194802843666785	37.0824595587561774	22.2851115903005521
1.4869849222920695	36.1216934861143670	23.4034912115811728
4.8450486576876042	31.7891404045958694	18.8783663044250964
4.2805243092374869	33.5273459658387054	24.0385233494849615
5.5584384748156053	36.6176439559787497	19.1134988884501524
3.3314537176266179	35.5638829929252651	23.6935788974829720
0.6658233338370827	32.2451487139925490	20.0706024040258981
0.4120262166433352	30.2268812639786653	20.7237042090402994
31.2969305894510903	23.6725111481414352	22.0156401096754806
36.1272606855918568	26.0842836722829539	22.4921816273523518
34.2231086021222879	30.2265314947669381	24.7166732931794186
36.1116745359213169	30.6272376771631443	21.3923829108894985
34.8850402355971241	27.6403855906305118	20.6592923112099065
38.5152083438876289	23.9123062044707311	19.5394724109214728
41.6869273993123741	25.9829333764904220	19.6125756167231202
38.2918207932561572	23.9937959341693237	21.2165027628019409
4.6556653976152642	35.2719326435530789	20.5337191918414064
37.9730620919843460	24.5719427301113988	23.0123338626663951
38.1715395356009779	26.2602930521994402	20.8276756037087907
37.7487403510556376	26.1341750812819740	23.6773464536886671
39.3829593541262284	29.5878157787040479	18.4398644032672188
39.4250533473738685	29.3266058836220473	21.7356278848974931
0.1932495899560697	28.4778318231024343	19.1174689301693093
39.5814174002960897	25.3067405150948304	22.8129625650668970
40.6576317221641546	25.1269314668278589	18.5114427513221642
9.8458866843001225	34.7457141250595143	19.6857488031341070
6.8189998748196139	35.0652409726032843	18.5616779849822002
9.5569170780679329	32.3997484581163064	19.6801819313038102
6.1856062619521124	30.2582298784045065	24.2281733518050508
11.2684805227965334	31.4709452996685428	22.9967336838407519
7.8709569689794865	33.3023630202551360	22.8332613952029710
8.9993152619824244	34.2495529956349785	23.5998177754256133
8.2475764688036080	30.8415901608954748	21.0879009185637045
8.4305241734741525	30.7557551353450833	24.6021703276591523
9.8259760736664834	31.1803051848903614	17.9093037231806811
5.9215489728061668	30.7770117068364897	20.6421392959363459
7.9857437273026823	34.4407390529055846	20.1813492356389368
16.5787469026580929	31.8553136052944907	18.3408819748604870
12.5121119389872266	36.5714667567244831	22.8647924676066943
12.7839254207009727	33.9093743707485089	19.2786852779185551
15.2559073605696813	33.9163301797246817	21.5881842880890531
13.4721617135792240	32.1389755984536549	20.5140141068780046
14.3052128331879960	35.1913871772769156	22.6076056672876859
2.6757659525164734	32.1492026127285584	18.8913369018708366
3.1896514882262688	32.0298708946782256	24.3924091499943536
1.1494262077053907	33.6189535786970453	21.2209887130511667
0.0002580061963967	37.0834447561102323	19.9827424855405020
2.3294946823800204	32.1226113206441752	22.3828300998900787
2.3376957723179608	33.1132888941512249	20.2366472141485723
4.3525573441893322	31.8957562398251575	22.8067123176460136
4.6660236765066356	36.0361655340161491	22.3354688660995393
3.1199644276319898	37.3042241411707991	23.3331978898083996
30.1184032160883994	3.4086356222634588	30.4526356740067392
4.5642965387681356	34.1527302852265322	22.5528635855486179
11.5988897848612229	35.1822272731164034	21.8127001449697957
9.3206822162835223	31.2879662081751313	22.8297004818015878
11.6329482779299749	30.8469789186089365	21.3884880670066018
9.8534043019409374	30.8420427770846288	21.1412105896755342
10.4314750794586129	31.0483516727132454	24.6451106504045683
9.4595824865117297	34.6218562476542218	21.6737593021900778
7.4501463743947234	32.5342714487132270	24.2001185203133886
30.2310708610646053	22.3463573969970994	28.3138340321111386
24.0256362497257570	20.9482783941613171	28.1621719754544486
22.7336598350063070	23.4382713164693115	29.8247764544880987
18.7452255993518513	21.3580223789700305	26.1007940131252063
24.2907869269753611	22.0280372017615882	24.5708485088230688
22.1897640590381329	24.1822640235772930	26.7898421745349005
22.1788842695091262	20.7227083301255526	28.9106013156242767
22.4028129424374107	18.3711244046336688	27.4721851536945003
20.4908042295107080	22.6309194637957312	24.4017244080328908
22.8316040385092727	22.1816431368877218	27.3021828768892298
24.8953945605295459	21.5283860244562000	25.9844905346856159
26.5655096300112596	20.0994909937510648	25.4532344040343439
26.7538479957087567	23.4141421571160251	28.0526867197741652
27.7628483732516038	21.4913729368681388	25.4989423049811386
30.1699267916467910	18.8665229888013357	26.0373435353314377
25.1705550483985476	18.8639318853049645	28.8128373509346609
24.1398799754259734	19.9609773199956528	29.7298424352052386
28.0060766490116180	22.8149803713449302	29.5108503273848903
25.0249197736597324	21.7029321695103548	31.0807588431273025
20.5453554584993938	22.5494991843254695	29.8357050689295633
19.1279784445388437	25.9910770569815810	25.7552287656088694
14.9082493535799525	22.7728367605430329	30.2849219874785618
17.8046129956121462	20.5498263555421623	27.2948352383692239
15.7785377337195278	19.9086223375313018	29.9927095455146926
15.1061592848001229	22.4210101422765860	26.3268586979470633
17.7869331489180027	20.2287221008765918	30.5034724148572778
21.1237702085283559	22.3261047162446573	26.3010572329105159
19.5429144210342933	19.8428773683578079	25.7049592420479165
29.0691305450935893	21.2812968064316550	26.6301392480409334
19.8767846737308354	20.8036974925434563	29.6182666838565112
20.7979763205258052	20.6241306344340458	25.0442423136264090
19.2930715219200692	21.7822771840352303	27.6461497170098518
22.3314419415862275	19.3406200159593347	24.0469701952628121
24.3677836378672410	17.5659954939247349	27.2120441371290660
20.9046976269056302	18.9704002270795868	27.0995122246079703
24.9563681482226301	19.9625460907870043	27.2176799426921647
23.1287403840058410	23.3716855913080543	24.4155041724400093
31.8325495171924118	19.9188409123299159	24.4591108021084800
34.6587247604265798	20.9881954319915032	27.6455160987375166
31.6064823949456972	21.2206435037892476	27.1455797894143060
35.0213389604224332	18.6474861019590250	25.0187111912125140
35.4640152683480849	19.6254734276782656	28.6196792329887124
32.2104508013312909	18.0819711580824460	29.6311071416662841
33.3229134489671566	19.0408591135296810	24.4425674025009165
35.9288447512354026	21.3354486187203278	29.1417449021984538
34.0995460747414469	20.9756777554706275	29.5307072703804643
33.3606158838175730	20.0565738385374779	26.0551742454982005
36.0873384100969261	23.2672749124757168	27.3087773012622144
32.4551436382218483	21.6806465183394366	25.1540282395318151
34.9739141364693893	20.2353481323930033	25.5427370903922721
42.5054046809101180	22.3192280187634182	28.5372529018341510
42.0091584811828866	22.0898198531014849	30.6380666182386889
38.6384215880831974	20.2994378870629717	25.4505861053638185
37.1654257692666903	23.0149683097151865	29.5863811183284930
41.4354096612537788	23.8261747392137657	24.8069179483612885
31.0534853672571742	22.1212441268658004	26.1499196184774050
29.9629157202595344	20.5477675239780453	25.4392018098809380
24.6581748767788618	17.8454094207913698	30.6422067751475922
29.2948755431738697	18.7567826415111476	30.1492313167373496
29.2694929027081656	18.7155422509918061	27.8242086840946925
27.9643959979563164	21.5319795006482266	27.9048502150963706
28.7088395844621047	22.9792958992123530	27.7217690575371840
33.1290182698780953	20.5208613269306852	28.1212109926474376
33.2792437916875130	23.4387245674074762	28.0874257369555451
16.2256794027484936	20.8940611137513343	28.3107823391562725
33.5149567295500930	22.1022405378550459	26.7482029693312597
31.8326572631885156	21.3016571052170889	29.1393216765456131
31.9329140724893925	23.1517501320512693	24.1563766210980120
31.3130434590485685	19.2622013157576184	31.1039408313209265
35.4861824350331503	22.8989040068311063	29.5711178240456327
31.7272009162958000	23.3699988048458565	29.4156749267086042
32.1684830848676029	19.3466884821640228	27.9540583334233084
33.8896225502080028	18.9058635800776607	28.4261387460046961
6.5533358386567366	22.0303426742244248	29.5688557466468751
42.3803741021614542	12.2180107068814774	28.5098115463566373
37.7041742330629077	15.8510497607705325	27.5682404687332934
41.3245404914945738	17.6488815509667845	27.9129283674155779
38.1160931551615150	14.3363611433640692	25.7021043174502424
39.5061584606264233	16.7012170039382895	26.7852058047733195
38.7043650775363020	16.3833144856917983	25.4142123266183120
38.6430758505305292	12.3721842874805201	28.5812503867375014
3.4642444178497129	23.2939241492187037	30.6346482099087574
37.4538149574198584	13.0073512609596875	31.3862760659933357
6.6486796374894102	22.9495429265209445	26.7482968075022640
2.5097629371832735	18.7890944866866754	25.2206542013505768
0.9102003246237258	21.0393969238600214	29.6293656419020337
0.0812672097055294	22.7139974204245156	26.5929488646004337
5.0678284722714908	20.4247081821354186	29.0982032369993817
4.5595916962063798	18.7852684581084617	25.3833355440313291
1.9322369739479888	19.9580545074709725	28.1065851828693383
4.2646385976948817	19.2182469191202969	30.3789006725418673
41.7919174128406183	12.1683112624546350	30.4084458960768380
41.2174940924491224	13.5630125823402778	25.2259888189523735
42.1328241450907655	15.0811172107767799	25.4182449832033086
42.4529825638038147	13.8279748663586304	26.8035144834761780
41.4967034593670050	15.3689131059170592	30.2745619445606629
40.4951954754671988	13.0053919032040213	29.6324634543843217
39.0252575918237454	13.6032840814546407	30.1345341418227086
42.4513989602162596	16.1982403029105804	28.8178553356286429
39.6858061986103294	12.4398323031033193	31.0064238374279135
3.7884833611197832	22.8891629934462628	28.6557380091385028
38.8941422716166727	13.0388780637093671	27.1010702540897661
37.1812512258154726	13.9169267009207385	28.0823079939676212
38.2283139111819992	15.0985392896820301	23.9712978238302838
38.0698249122422183	17.6665141578770957	27.2972908680856641
40.0964975223715143	15.4629228311133335	24.7070598437687750
39.2513256548667044	16.8989978608586568	28.4343649217546179
39.7614984682624453	18.9847996810027837	28.0402891007180486
42.2112823811601530	18.3703041488149807	29.4245637649536071
16.8179409647372786	21.2787711309273604	26.1062501262067705
13.2735906374056132	20.8887560805483972	24.5161514869954296
10.7028716260423291	22.5959476917898101	29.8522439035455633
8.0039459135304245	18.9959953064922864	24.5349547565146899
11.3136495726173134	20.0110495443410841	27.0369493937827201
13.4065526527575969	21.6934943483235010	25.8258984168301211
12.2433889103347280	23.2006126858327839	25.3042752795751724
17.0720341165967326	22.5553219152528079	27.4512342992649501
17.8658031077395627	19.3274131507609219	29.2834287740860333
9.6078210547342611	21.5670217068364707	30.0632405001024914
13.5037874012646579	18.3586894601524691	29.4241079458262504
11.8902970119289471	23.4995361878581654	28.2231456725812606
17.9753492097229461	21.3401893295616745	28.9730954670295802
13.7383453881867315	20.4390750473355602	26.7876646849148230
13.2235058724640844	22.4302951618187691	29.1647315053992990
11.1945323417942397	19.1956355388851314	29.6200066450262902
12.3901231579382731	21.7207260377530567	27.2605944385928538
12.3100730233400171	25.2833306762157086	27.8598108833667091
0.6791203603866333	22.4102170817612247	30.4996645272469564
5.0596251515406072	21.2826359787330119	26.0020508082027320
5.5500152660220969	21.7083679603198618	27.7166604488079393
2.4319058451213058	23.9983345536955817	27.8412314105184109
5.4068490131467675	23.2651713194252991	25.7864984859354465
2.6604037260049975	20.2277605188854182	30.9227556689709608
3.2776095005236181	21.7897273827290157	27.6291506735808383
1.2041034509199835	23.4582943918898437	24.9477755296969264
0.4643192044393438	18.6076245358737893	25.8464665253123478
41.7334274260743143	20.9547794181193723	26.2349330607435256
1.5010407217142692	22.4008465112663124	28.3170853948647405
10.3422790681273753	23.9908141022330348	28.1832428659615317
8.7590702115400774	22.8215881278524222	28.6108901934899897
7.0126188695003879	23.8837900733090756	29.7280915289980499
12.8917621301550476	19.3668620024112919	28.0242886167592857
6.5835641244880554	20.5541257046695556	28.6379971586977966
9.1421370590620636	20.6462634419968651	28.4011601046868769
8.9188465293514749	23.2658727374779311	26.6800616734112950
24.5891922513882122	24.6279305715532928	29.2291158073147663
22.7487012394510302	25.8399750658251968	26.4315363014219322
25.5605365073230537	29.5937925960168329	25.5245770946193886
27.0076951445285900	26.7217101208346932	28.6362996364307385
30.4412316252472053	25.5495175570975341	24.8508687965499995
27.9583440678169950	24.2516593119830297	26.4894105766376562
25.2281938248448299	26.8038120574654286	29.1152993655363588
28.0725994607473162	25.2755013776536401	27.7238411377743219
28.4329107852261842	29.2873522194731528	28.0818583961226089
29.6941126599673666	27.2712685499584104	26.3560184454207942
22.3840143164649952	27.9420716811476808	27.8794984733396269
28.8520850261982389	25.4504155263998300	24.0599606817887413
28.9437183421060524	23.8655711913593329	25.3680705692377018
29.2261448504327603	28.9539724677120383	26.1127880141927271
30.0324040989257135	29.3514807525754016	28.8883890805232433
26.1366653628392349	28.1986760625537656	27.8467429780134736
28.7073990308454583	26.0599457088409636	25.6437022137837580
26.7482801110358324	28.2427728168225975	29.7013992486149050
30.6004126823077165	27.9814062245104864	29.8556709747165634
20.7610682127174258	26.9811272006229004	28.8884267082392903
17.9101461021919093	23.9973261412612437	28.4101592806008867
16.5075149277350235	29.9258820679954276	29.1250577365308700
20.8166897434511640	28.7537046962139193	26.6625761367276759
20.9477220737288619	24.7947642432452753	25.1793409838357931
23.4587112344243955	30.0428081690508293	28.2410773287941339
20.2077002173933344	27.6678785629017341	25.4541628970475777
19.9390278477706104	29.5275255025202590	24.5050544456400274
21.5201722137656652	29.6317259122702055	28.4803480493471071
28.2302020759984558	27.2006394251252814	27.7328945295334179
22.0429157045019295	25.9864982427887767	28.0033018275677286
18.1085386914764648	28.9595782971687647	30.3744986675578481
24.4100908993807337	28.6837768882586808	28.4109911676558511
21.6023699112967087	27.6531965443853345	30.1096869207824049
23.9440798358009879	24.9483344724195071	27.3270844191770159
20.3615353546450741	26.7164731296515541	27.3304983156753813
19.2582886046618285	27.2455719463116459	29.4130226353729469
19.6280521017433713	29.8754918916733807	27.7893550388061499
39.8255112229648773	26.7869128493446773	24.1953792703272157
31.2794538403162221	23.8289094389334011	25.4957673044907587
35.1931394376878544	25.6290004138860468	25.4216919687301335
31.0175684431771330	28.3894376365195136	27.5551606373731417
36.1754734907575113	24.7250333454107363	28.4799041149411849
35.8852517804400932	26.3743189127712192	27.6607180365965171
33.3518134475693415	25.8462959032421402	27.9056281064810641
36.0651398344135146	30.8128967115693051	25.5929609733582417
0.0977701826939423	27.9484496629530454	26.2024496656980226
32.4451086391195460	29.9253087289851329	25.0689857798879778
36.8564954214062794	29.2501522608811975	25.9177491444918360
40.9144005731525411	26.6935819169268598	28.4611180957031813
40.6699210803550244	25.7795569029598006	26.1806423717069521
0.1493779274634097	27.2594910538321642	28.2354926363612435
36.9204643412848057	28.5944327651371211	27.7208226584421951
39.9229181628139713	29.8517796718474386	25.6368295729024140
36.6615445798229231	30.0592437271571455	27.7757471758464298
40.0639549615093813	27.5710330125012213	26.3075639007620303
31.7017618424867536	24.8078182940026544	27.2999181512150599
27.8670576893687780	27.8122669677099523	25.0225537475371382
35.2406577111030401	28.1699610961233198	25.4572122450848610
33.3341231591351530	24.5469698796819245	25.1257640231461536
34.5661076584452687	24.3070616952110896	26.7893324683065970
29.5652880054994043	27.4308122305726414	28.5435800129057604
35.7850623604593068	26.6271516030532887	24.1947927147499513
30.1218558728449892	23.6212050472684965	27.1377389094418611
34.5342508203772312	26.8859100181024679	26.2042460023654122
12.6287818182617038	24.7092978519299322	25.9711151048778319
30.8341042939899772	28.7821347438606949	25.5270172196946064
35.2694905054125627	28.1436421589123213	28.8311800328909804
32.8435088950037226	28.9548336633088397	28.3853360454442942
34.4424421589670189	30.0017425176349377	26.4259836992837869
34.1292599751026131	27.6090880062943143	27.4965311761742512
32.6441659307545891	25.0908684914386235	29.2706550818161695
34.0883222078400863	27.0829035530218398	29.1427889660328923
35.2935349648656711	30.6524738538147972	28.4640206063201511
8.4244724507719297	28.7524584204448708	29.0401736870704212
2.5270174888666666	27.3282886206080562	28.3620895031122870
4.4381225917853193	26.4537793318477235	28.5947341630363674
3.1877595289016614	29.6213099259071804	27.7579608533982736
3.3204145603810780	26.7500772832620228	30.5054811943429556
4.7539442675706454	27.5285540914037625	26.9013249036847064
4.9430632765070790	24.3919101648770784	29.3684139197930989
6.1463392096766070	29.1433460113169396	26.3559012964948600
6.8626498129930811	25.0330613899875232	26.4625311164649872
3.8342331938986982	28.1915158201017775	28.5688558400334962
11.1007615715501213	30.5393074734825589	26.0366702701407497
11.7067894864934203	26.5935876985307402	29.4726721410208050
7.0594340324404214	28.3654486684203242	30.9022022346988585
9.6984458800393352	27.3251127864585861	28.9904316155877595
5.7831591089850880	28.3571917492475833	24.9128060801336595
9.0198622158402983	28.8295447346888771	30.5892495002874973
10.0352946766666573	29.6296497111467438	27.9059553487574483
8.6478204249115862	31.3375447141664196	29.1563927985868361
5.3734778245391448	28.6821807162726010	28.0669114284228520
39.5210836656928848	20.9912963740468577	26.8992511289570899
42.1483865769451995	19.3130330367028158	24.6013968164788892
37.4203508545291328	21.7641125027936120	26.1106306922265503
41.9575728361014839	20.7342083213958226	29.8895058908786524
37.0660553440571405	19.9289655255075502	30.2838909795313249
40.7952948054152102	22.0190492524119605	25.2826299356863125
38.9728031738119611	20.1012426096060572	28.9698956438636479
41.0178968307238847	19.6536690232765920	28.8860038737695746
10.6450443481060972	28.2007543095588105	26.5166048111756787
2.7349363964409079	25.0763128455769930	29.9592921588276262
1.9009909414498249	27.0590427306513810	25.5438362418078029
42.7106517036552518	23.9061154718617104	30.2214656424152928
2.7304849403583988	25.5630243312895509	27.9404928521807818
1.5338595577655294	25.8043481686436564	26.7531614055523121
2.7743546064679490	28.4513916082674783	26.5620404166844573
0.0783496379758850	30.0290078814316246	24.4479406523729139
3.4191564753930233	26.3956474385189814	26.5169729076996745
16.2999581984971762	24.7982783762354053	27.4908812937971270
13.5294404489850972	24.3275483841723776	29.3939716532289026
15.0919103172178488	24.9960383231686230	25.5804343522933664
16.7908391503934666	28.7197092528282276	27.0374015889499546
17.9033665601451197	24.9246192178882460	27.0753542118712431
16.0178983787351115	29.1952643248173516	25.1400848461005531
17.2150234865334966	28.3286434578446418	28.5947328286097466
17.2401608803070125	26.7553825810022339	27.0362284592428139
19.4832612921686135	25.4440371261686664	28.5355806104938061
17.6145449574394348	25.7056521058725949	28.9198424345631331
14.9027977548699901	26.2611637779351916	26.9087901744091944
14.9027340886855164	27.0548037062224083	24.3285909946799599
18.3735846172366522	28.8078122952071212	24.6096448344875434
12.9311896671597495	26.7606134587390372	27.3109916142150837
19.0924251594341783	27.9224020809243143	27.2986367048482919
13.4142520924631921	28.7933414445687639	27.5495631185868035
16.8927944563756114	25.8073523283694968	25.4999063533240609
13.6945756304775248	26.3184308483048071	28.7667495691702868
10.6862014345359047	23.9438835628622435	26.1786066352666822
7.1005656091749358	29.8818228800439627	28.1284298534978596
7.3677593456577668	28.7686988030628896	24.7125305281195615
7.9705283696755922	24.0108370249233509	27.8200929192346926
10.5200673062510237	29.2173360736886600	29.7335848488257426
8.4815914452292454	30.4372161259545493	27.7895076057083372
7.9321187702431732	26.1521317564462592	27.9678803345771207
9.2248787066171527	27.6941709631467710	27.1911870302737455
11.1740988734401050	30.7335343412915769	28.1796941220094865
42.1431761033248620	13.9309128149571873	28.9912778067835823
6.5341051659804892	25.3354162521870379	29.1480946417601601
5.8817589600862119	26.8954698511720416	25.5189873311958237
10.1967256689934391	27.8368517865508025	24.9704548946579834
13.0932755443787965	25.7300565011076756	30.4986541929708288
16.3200907582967645	27.5406287650377486	25.0306840739647107
13.9246563382072530	28.6579119445674273	29.6100585162322290
12.5573101572864569	28.1135641780142826	25.7586935989696855
15.2544001223327985	29.8166890056130178	27.1753692432182419
22.7354286871544673	7.6576708002771667	24.4120339859955671
21.6958070266053085	10.4356989350834883	30.2378891354881354
24.4961708421805930	6.7373528416748023	25.3101442720029759
23.6427946166180298	11.2856841562209400	25.4224228937006487
22.8650358328209364	6.0878181553571613	25.5703889790795671
23.7733999493608721	7.0610467814639266	30.0287354173061942
19.7412455871678887	7.3790299931184409	29.6475975344648042
21.4120163342166840	9.5916805462024630	28.2673163057515104
19.6564153214863104	11.9044607573927870	28.1557951091041865
23.6841266937128800	9.0728157471057322	25.9560235009270457
22.9768790456032335	7.4967340692049458	26.5735718793349278
21.9089995969333806	9.4053206493027233	25.2198739333846902
23.4822472193567400	10.2702379545261095	27.3166928792639396
24.4380137008030225	7.7042231974471793	27.7691448198193136
23.3238170555518529	11.9182960764367305	30.3404325847616789
21.3137671997524514	7.6725955772382406	25.4127002933947566
18.6925486115070498	11.0159016056596517	27.2871510697983766
23.0834785175040267	10.4855212764589698	28.8705897335131851
20.1313381634753696	9.0222543243018194	26.5419903158993051
13.5526010265081531	8.9633288998627343	30.2719394585331791
15.3149141593976328	10.8527051285490508	25.0436061736816917
15.2086278232335683	6.2724451895630713	24.5281913712562272
14.7561316528324689	7.7804757795996506	26.9400872906212854
19.5844652760207900	9.5545831729013742	28.5906317348964372
15.3984244180133860	7.1205058792573670	28.7803283436671045
14.5620302703733824	10.0991233191343142	26.8381620253969047
17.4698217002470670	11.5363007415734309	31.1173537571610623
13.4630054612387244	10.6316735336179136	28.5208039457623705
20.6987107018008132	8.6471147443702332	30.0086414492971620
13.2422825208416750	8.7936600037646979	26.3116839229507313
16.6759440358191746	8.5402210556169216	27.2746177329022750
15.7450127336742867	9.2171040673380080	29.1738492835814363
18.3914285061895875	7.8362188721915036	25.8765529344092151
15.4704601138209608	11.8663688365403317	28.7084626562793943
17.9863730935322970	9.5190181846629116	26.0280934127487917
18.2791669722688717	11.5683800712037996	25.2708371229008506
13.3223419692911289	12.3175339450524746	28.8737483729729441
35.5931434314405450	9.7888271779872849	25.8782363996945115
31.2132117544566299	9.5430202416130641	27.1935615415929668
34.2844225760951105	7.7457848646743255	29.3996434837164884
34.9790192328198657	11.8301735343638370	24.7574833551849984
35.7382912366917864	9.9461072532581447	28.0292243958364153
32.4676708029745669	10.2178503829493152	27.8809135025874006
32.7106863064222466	7.9345146669471154	27.8623026330201995
35.8718430799601151	10.0950425320154871	24.1340852003547539
35.7176358232173143	6.0581023327658308	29.6261147319965126
27.9265483173835172	7.6736695002819282	25.2236301459598700
33.2340798694737174	11.6289980528636914	26.5451799521140082
33.3976672484492170	9.3683311072351145	30.7240185659882172
31.4938877735300480	6.9083466530715558	30.6176210060335521
35.3001756842559402	11.3047310088937021	26.4051529062245756
32.6584966964842422	11.2126734459436452	30.8767229950611188
36.1385506469976718	8.3210144204355547	24.1799300211806454
36.3453440602572329	12.7539941538999688	25.8186034508766333
36.2876568416486123	10.6653396766274007	30.2079706666173031
29.4245369278733087	13.0495895041147527	27.0277749425872571
18.2715039158050985	11.6747516454879499	28.9156820437245621
29.6035883606955537	11.8662904698943290	25.5246048744961094
27.9004168916318314	8.1875662410723553	23.3886133559337281
25.9970842536909785	9.5745029834981263	30.3971775379139295
26.7958981359459472	10.4685494193924846	28.3932854124703766
27.6788915802574955	8.7159401154229208	27.7409494707884257
30.5430983560432558	11.2595578175836390	30.7046176065624472
26.3586351669319754	8.3874526476060982	29.2255133448951092
17.0584291048451213	7.5985474248399765	24.2934797675644063
27.3102128019175971	8.7222841544966183	31.0540349683905106
25.6037823875730624	7.6479433950417803	31.1617418687337810
25.9540981099220183	6.8448954972179452	26.0891917540563334
30.6818535141198900	8.8363915875052221	30.5919958125156057
27.6565282569473858	9.6915018337765844	24.5743303000220763
25.9722317571910501	8.3902879061725937	24.5191016549313865
25.2528244511795563	10.5694335373014088	28.7077845177735469
29.6417054329516105	10.0787128264072834	30.4227630484393003
37.8335108292659825	5.6929763758716829	32.4072052335218075
37.1795191421731630	3.3225636575318642	24.8592373430297577
0.1156995674634955	0.5287273221110448	28.1227793346076673
42.8436863891605881	1.9605910940300701	30.0695975244657738
41.6832213539430469	1.9432488432882551	28.2921397541140358
37.3782740748502249	3.3637576739970028	28.3434855513800699
0.0382964662258665	3.4191760558614446	29.3071301731146718
41.6588616193115442	42.6330346329083767	28.0344482087322149
40.3820434101491301	0.9742255739115872	25.6801452917310904
40.6335632042147665	3.1613476545715069	31.8849383362833976
41.4210929789049089	3.4633051464842075	29.6053606103450306
36.8582595582393324	4.7180322480008190	24.1561879962132302
42.3049115199421735	2.3818899936634859	25.9304649504483642
40.9157623947377331	3.1186798604409680	25.7749006925117357
42.7866897193640909	8.3821464697926551	28.1171961457849839
41.6326907844592853	10.9879981002578013	25.3765319222569410
3.8955026637739736	9.2559575719579836	29.6550016149123508
1.1471517319575473	9.4119598870486652	24.1703430304581488
39.3341546793943664	2.9721857314460522	28.9973236682691820
36.3296614543539960	5.4546354568927056	31.0214923279595567
36.8156702463450856	1.6078913039072540	29.4567899675962117
37.8774598942572638	42.8858499898666921	27.6254548620078850
38.0798555508875580	2.1636825266609803	30.4858363955881941
36.9346651959444827	4.7753820478492024	26.5122791622076015
39.8591125354462790	4.2268716041961314	24.2031813255026975
38.1292355611296614	6.9243546133629561	26.8578838584708670
40.2857433291564107	6.0189962054889961	27.5662070646130921
0.4770044955370309	10.9552140538205407	30.2518177687209260
42.8657257300405661	3.6370547420879662	24.3818803796696386
36.6411639899908934	6.3639533584156016	26.4615238647413449
39.7336805373809270	1.4061735107291480	30.5928904238653203
39.9214011635208905	5.2750448125792451	30.7133994818145126
41.5816654138555677	4.8497684051627141	26.5869450740613651
38.5813467377536483	4.4793229796461862	27.4196886838291150
40.2194639745298943	3.9763940161136166	27.7923201007960792
41.9126100488494586	5.3233986750157882	29.6605727668372907
12.1177382049961064	8.1555598431533589	29.4044209367469769
11.3040672523032057	6.8768016460603860	28.7070149513674657
6.4821168590430434	12.1857973050046233	29.3960924832965631
10.7784984627427214	11.3778405703589076	26.7946256567085719
9.3261746105483034	7.8378031547444156	26.2530247627583257
11.1260616112429425	6.8589797586455932	24.5797047388897134
8.0448173481835887	11.3472279544782957	24.3443463736960410
12.3101032584614352	7.2810261797759157	27.3894475811579952
11.3664509080951674	9.2769277011520970	26.3615872295547788
12.7215730722114611	10.5581852982124751	26.3863491997284179
6.3063725447116985	11.9887577630143731	27.7385915121401574
7.6309880996117085	10.4788972819942980	29.9101155076454752
11.1051787112115328	7.5563036326065003	26.3469875758977281
10.0244495371688096	8.6813021507626598	27.5795065962410959
5.9054492628186255	5.9377660589212251	25.6251047417959050
12.2428530957391573	12.1335294895781090	30.0795101040814608
14.8212044861999228	11.1595112403158865	29.9782965119641354
16.3140930865110789	7.8006291997995927	25.8062865270946027
4.1980690405541976	9.3593534150086537	25.8879369617521817
2.5570517026534900	12.4282200207427120	27.8396944466332172
3.4016773817089563	10.6521529486441704	26.5134985714191487
4.5714107604498411	11.0435415573238203	28.0937847301623300
2.4517654009077030	10.9411515934275272	29.6065536071257434
1.1850514328665736	11.5359191293391508	28.1821500957231379
42.5731067027762506	9.2188280469094277	30.1999772822184944
4.7814626956253568	12.1769145852280580	26.3523537672295411
5.6188907801447572	7.5190539552197002	30.9012826072237914
30.9978403518011127	11.4744338398157719	28.6210655422970532
5.4655692524817905	6.3703576092409193	29.0277955076784764
5.7939447568670399	9.6411693017171203	31.0636947899910432
42.8422303498015964	10.8883634420073303	26.6161385896523228
3.5660007585147131	9.2594936900530271	28.0355551330872892
7.7128876063284082	9.2870835973393540	24.8944794664768345
9.8217395967388264	9.9996666404763843	29.1857555226383738
12.3143428407355238	10.4946391144164473	29.7823595358489932
6.2398788914589609	8.2132315820784978	26.2186251634035905
19.9093018370055255	12.1049253612014542	25.8105976985572134
15.4414385885413861	17.3448845485354113	26.2531338075111691
13.2910265869067477	16.4176781705164139	26.0843483153729565
13.4044232018808760	14.6118478705334560	27.5272942591835310
16.5343188018851102	16.3059422839928843	30.3470195838236236
18.8676589722021824	19.0008175232654253	26.7250369337692248
15.1257712834497564	15.9387594074719168	27.7193149651861148
16.7991375016072126	12.6029842139899753	30.1646025134842795
14.1054160045042813	13.5456154422468096	25.6170726351459983
19.1336633151616731	13.6863594522583032	29.6161454058259750
15.3817948038058763	14.7772114858095573	26.6241289174701556
21.7670577034692911	11.5781129064997792	25.1554731733335579
19.6350129847512171	17.2583841631363093	27.1493548000361038
23.8371016725338976	15.7459319914746398	25.5715756654493482
21.0503608883300579	13.7581832384589688	25.1625625033573073
22.6543485180089519	16.3624798127406663	27.9009168449842875
21.2253183611049963	16.9498516912605233	30.1243830364928726
23.8640506670378016	13.1203307451628621	28.7324153425594702
22.4187526358202547	17.0706524013098395	26.4061035067394592
11.3125141352313268	16.7585168036735794	25.0804161457122454
11.3099276984084138	13.3715048809027728	26.9382928849728494
16.0553939292218502	19.4803355289815627	26.0580632498079723
15.0162349416959024	12.6692539889211773	30.8086793563050563
19.2455735811014392	17.6739380472696332	25.0670182287441108
12.8086720274455104	14.0272361072575542	30.5659076313653308
17.3577277680655335	11.6676237820332442	26.6507819841822737
14.6957435977929940	18.5137224088469132	27.3125966097720578
17.4644610272435230	14.6586278620830370	24.2783391655763481
21.2909390709626116	15.1862798198461562	26.4526551490781330
18.3850712129688709	15.7355274335242026	29.8303598714276461
15.5294850372820328	13.6170417674484376	24.7665337370469238
17.6971770836759745	13.6079638576455153	25.4295326952075342
16.4919603127526209	16.6984236180159336	27.2967482286305447
14.6933757799320031	15.6360421115976962	25.0604356269327191
19.7953321800291171	15.6666428443785559	28.7522906413881962
19.3099252201478926	15.8101509462045282	26.5808509402122795
17.7659015596391754	17.0958594052472961	25.6321869296309366
31.2451632279346789	17.9438743333610518	24.5253944510395563
25.3163582782174075	12.4635792026606307	24.5036282502983234
31.5020404609158078	14.5793762227926820	26.1813205535137214
34.3804071652870959	13.1233491892434699	25.8183491589817891
34.0778609425372281	14.7065663042698542	25.8083050349909335
35.6622985863240913	14.7397063798947627	28.9401709057918879
32.4252656128361920	13.1136596559391894	29.1145685433121422
35.3444901216654443	18.4753774083073239	29.8307925550504969
33.6609717431565656	14.8007189061871536	29.2049426085350774
30.6654020751225502	18.1706934995555400	29.0864628371204930
30.7636049303719652	13.3463111246655757	27.9425017413596777
34.7607790037741182	13.7217441529531161	27.3221715967506782
33.0113485500976225	14.4003953368285362	27.4008726544835781
35.7361447634323852	15.3280554943073799	27.1879453856062483
31.8840630022156866	16.3568447878434320	29.2097992870277636
36.0021013411155835	14.3923472356105169	25.7465257803708845
41.6586156687423639	12.1399250343254597	26.6720218902081854
40.9609299861699299	16.1552139161940111	26.3328890144817720
29.4834166348461970	12.3057238394651218	29.2599578896346024
22.0773350667090149	12.9684595785508137	26.1158413560959950
22.0423500504422947	18.9833789236361206	29.2384125189376043
24.6960567726571867	14.3302452430251996	27.2985023536316689
21.6919714607337575	15.4779198598911982	29.6548659197117956
29.2134972727744611	16.4686264533333784	25.2019293353976401
27.5128173949460688	11.9516860248567660	24.6199548648932414
26.4096364909810930	16.9568015373923338	29.2098879751675753
26.2043329831191336	15.3615162572807442	28.8457017809034006
10.3299293824752603	18.2699215827784194	30.6433987561190904
25.9986089453135527	18.7749462490766277	26.6602206702982620
27.5861540551806002	18.0390417746642981	25.6769801572135563
25.9533786774968718	15.8199749011028228	27.2578232763879811
25.5911457809779037	12.4459646555647581	27.8790685987479385
28.0754447310771695	14.4261990523286237	25.8176717091237400
29.7971896084606094	14.9437743611439213	26.7210672243229830
30.2157436395960204	17.2125880729907550	26.4237998183501048
26.3081160444041942	17.3707185237245447	27.5942619016570809
3.6654002908614118	13.6060406483262550	26.2939593162681469
40.0441330006900529	11.0886884036483675	29.3895754963683693
39.6182311520220836	11.4806923662809766	26.0985638037681902
38.3435686588929201	8.1587876177050802	28.9243716082427760
39.4121632496765884	8.8705553268308641	30.3871498239176994
41.6164283911737201	7.2992070813983192	24.7243465877145425
4.9501540972388982	13.4452982427104502	24.7161401258542064
1.3865572526648493	18.1805911039979868	27.1903379805823597
42.9193337881021648	14.0504308912449520	24.0295457722705983
37.3831232803016462	11.7618021212837611	27.2584184714872002
5.7298919193892068	15.4313317778023134	28.0935537052490822
1.2128161145842140	12.5887309865746460	30.4240866342382290
2.5399001606498826	15.6292583214269687	29.1684831081841409
6.4982164885962055	14.7327832548147786	24.7337770719288663
0.7449718184497564	13.7339421144652718	27.7032579145724718
6.0690823457148397	18.5699309550552130	29.4485485362621624
4.8218156565182388	12.5135547145324342	29.3058633023080937
3.3559638370843961	15.4853476677524391	27.0088298722223641
37.9421635978576575	6.3076488372630850	29.9620218105978502
34.3084819753622483	11.2948935257820597	30.8807383472356278
31.1275423187667393	11.4798972662872760	26.8503432715532355
36.5144308866456342	7.7017514185035285	29.9274380224643188
38.3766121782924259	10.3466562641640945	29.6869268358719545
39.4594840726083191	7.2459950106599607	30.4790128957603699
39.2694003485541785	9.5438487577725244	25.9880230793860214
41.8074325811281113	6.4769609300914466	27.9024802941139285
37.2711693000392899	9.8972672507865944	28.3566087556574473
1.5014550531805202	14.1764653970362655	30.4853297593336698
42.8795061118580065	10.4283257928839408	28.3536012878415491
40.2664069204342354	7.9041312248674336	28.6022764494074622
41.3541661141642933	9.0907697467893680	26.1681063632548643
37.2822523921528202	8.4022947326046733	25.4033939150597021
39.0669246800325567	10.8725887647648687	27.9343770204152193
40.8524002127179600	10.6045166736995711	27.2265732424998639
41.9451079289716660	6.9993134761847760	26.3302175271746712
37.2359171116603562	8.1992669883794349	27.3114939172087929
8.4181520536833201	15.2228424011802872	26.0331590847698173
7.8710121066079948	18.8040389746965388	28.7327315768970664
12.2281545616764618	14.0828739677753205	29.0006322080862482
7.5737020659987682	16.5155050270224919	27.3652722162804096
10.9717976134155517	15.2853484397900630	30.8580168731351101
12.3561327677104558	14.6120804357063374	26.2898314517859220
7.8441007127047042	17.6272755330572366	30.3813970535161069
8.9720054079235148	15.0153976772764448	30.1804952405826405
12.0286669991029527	15.7876176463821967	29.7003585071163805
12.4198339000778777	15.9454412464986959	27.9778355041338571
10.1895849033593571	18.5770545225851258	27.7129626738367421
9.6109018468188374	14.3918226624024150	24.6619650108526400
11.7696538420066830	17.7785742443442025	28.8469649131685024
9.0294684261358764	19.5808597489515570	30.0688339103260027
9.1402687633348787	16.7418626593954443	30.7762779365891390
9.5960636307212184	16.8427291711842102	26.7417471121351795
9.9932875207365068	13.3730324438178112	25.8990127016911522
9.0911890942671114	17.0007152891537068	28.8186187910776148
3.1575317132882890	17.2823293164459741	25.7804889394741288
42.4909846540118181	17.3243063231370655	25.9312426341857503
4.1318053103716128	15.9326445022869745	28.7367045593541164
4.7516091239694234	17.4101602725246032	27.0791621514076262
0.3737385372691240	15.8067703522261578	27.0554132348410690
2.2322096212060907	19.0783261035778970	29.3414942774607361
4.7232438432624786	15.6297999761917588	30.3914543890298958
5.0326044152858014	14.1515693370121571	29.7268155164295216
42.7983218287054328	12.7534257643202817	25.0256512183649313
32.9861736059952264	19.2819033510306532	20.0297989463842008
5.7796885557435216	19.2351976871156154	27.8503979207744585
1.3008116604611892	15.7849682533197839	30.9408800408720843
4.7485339639683151	15.3283642917679401	25.4873712959175940
6.1075800040728012	13.6846620940556214	26.6008194696107729
5.8520384874151343	17.7210122469914957	30.7977036853607480
5.7418210707492774	17.0960798327830688	28.4301723074248009
6.5561462858872677	13.6607054662778289	28.5618766213183513
3.5303066961087000	14.0357373057652541	28.3074456628303714
16.1427990119835911	31.6243210317257670	16.3554457387217802
16.4428034882903304	33.3652023647653166	15.7188648793392751
15.2873285264555268	33.0378247299773022	17.7780761974953592
18.5691042221516902	31.9879368214119459	15.3689247270437814
17.5875560019652077	31.7215596486177347	13.0533994927534582
14.1932701600310445	31.7569130138917934	17.7680751060969371
12.0331214636041359	35.5985942257628878	14.6536719638596953
16.2485203405989722	34.4291735279329103	12.8989087826321374
13.7270986978541707	29.5016320160901344	17.8031123068312169
13.3437783621288890	31.2927008289278632	14.5143335617453957
14.3768396071085718	32.7592658038038067	16.0115101684563790
18.3355249438926471	36.8427801964949992	17.6254946345901118
16.4167296646608278	33.9992233456344621	19.0131143698872620
14.2648834651872445	34.6539555956141072	18.3980582083198847
16.9098721831561569	37.2347296104634324	14.7378657929927019
15.9604205294945842	33.2742660647628199	13.9038317157974411
15.3311368110507118	31.7764692888337059	14.8169618518407074
17.7789403436266795	30.6631288833794748	17.0889216237646941
14.2875052842962376	30.4011658256794313	15.9696992903021933
12.9785501282393305	33.4793540987535607	14.5812982004284919
7.6989945370192716	35.4783452298247539	16.6894352070414804
10.5774215899571100	36.0457815314103769	18.1810799783422858
8.3906737658484030	32.5658205562094736	16.8138948711773644
7.7981480214691743	34.0325018370547525	18.0461286977326374
7.3021460440086878	36.1293043656299702	13.2204165281048063
11.7121449515804432	32.1639667992668805	13.1714526461524297
6.6935747809748500	32.8944763202479109	15.4543989439138354
10.1633609022007860	30.9842346794392611	14.4489719693477596
17.1845387902032840	31.8909509723400291	14.5713477239970377
8.1580723664083923	33.6933197259335415	15.5397717888538338
10.8039845958789549	33.0005583366944606	18.7456485273681750
8.2332898672648867	31.3208603693516530	15.4913395666222922
12.1481276271552776	32.4410071132348534	15.5134251350192933
6.2796352240134858	35.9994211561598831	15.2012086897129368
6.4770102391371838	32.5833193319275409	17.4774582593280101
6.2999214790056168	34.3690391343608255	16.4838978168266799
9.8671232342348425	32.2574223793359636	15.9367399436659234
26.9885072767864358	36.5861164496958011	14.4873980200753412
23.5088386494428221	34.2328280355733128	14.1408493294031317
19.5906567442656545	31.7057595649745174	14.0659795713088744
23.6869876928625125	32.2175883635701510	17.7753420621473950
20.6663583572899263	32.8265484191805115	15.6848324329384656
19.7369386386747863	35.2866766955037505	17.1371752604551872
21.6735883032783754	35.8375095879009606	14.0758778869126289
20.7634480502146879	33.8602293106763028	17.5428774289242853
28.6296316162382354	35.7151827868450056	15.8022034734987180
23.9563499620248983	33.7590904730237753	16.0779166335722401
27.5451986683267869	34.0158530597348374	15.1018496698969606
26.7707260276726728	36.8122786510499012	19.2069647817041087
28.9025928696537484	32.9499541876897908	14.5603136707313716
29.7950806094246303	34.1661355866063374	15.4828858652596093
30.7428388782996116	32.7275770463208886	13.9837880125772926
27.2663766597897705	33.3927862391414436	17.5063719786691365
27.3459992121880191	37.1003592733492980	16.5237018030766194
25.8296789112252760	34.4304234337159158	16.5566257995733395
21.7826475622355424	34.7627859372912127	16.4414282372737901
17.6432733217438589	35.0285857064102544	14.3118670466007760
13.0980681411621269	36.7989897558174945	11.9642471051643984
18.0057813019897210	33.8836932661175041	15.4357519237027692
16.9803215605470434	33.5052614526430688	17.2846526493847357
13.2967398014319187	33.7066635957513228	16.9088512291937469
12.8262543023575173	35.7445073522692525	17.7654485091580447
23.6329298016853251	33.0562944518053285	13.0062346384322840
23.3900503136341591	36.0806735873216198	18.6561025150865660
5.6803372697913579	34.4725335469593688	11.6262743135230835
20.0214707657485569	34.1690752222079510	13.9171311666112079
23.7296836465388523	34.9035591084665242	17.2465103775484963
21.8238494177075566	32.4075931149771890	13.5959410399887819
23.0381746630118442	35.4388691338578639	15.4626341971170831
19.6830265089590277	30.8243021278353737	16.3266506704807810
21.2533156467624593	36.5392417130958975	16.6487981670392351
22.6489164755487664	33.8357680906706406	18.5253160858566268
24.3372384994688957	30.7320454811409256	18.4528298135922704
38.0207415085835194	26.8086088674805758	15.8460819512957745
34.6869286636119369	25.7192206473924934	14.5777622842348347
32.1612029667779566	30.5720769066706950	12.5603801555655430
34.2839893617495264	29.9221579030337530	13.4383786110876571
32.2137804005356116	25.7227377840066076	16.0564499877031430
42.7597043355571316	27.0142153165606942	14.3401907737220604
41.3186531475851240	30.1160617241877020	15.3806218282966807
38.5652300658528162	25.1454870847442535	16.0128061732697518
39.6484173128906363	29.8890940545615358	16.4573285847685078
40.7561699212060446	26.4357253434727362	15.9257920793573096
32.0684045393582764	26.6937493610779732	14.7195448778566274
37.9639667372932976	28.1224731961690431	17.4663077882335003
37.2143663108999618	28.6237965351306016	15.4629713295313174
37.0117784214540748	25.7054149699834404	17.4975005740783800
42.3165019498367982	29.8346308305099335	18.0006093042522259
38.4181044629865980	31.4366307482458360	16.7931123625566947
36.1337751924301642	27.4272646541638068	18.5750035473150881
38.7865577591451896	28.2139772311575108	15.3689186811981617
35.9002265906687512	30.2146588968404046	11.7187900570504553
34.2591246222321217	24.4935464750379737	12.9637949747344745
27.9461571953908070	29.7832188984328639	16.7532840228538049
30.4160955494334182	25.4581042038358234	14.5657232272476378
29.9894321495523180	26.1794279045223632	12.7012167150343291
26.6041507315349541	30.3647717698511919	15.4025358712605929
26.4957810243675738	26.5248038009855840	14.4764331885042257
28.0630982052495881	27.3007483396595916	17.1937666264873670
26.4843025102526006	28.6960902398317934	17.2385846917654355
33.6779616682048868	27.5226777627724744	15.9165081053513457
41.5686000309498027	27.0007139807212972	17.4595592408186029
31.4469325493492633	29.6317305063143586	15.9792990939146460
30.7177520034236800	25.3339904078323421	17.6590513558515596
32.6767314598239196	30.0267493595646933	17.9646376460582715
35.8307509406751734	30.2619554539663973	13.9752843540022695
34.2063123881108169	28.8371495600169503	17.3360225116567506
35.1149369230370425	29.1041560356225268	15.5347903349850185
34.2656639658087130	25.1888064277940593	16.4652581625255436
36.2034801594561486	28.8847670054669194	17.2094037295047286
5.4407870072780540	35.1989296707008137	13.3394749917538569
2.7898831974219886	36.5515629751956155	17.1536167585981332
3.3576897944926878	31.9566848310187979	15.1584283772752286
1.9744599019632301	37.0290693524830843	15.2069756213035596
1.7398266982945003	33.9120775547192252	18.8486479001509508
0.7431215677777918	35.3919562331893829	14.3386148246451448
42.9245840450426570	30.4010217128355151	14.0651451146561666
3.1019648610118744	30.7184765600492860	18.0888475609402555
1.2343721163487709	33.1432111939369634	14.6334342229453380
1.4100985817360301	30.7239730065149743	18.5145051469605804
42.8006722616818607	33.5330930710084871	17.7481391032264639
5.8745106335108010	31.4321276291424105	14.0447861787121351
5.1567022536181968	32.9527212743210924	13.9246845978763769
4.2532884929468944	36.8002636411811253	17.8256047663406996
1.8964506810301882	31.1944545378186646	14.4881285522738050
8.8960491322077342	34.7757562465060843	12.2647153245848681
6.0824322051999298	37.2907058630076662	12.2321800708026167
6.4023562931977338	34.4391496963860462	14.4331660617428099
3.2040285603950802	32.8201376582365825	13.8972864708793544
36.6864253503740230	30.3648923971393572	16.1160616851060183
37.7918388211492484	30.2695052771074806	14.6742286368527353
42.4783904067382849	25.3418379959649123	16.7649722267062273
40.5987994913405998	25.2346062519082288	12.9344025608305842
39.2353015016035727	26.0426438235341706	14.6718508597325794
42.9638658189753997	25.3996651702775083	12.9514654010839330
40.7259964541499002	28.3670350324913372	16.0269126761717651
5.3242113519822878	33.6137699800751264	17.5972672239722066
30.7280037861189435	32.7657625945378683	16.9413098080701943
1.9414340239298256	36.9709007823953968	18.8086046343207016
4.5165422185749966	31.0610728543372900	13.2253608513104481
1.9122773536852458	34.2835258056656613	13.2285822233366748
4.9629515246489717	32.5568431786872097	15.6651685158033409
2.5747770203878591	31.4797544620373237	12.7319028829390035
1.0530037628528692	36.1921146984625537	17.0649230826949676
3.9477188255383728	30.4716583602572051	15.7064014826476246
1.3529672350505286	32.3539287117593233	17.4477238310481511
15.3817694849662949	38.6289265545494231	13.5251824621607728
14.2537749671880238	40.0237457304154347	14.8638439010967538
18.5290563062712295	38.1284470485832614	15.7368681298217297
14.2913192655148649	1.2694513042576565	14.9430361648355543
18.2065450795403621	40.0168682343970303	15.7203016167055836
13.7741481331468094	0.5133347071622844	12.7611842523760401
18.7313476987318239	38.8797360132889409	17.4595588690631089
15.2146660387897050	40.8243308049393718	13.7806636268453264
17.0134588722848896	41.5247444184469927	13.4273278983377882
18.4425938635539026	41.4553885134203028	16.7568881413779245
17.0624574831075435	39.3921698564146823	16.6378402048115142
16.4844264650946037	37.6075085771683391	17.7266374798789492
19.2250237821334764	42.1020089495818013	15.4801446196971124
13.4599661967514415	37.8635681286220986	18.2279727109869789
21.0076738275820922	42.1214384531314039	14.0925277705887630
22.8176390120044417	37.5353830766559469	13.9706218095217150
20.3841868668182542	42.0015443832148776	17.2079506353034937
22.0620642112682823	37.2635951967718384	15.4543174943095689
20.3964760432545624	39.0130941270810041	18.6055311391251514
4.4043481431298233	37.8615300358035398	12.6665624204682743
9.2358227339606191	37.4773554161724363	17.0262005097862428
9.1352163838368341	40.6211047053207537	15.4726404766033632
11.0977707511873902	41.0164253436964898	16.4327422538848289
10.7859596375857247	42.3519904195639114	18.2013838980498761
7.7229027155879733	42.4326351434524227	16.2280167798869641
7.9726963220086544	39.0011491511307966	14.4815153835309456
7.4036377338638086	37.4801062505433720	15.8881417807389873
9.3796032307502220	38.9714245030123649	13.8246078266647121
23.3339866276265759	38.6629681873783113	16.0961350797335179
5.8234102254387681	42.0173384058782062	17.0277837699307568
6.4493489494165885	37.7113144062232166	14.0528841431982521
7.0314914119928176	40.3261401101467385	12.5627800497613151
9.2493328194631683	42.3712984587227695	15.6260341488393060
13.2372870578336723	41.3083813132418172	14.7964112949359539
10.8423423439134634	39.1532332298397847	17.4228761612460481
15.9933912785925259	39.8719114754505242	17.8371329735063071
12.2494432110348388	39.2379791992438314	15.0171655306558165
27.6346985348829648	41.4626069164392419	15.2746897124565244
29.6341545901784293	37.9836064694506206	12.3239385003234876
30.4196831353959070	39.8501062792016043	15.7581753282583978
30.7346124401739758	38.0899498797962792	14.2547344367666007
27.6412394744552330	37.3728230426267984	12.7175423857618242
28.9459814581397694	36.3903081616913511	17.5920943493880024
25.0572588810771784	39.3952920949244785	12.7159471622621609
28.3836110395688266	42.2225636882040050	13.1071697069856796
26.5330196878429945	40.7186277252410349	16.2211977588888736
26.5724829874233031	41.7771814870869278	13.7561770455689132
36.0278874087981222	36.9523958199325477	14.1078655149103209
32.7064685166052485	41.3720953479922855	13.6545796575850993
35.2564950652055487	39.6154297814514038	15.6637321966835472
31.8807275442807025	38.3398963044236751	12.6782306593342540
35.5903068073545938	38.9536959695576570	17.4559754511599579
34.0859786395616311	37.4318974487719274	17.1070507554739883
32.1368691201502301	40.2631239032126444	16.5822358915992965
34.3947853551037852	40.4048785223646121	14.4508356821206654
27.4675733957400752	39.4931142549449987	16.7970626013147708
20.7621714753753430	40.5360368965021962	17.8833235902464160
20.9566634004541150	38.8851188903325564	16.2997816122397765
21.1011967005207417	41.4459478105698480	15.7972189846991178
20.6635895493704140	38.0440242644464348	14.9536299484219590
21.8457830932484143	42.6975068174997006	17.5681925277006954
23.6465553885028719	41.9041617335333996	18.0742897312969042
21.8908704855693266	39.9976389799850836	14.5611464837931877
21.9419369200866647	38.7969504973649038	17.9566004972367317
8.0106194413782674	37.9196400794343731	12.5477917817220579
24.8580274448454261	37.6476475693149837	14.3655327335577994
29.3480555471614402	39.6721112963248359	17.6312560763773085
26.2152610161179034	38.3969408620385124	13.7958746041636289
25.9323814333521838	38.8422092762440769	17.2578807813674899
27.5818357966794423	38.1894629858774479	18.0279203144520643
30.0235972785511223	42.6334191557055817	18.1161805759964807
24.1222099407605768	39.3864383117233956	14.4861667305106945
29.1239163371366807	41.3429951646338054	16.5583476625939170
34.2547460510268564	32.4085884045311658	15.1202919213487483
34.9686832535007284	34.3244602969870343	13.8113399643622703
32.9681776800711930	32.2962701510955839	13.2207528590956453
32.4271260465742799	32.8085388531559943	17.8014543005013870
35.4596190700517155	30.4749917084830884	17.9565743359427756
34.2349195898829564	35.4130366647286507	15.8178207893477332
35.9671963264779890	35.8955175191680311	17.6006942207216355
34.7845379115166935	32.5801770935076860	13.0994986710379404
36.6620170372959464	33.0118551271879070	12.6763730575423601
35.1948627597885988	34.1293121710575420	15.9604709033210206
31.5903493132517355	35.9270212929246071	14.7905057119200869
32.9431077604948115	34.6156024343458739	13.2735192214669908
31.5547237459243526	31.0663193433065388	16.7000064278952323
39.3032916281694256	32.4973697975228717	15.3622691742365589
38.0403217964505487	36.6336493062162418	14.3988567040349711
41.9292693110425247	34.1516102699872164	15.6329560960739915
40.4569188349205504	33.3850300378910916	14.0853211682200108
37.4895688460109824	37.5965390437444071	17.6632205161618145
30.1994431632868299	31.3538366128788510	15.1619589589577206
25.2354177311660735	32.7928324050193680	17.5897269259945723
28.9378914676264039	32.0607291824944980	16.5517384662365572
30.7827595035542139	36.1098656976844694	16.7026677980430307
26.8408851155237755	31.6729175850812830	14.2961488321505605
25.5658253601922318	34.0069819368475095	14.6975629994622761
31.0334257391556179	36.9042587735789169	13.0592382148078858
27.9989917272347526	31.4031766448985508	17.5155142945965139
28.8071636020132331	30.3296070642776883	18.7418878842277081
38.2356094649473874	33.1792749173587609	14.1292258181253612
26.9242862703094694	33.1132605215395017	13.3023136506000679
28.6260241239191906	30.9541001876550119	15.1489858780532742
31.5513178024153298	34.4233058559591143	16.4619511358392678
33.0846897450816968	36.4521950468682761	12.2783609578347335
32.2939002943863258	31.4969838783333635	19.2301444278436904
33.5745510043495869	33.9997805798635113	17.5037424159740702
30.8888119381277448	30.4163593412218169	14.1009915447133647
34.1065523779262705	35.6243956255813643	17.5878111196002784
5.0441311735395065	41.1595903306116142	12.8158323240555543
4.1712062591680983	39.4243396941484079	15.9801811635575497
3.0192144850303624	38.2418040470369434	18.6650312323658518
4.1711349178848822	41.6513417667605239	15.8591435586266538
1.0520509861389891	37.5103408014115374	13.8476556366501491
3.0750214176406265	40.4957591438596438	17.1122476620754256
2.7238881140565860	41.0578323202080711	13.2675365871533000
1.1737699645662216	42.3211315300085857	14.4088866721895741
5.2394512342206268	38.6184554398366231	17.9995050182300815
6.2358188397370773	40.1994400007017205	18.3612188319233063
4.7158860600138759	40.2458506897886110	17.7341875280621295
4.7256722594829430	37.7295162179362649	14.6649838455415775
4.3533426673378184	36.4932026813562302	15.6275720469572690
4.0679458713520225	42.1636014031872293	17.8614108420711268
1.7002960801741038	39.3276824760401666	14.4798948702252837
10.7644733760901712	42.6799627078743526	16.3855468237179238
11.0008529057603521	36.2890755381121366	16.5611822033963207
11.1033992960234364	37.5890569649737714	14.4349570943319456
37.1314233465897345	33.3959738202828120	15.6685210673000679
42.0298282549882316	32.8131546314401561	13.9831207320008062
38.3929370423770919	30.0424173886828996	12.3743499713520801
41.6420318905819613	35.0287771498686027	13.2427259099293071
37.3122360391838939	31.5966874581091695	15.3442759268944986
0.0787699583821636	34.3908339372559411	13.1092617716221547
37.3718390322662373	35.2520416718804768	14.9648469918754543
35.9148405651913194	32.9315418804593207	16.7239385762418564
37.1485427124270089	34.4143127275834786	17.3533381913189118
26.2210173486560798	27.1986355189846876	18.0809771198525624
38.1263092710421532	31.5869267617445324	12.8727876986211420
41.2832811477123656	31.2419624518727694	13.4498557371819167
40.1534850869821653	31.3711972474388681	16.9684979619730569
38.8806449362969460	34.5445664504129937	15.0817003489871304
40.8744645399452011	36.2802941268389674	18.7982350302040970
42.9752651906251870	32.6852932717901439	15.9190497217292464
39.1639843494976603	35.4335306470299258	18.0786741339171115
3.1862909371734647	38.1231175968622935	14.4152028295838566
6.3541585370007567	23.2493193266736107	18.5527574020375070
10.9852909144925359	21.7633056897428290	16.6878104307455821
10.6105813481587195	23.8820440229130853	17.5119664464938651
6.9397995401791226	22.2129239386303219	15.2700271721692271
6.1460854188804284	22.5707535004235460	13.9130973616612650
9.1063604712421444	20.2914236556783614	13.9054498926173373
9.3645111956209188	23.4619914599138966	12.7088903790290626
10.7946154987933109	18.2432611826722919	12.8187119993991292
7.2209477165033524	21.2600218771336991	13.8728408980256486
6.9406287594064588	19.9292395299261962	15.5792377098371979
10.1909210970412900	21.9212693460946930	13.0230785412844892
11.9475253358763904	20.5058756532400608	15.8716746307954999
15.3448390503017951	18.5358190922434183	14.7373722606275823
17.4912304978854394	23.6672409459164683	16.0362416387927809
12.5753869151377664	22.5407126545401155	15.4339158553067346
17.1511990909395635	19.5913581072486913	13.8749206785977410
17.0529289127929609	22.9685768586835088	14.0316780704010320
12.9065287221530696	21.5582691079091333	14.1778923838755251
12.8053177797609141	20.6135315021950660	17.6274665010370839
4.9759226810150370	18.4835271348198305	12.4769223433202239
2.7998861838599569	19.8509263151662516	18.5217993677379553
5.0337123013395182	24.0991898156258166	13.1272276368647685
2.2486069408634157	22.7155760998331964	16.9174093827360785
4.3379163776558363	24.4439121177959073	18.8749179724629741
5.0038507512824424	23.3535198915723363	14.7336363252683764
3.5220900991927477	22.6451909865571785	14.0653623621373480
3.2518002674821243	21.7544540617646938	17.9155113504671455
2.5490515195585695	21.6499744371536522	14.8914082989376624
13.9946379513256538	23.5677485717529152	14.6250520075627630
3.7213738016895261	18.6949835262656556	15.3238207837637184
4.2030162155620188	22.1188976052812514	16.2257665597248071
5.4588989724021877	21.2874451176394821	18.2720611550890411
0.5677663707203130	23.7000848711187295	17.6051454465130988
3.3900840559546039	19.4963648029443490	13.7082404999650347
8.2417976062928631	24.2243032669950331	17.7876307360947727
12.1949761109191499	23.5345280261347725	17.1900993520058059
10.6417833897354761	21.6680625779838927	14.6098583806314455
21.2266795942054607	23.5989487986007909	14.4795213010533708
22.0763570358304122	22.9181012026858824	12.6790745008458572
20.2617934162427709	19.0186742289466189	18.0329231383372139
23.6267116946643796	18.0848581399553048	13.8771895978338975
21.5916507650831484	20.9509808469663135	13.5042112019026135
21.6012551062273488	21.8836881054520660	16.7329204780603895
20.5488812391062012	22.0368593248461373	11.9653268568295239
24.8437201550771860	23.2794443713025920	14.0659375681640739
22.0193687959172522	24.0306956062353905	17.8481260110403497
18.9336505080115707	19.0997638795788234	17.0744813076740449
23.4135567133683153	22.6082475698792891	16.0971941802403435
24.9589590562328141	23.3898050431737090	17.6348529248652994
18.3104473258935236	21.4619983221201558	14.2780169360259155
18.7313886104761131	18.6113864248321015	12.6791030013107324
22.6456346146783893	22.9045780264181182	14.5794087529759739
21.4395000613327795	19.1308312103554741	14.9069857784162707
25.4099985887931652	24.6397256322788536	12.2208089159224826
29.7620078599176736	19.4165372812356374	14.1756975875421869
14.1941995672762733	23.3303889600902146	16.4671555428937850
15.3238437539507100	22.5078420251065232	12.6439219595300134
12.8050869016787505	17.6720373956076457	12.4231573482236453
16.8291622537904431	19.2988319199424758	16.9223736851281217
17.5273330196385437	23.3983657900901854	18.0602427873081126
17.5194465897350931	21.1195142050615026	15.5356407932968121
15.9220245995760852	22.5286974728701246	15.6876649911623254
15.6257904372459215	23.8155812423568136	18.1689300899039239
13.9060436863839136	21.0986212260572081	12.2940135814569906
1.8394586174818102	21.0528823569403158	13.4107477303304545
21.4571376148443598	25.4314640043635940	15.9954250699792109
21.1552640493264370	21.3181438078063188	15.1472961899697580
23.1156333797922073	20.4782705044737448	16.1136813621452113
25.0011067573270935	22.8137434355830102	15.6000051398678394
18.7699269058624658	24.3271813193655007	16.7522925973003574
22.6169351421241203	24.8730098697786950	13.8232075061076110
19.5215840804249190	20.8282195166826831	16.0740400716655607
21.7868989021468629	23.7723346140935092	16.3289161610267755
31.3556038061788627	16.7995008205004517	17.9716992678001368
31.3965956692375379	14.1872594310682789	16.2822443470459390
25.2166931861397501	18.8595748575207551	14.9689864204543497
29.3923946066840820	15.1157242405413239	16.4469392686675562
24.4330192568718338	13.1836862299682043	16.9446201838986923
25.2372863019733167	13.0044618230007742	14.7082335163803624
25.6065892869820750	17.3353755314556714	13.7715706609885089
27.1879033054800097	13.0791640696947997	14.5137045147793007
32.1155359921857624	16.1434530200651416	13.6247249009199844
28.7512608633853048	16.9919444181042643	17.4778803066834563
34.4803151780750099	13.1694476007599270	16.3322658130827776
33.4831292617990286	17.2556787555777085	14.9209314737765020
36.3750044667394334	15.5475322760611672	16.5604935120105949
33.8968637108767794	16.2427703786319277	16.9880515170409119
32.4131733066774927	18.9843812864177970	15.9121568464753249
34.8135437904665679	16.6327712768983780	15.6982734170947076
34.1606781389560084	13.6883978612202650	14.2810153854960475
36.2633810374055017	13.8149255007568694	15.7703703490198635
29.1763158740056632	12.9563423388428873	13.7792794649250432
28.6760332901528123	16.2324252867994510	14.3543776184268914
28.0303582260839619	15.1997951502444284	17.3609868424676499
26.7972322036762733	16.8841059450974136	17.2329764740746683
26.8175571758533877	12.2216655280348867	11.8106936827085747
27.1163857425963855	15.1973808878010921	14.8174406209414951
25.1537942177400886	11.1123414722988567	17.4919615199085818
28.6742864180772408	12.3737231302144401	12.3339176983027876
27.1697572925078354	13.8201338548513544	12.9677074747605321
30.7931035252605092	13.7045464064887597	11.8769459854587556
26.3336547144086204	18.4694285045740720	13.0123368259396468
27.8360171713064481	13.2596683820843086	16.5473193642645491
23.3562587439881639	15.1474055437247603	17.2970314342232001
24.3021717677045039	14.6710169214525319	13.3775107945318990
26.5046295959232374	16.9267971378514801	15.2398705689679392
24.3736477093254891	16.0763204085822196	14.7170495649324700
24.8479512708112757	17.7022993447066384	18.1837669987652184
28.1584506552282825	16.4765842555353821	15.9027253176215684
1.6013548008873684	19.5065838890361860	14.9534672892722025
39.6482828381580177	17.9651944707041373	15.7430488903529007
40.3803614204172518	16.7449891313223240	16.5482918567257222
42.4199964489599779	13.3388675119882265	16.9940684099561281
40.5528760209155479	15.0216596190146863	18.0048217259754466
42.2512678614294188	18.6992680181378361	17.8180382357637725
37.6564154686151582	16.2344723454638746	13.9045461598216047
37.7249783646705268	14.1263828006553442	13.8865010568197800
39.6358462787756380	19.3014203594791844	14.8248059744795313
42.3768906784288433	13.8630932691665389	14.4727363686919617
4.9333834302692159	20.8485858187111255	13.3770811278872550
0.2653733899930723	19.3688536476221778	16.0534409120578125
42.8895831142001143	23.3780116741974666	14.0938761901206302
0.8657008944744493	21.6974916985103015	15.4949544020304533
2.4217154034919783	20.0961857721850556	16.5446585448608374
1.4778425225668872	23.3461618230836585	15.5171854204679676
4.3386824074737298	20.8351866948970716	15.2579147861355473
4.0739674730662623	20.0520241582008509	17.0251338361064093
31.6766545866513951	14.2214490584254776	13.4479645379703587
33.0381945532746926	15.5396414927480873	14.9324630596571577
33.4778817868865985	16.8121446650904041	12.8982182988729353
35.2215964750313688	18.1491031460716634	12.0592875852918482
31.7820889551066799	16.2061450702060590	15.8398682814253231
33.8974519205561009	14.1262236963031764	17.8848480749552934
32.6346911294305642	14.0232500572748542	15.2577795318507583
36.9226030644879515	17.0766274841593990	12.6669915908606647
36.0522493012660732	13.2532696300652315	13.3645930944570157
29.1034887482972913	23.9749918859102777	17.3612908354316424
32.7475930327665736	17.5828760938188857	16.6977968221327622
36.0617682041485637	14.7439907847825076	14.4783648719159341
34.2415826552544758	12.4772613749623318	12.6814906272495413
36.1144352633152934	16.6781639632016478	17.4351678225381868
35.9017076912912572	13.5635594876357359	17.8238757720583649
33.0437993929726446	12.6762511790945354	16.1864552796972490
41.8790134724601373	17.7978660373944457	12.4780792561972920
37.2122128342675751	17.7140397815851607	16.0163114870503271
7.0859672857012352	29.5101107096528992	15.7482377956049273
12.5403709414968887	29.3838546156432301	15.2202841230360360
11.7571965989318148	25.3460158439748611	14.1046596910224853
7.8356004172674112	24.8469446163508749	15.8412285556015409
5.7936892232266217	27.8399903215754954	16.4546739097473029
9.6355134407071485	25.4046844255025484	14.6252934424999026
8.8221926373148580	30.4604770940455118	16.8294668878046387
10.1558288083747286	23.7798015263691411	14.2799785991311232
10.4146829583780853	28.9046502622856600	15.3534492116459340
8.0803211765970886	23.4226209089277049	14.3862636239318054
11.0777545732822951	27.2669227154005398	16.5307435872265316
8.9381481081421708	27.1766559862678498	13.6258684160557575
7.5203579118225719	26.4194575623523029	16.9634302184013173
11.0720164195500494	26.6057360235234519	18.4431316360466262
9.2447240101726198	27.1728711661670594	15.5717960180592971
6.5537624086974473	24.4141197880408924	14.8524124182712018
16.1844415757941675	29.9925224490435518	15.0888889246043689
14.2450240759823714	27.7299178037114764	17.0449656525678073
12.2369036705152396	25.6112276091763782	17.5805333130410766
1.2379195900642344	29.9089859519609220	12.8070308844692864
1.6541477202726274	27.9079457244047227	13.3527901257420769
2.9405015431642156	25.0064520725435848	14.5637311000239329
1.2248786144211794	28.3154451183178324	15.1028000253459158
2.8769064259677704	29.7614431592112929	14.5171291799042788
2.2336181318618151	25.3869282172374042	12.5219330242569900
1.6750727910196690	25.2639420694913355	18.1355924443504755
3.4345343188387707	26.6263448160986478	13.5028634001030063
4.1209570254000258	25.0595101088109189	15.8514321935368105
16.9536529166791503	29.5357483197746511	13.1766219302378893
2.2493277457283503	26.9124581728119381	17.0338654543660262
5.1091602119533395	26.6304025124122390	17.4012975820030320
0.4130796895275485	28.1694372790777514	17.1734192928321256
7.5496206368317509	26.9478548467196255	12.7301500870560371
7.4453689406693524	26.5643815470686810	15.0275062259829433
10.7784794276281346	29.0017888921621214	13.8415228826219607
9.1924233200593459	25.0912773280359112	16.7685260801822800
10.6235920384532907	27.1346030162438687	13.9888222987869977
24.1849083803377489	29.6112333584422665	15.0300072897851233
21.1063943691504932	28.2573078559315825	12.9131541751450492
20.9368041086239423	28.3788101956408632	17.5778320023830936
22.6076483511375699	28.2464854459232519	18.7000350974807965
23.4751274968319734	31.1242388269599424	13.3238319859814567
24.0017601536082168	26.9365504013213624	17.2599553827396193
24.8889946206386945	25.4934128098904367	17.0700502207000930
19.3650628126076860	27.4254502943625234	14.9025852280681068
17.9288220145645063	27.4392635582623896	13.6289079300686389
21.6604698484542801	26.6762524012702791	12.9072525665516498
21.3262983816441860	30.1739310749176965	16.9315987306171643
25.7851747131864251	27.3047305129495648	16.4719344177025455
20.8579514414830456	25.6600235565331509	14.3900052083838315
28.9422445341261252	27.0097285767954780	15.0720481880144064
29.7155460100013684	28.6681751123660504	13.8541408639996870
26.0200139006092357	28.7048890624441668	15.5765782077626564
29.7254348353355944	30.6488391202613997	13.0968898394023103
25.1878824585211305	30.6483844816463744	14.4226010218259351
15.9061165970960836	28.7119356597743192	16.1274618340000728
14.1549029739183769	25.2210804816755463	13.3506163687822514
18.0075644289363552	28.3976949701219610	15.4362568351591847
16.9606695539300567	25.1869811150463079	17.0054175859328573
16.2847653621497415	28.5348952909991098	14.2260502636031276
15.6449695301460050	26.8638127576206962	17.1978485797258642
12.8764900736576227	26.4445910923478102	13.6182888989197348
15.5941148280318753	23.6947123012474989	14.5040778619086694
17.5593592448618310	26.8714660389434634	16.1480193169347750
0.7883436370160615	30.8774566424327581	16.0169307919243948
22.3149450510504970	29.9131834850016247	15.3566664901023238
24.5767729243002861	28.7325267235488653	17.6352393462838144
21.7240265943289934	30.2142273246863127	13.4461152821901830
22.8948374837598791	28.7672083638837854	16.7721518438746671
22.7646038029690345	28.6110397837320356	13.6406311108568943
24.7420053011950323	25.7314293677905752	14.1303013695456823
23.2328656998681673	25.7851880121855075	15.4864652164685399
21.5916717822561637	27.1239681742915941	14.6976319376078113
36.0669174091849882	19.1742450676693821	17.7067068713071976
27.3749595740296634	20.2493950857683700	17.4264064343138649
28.7418324312535525	18.6529452301629739	16.8774466038936488
26.9729900367083744	22.9531894571692447	14.5679955711648343
33.0450815380378984	20.5821807065292539	17.8966001536802466
35.5492817409475776	18.4769192127461466	14.9898805564368889
33.8480976442504939	21.4501201613124337	13.6690528212125528
34.9618137945858649	24.1815485175877996	14.8427377109807654
33.6277057517979898	23.0025537456827180	15.7925260485617436
28.2920912375088953	23.1013392507479907	13.5935201084320738
32.3670965210052088	22.4812705607836882	14.1233335668405982
37.5145735500568662	20.8724991841405512	17.2311708280737115
32.6640780576300926	24.3459742844806470	16.9001997636693240
35.6214682796377318	22.3796507425234878	14.9080068842114635
33.8541791864705814	18.4037852107178850	17.9019482213271779
34.7149361660355495	20.6056920148205371	15.1686233498391765
29.8779457078334225	24.0796029757853915	13.4491362921464024
34.4493972846817442	18.6998206531736599	16.3122104272815598
28.4267190583902511	21.1873209558214235	14.5554343905371599
26.1632289674852068	24.3710267637541698	14.1152622027897827
30.9549936806235486	19.2005934063617723	12.3830191709746735
30.7315077385574220	23.0729028619986494	18.2980402233923094
24.4959769732654316	19.7800594093554736	18.6838666584766457
24.6867749584435430	19.2786604224494482	16.8172372583513656
22.8833293073120139	18.4735095755661582	16.6151368468370499
29.5463936512358636	19.6780658973644513	18.1563450300821607
29.8636675558452573	21.7533340139411138	17.2324191374641629
36.0731622954465792	20.2007740357110386	15.9419659747985367
29.5190183745006784	18.1133181663565317	15.5696864188121857
26.7011901196231847	24.3123846795514247	17.7037370437939998
29.2519576173939946	25.8420108959764256	16.2742091429211868
27.7941015275802066	24.5011159122992872	12.8634335134527671
30.0440748125867891	22.5560676259060173	15.2979643056998409
26.6933032153190410	18.7849104306518839	16.2978704026920447
29.6353570280075473	20.3526840738450510	15.8752415247151131
31.2354811564577943	20.7143549225104557	12.9696142404004995
4.7845642766280214	29.3352353272001274	14.2862440334030580
41.3440962933509937	23.2667791749895443	17.7373632932239786
42.2416669350339262	20.3345872783238235	12.6573068382082390
39.6622614189099210	24.5202823737351885	14.5233033757719046
37.8909586415660442	19.4223772639865828	17.2024273105667262
38.4122953005860666	20.7098832575089844	18.7375229774131142
39.4223643221541238	21.7319280063203699	12.0786442824060334
39.1412688013536822	17.8029354868897123	13.3865362422830074
39.9556614681557534	21.7392079739384307	17.9082592271340317
42.8053609322471189	19.1702852326097002	13.8146877806483364
0.5595120228897957	26.5176585827925742	17.2858011003590981
6.5561494823376796	27.0914623502743410	18.2027042549152682
3.1803481331654782	28.4810399959260003	15.6181585786183064
3.7132493306206293	28.1946581152815483	12.5135137351397407
1.5035309565962349	24.8919241341163975	16.1532218043002906
42.6008116410351079	25.0676545954811587	14.9417416941936487
42.3982835218034566	28.1444686576426903	15.9273339089367063
3.7507427348833962	26.6122734276545216	16.1151183607961705
41.2457754622579387	18.6775714332723375	16.0232162038966699
32.7309412297346469	22.3289852486400058	17.4047072038051489
33.0672395639608965	24.3646383510956923	14.8347718679935188
31.2767458464929469	20.2350902884634678	17.0809483679803655
32.8113558497271214	20.8558419424501800	15.7867926271618817
40.6493725492712557	20.9469950317301432	14.0428635407422320
37.5155222693498018	18.6678423025435158	14.1680832425812167
39.5386547253425960	22.4257173829855958	14.3734993758369143
41.2576853752081476	23.3545952728035857	15.2821725984321315
31.4859194286716573	38.0511399491444564	15.8613322847841136
37.4157165128673981	22.0968513055989639	14.9355589184574686
38.5433497330077230	17.6280656611423474	17.5937905415619475
39.6937589223553502	20.0671471781192388	16.8231170348905330
39.5126851475426264	23.5776950178407674	17.5054440584775541
39.1580245489956766	23.1905494184220586	15.8253968123798732
40.4060517178895751	21.9072484159307059	16.0692731355857887
42.4665658767473886	22.2209843686626485	16.6723885829353620
40.2500804400765304	24.9619918628952568	16.6288318226743002
24.2247093564046345	15.0011963010234695	23.4170663486631376
19.9744871307341114	13.3779823437748995	22.2594738191226860
21.6354330402834414	13.3637186374572803	23.1865809982117348
21.0194188895061913	12.1511673131951223	21.9146239564904945
22.1152311453735280	14.9751394751030826	18.4740900435155169
22.7428197002394974	17.0635399268924886	18.4641072544936549
23.6410265972807316	13.5178931146157595	22.2196825285997974
22.6521593656186013	14.5404178600867340	24.7655614054970776
20.2174828018594894	15.4249366412002438	19.4316177849667575
23.3047405448206639	13.8737192741311439	20.1149000496860886
19.4721079597027220	15.1006797816260185	24.9664279774694329
16.8710245136416113	13.8859138527939994	20.2681675609473011
20.3566405571701416	12.2417339586914693	18.0373189295295866
26.5773712932327868	13.0722721891329137	19.2280178893373481
27.6557997534436879	15.6183209952890554	22.0213817385964497
28.5730546219598551	16.4072148173831920	20.3823293945447190
28.0969683868452087	17.4651629498905230	19.1897221085666168
27.8580020311486614	14.6519418415422340	19.8822749608215581
27.0196073502083216	12.8501107333038647	21.2262328147881796
22.9632067229410097	11.9427451878730100	22.1987438997190836
18.3926091854315992	17.5779589297246943	19.4038453086517002
13.2204228989279784	12.0919932120589415	17.8161290389468547
13.2357665626314471	14.8473879477810229	21.9513115369288627
19.6459771883310879	14.9413881789463510	21.1643871841176150
20.2250881440147090	15.6065545509743657	22.8205057024942342
23.0059916585844100	18.1528102544301113	22.8282125037010815
23.2026092021773920	17.8615013008257151	24.8692844592009124
22.9065319693894338	17.5685126593324554	20.7109585424460931
24.5961041056757246	14.0215447868783780	18.6257459127558995
18.6227150826235324	14.4727933662851420	22.7114159235773982
23.5679632903233873	16.4832504353901292	21.9043208902994344
19.5700165967400075	12.5097215652732512	23.6731819276255067
23.1315338318799029	18.3953687398287187	19.3350659953461097
21.0962138394362917	13.9799291227480467	19.3237974539965904
24.8573441839891487	12.4015277374673474	19.0429672709311504
20.9022872949958831	17.8492931968374187	23.5004853540478642
21.7614410151328066	16.5113188681933210	20.2760860532509781
35.6983912934806256	17.3239424012154011	21.7332590263004199
30.6584923159879921	19.3877637221942045	23.5732190597679114
29.6753863923135945	15.4608605119995151	18.5849226114960082
25.1101735799160117	12.9684972860386623	22.4457874708470300
27.8937117654457154	17.8944781454154231	21.9242755612467626
26.2818955007412747	16.2704069918093843	18.8835389328365260
35.6666756202050550	13.7233602985818930	19.4564414803240808
34.5046990681264489	16.1438192267636076	20.4510189860270160
36.7861463787240837	14.4804074307883131	22.8837588151994744
29.7486318168701906	12.9754099319370297	20.2408227806526035
31.8443520737087340	13.7124130669751434	23.9526084125543264
32.3374736271623888	16.2056633747240788	21.4253892208197136
33.3744188010432623	13.0889613099582647	24.0980065005108521
32.8164970772810207	14.4642560111646308	22.2180899258234348
33.7310769594293305	16.3543668023537840	18.5584369032692393
35.8696601355725875	14.1365444019766393	21.6014624274271974
35.1067666454617040	15.3095707897821693	18.4077519471697499
35.1847410775817622	13.8179170055916547	23.9824373088091036
29.9506594262903221	13.4442969019217902	22.1904791141305076
29.9693292973575822	17.7934366937743604	18.8082831140946460
30.8831938343588206	14.8013722720521859	21.1374346004739309
30.6345412722473611	16.8177499434277777	20.8451249974834134
24.8260387616138587	14.9080029860981824	21.5555439097100958
28.2843773037347184	14.1105635692183107	23.3034307692199789
26.5778412505100832	16.0660023234285703	20.4626596361891160
26.2131363572662437	14.4902468679987404	20.0211032906351569
29.4084195537900612	18.1614325995248755	24.4428653969885943
17.8423156072595006	14.8425003279454373	18.7040660744229541
27.4561993029927542	15.0687915250984137	24.4179751746316498
29.3313295377949075	14.8750109727940139	20.6151215045567042
29.9197514560558773	14.8649053293682112	23.9327618908638513
31.0211885333288535	17.9490064149188875	22.3749531701656572
26.8874652845676998	18.0932408818904982	20.2571764182407676
25.0796310524543493	17.6550236577206761	19.8480378347321746
28.4747721740420268	16.2122735802984614	23.2993804080945388
28.7138460102731372	13.1052923084149811	24.4041322320606966
3.9022585548235487	17.6716259979766512	24.1164301239447134
0.6819549444119266	20.0169344006966980	22.9045361063264359
2.1858735557699922	14.1232034565233473	21.9351573108044207
4.8383633266733916	14.0623528448620991	19.1334973065814005
3.3489719885494695	17.2931486407989112	20.4002187053413131
0.5247355154737998	15.4859091393983377	19.2094549188063972
2.0510819526832771	16.3857857558832336	19.2449566159608061
0.0134548230114788	13.1272631121564931	18.7407388562220483
1.9337940578316279	18.5371982018462695	17.2528814494177141
4.7803770952136011	16.7964223720672408	22.0689380643145761
4.4354285409609027	15.6712699877898913	19.1896646007592260
3.3877487133334987	17.3007503213801144	18.8680622952611792
3.9795526255117042	17.8831706734211586	17.3883571993871691
5.1907365488282062	17.4278823009148560	19.1135640854264963
3.3702619053321312	13.0922875374136840	23.4411870715440216
5.1846421390241710	14.2719750837525758	20.9704017533106324
3.6733644496465203	15.4766717888845289	20.7107111951928573
1.3445695602763998	17.8281920632064406	23.0761793478458088
0.9623108754960241	11.5238703133921447	18.7160620671006512
40.3530780483759699	11.5495222324229179	21.2276634080734290
38.4736155404107194	8.7621582785162069	24.2260667145766178
41.6463384941438619	7.5193518849418854	22.3259827369842512
38.8129390649509887	8.4329955210332468	20.9164066657388190
41.6375070652863997	10.1998548642854416	22.0152666030177926
37.2887681186271536	9.9886597157890424	21.3918879032391622
39.2277577355480389	11.9877033133231787	22.6673406863745299
38.8911861706754536	9.9047930333792991	22.5792772365714498
6.7114680158362718	14.4520803951547379	19.9323017318052322
4.8776707169909042	15.7209142637691173	23.4610585033422723
0.3722781713709619	17.6577027702991707	19.5482185971505160
3.3369210552379545	12.2936461050445907	19.8007907863411852
0.8197886375351883	16.7139693374524683	21.1602300902374196
1.9961179889739029	18.7280253275111725	19.4559718490582263
5.2475246007326080	17.8607289758076107	23.2633950413247561
6.5409674058115854	13.0588802355961775	24.4809152711284597
3.8715992109582724	14.1069075035159184	22.2397783788682268
18.7433119626969358	16.5145700128154473	21.7094716703584716
9.5661647871050111	17.1657212251454894	21.8922062100156047
11.1818478341991021	13.9696932101824629	24.6122858097625432
8.4171801228355161	16.4520006140493535	18.5154742113633723
6.3474665692761887	11.4444391949287514	20.3565556703652994
14.8762537608012586	17.1030517674893474	19.4643608316655978
16.4666781911059061	16.8355024576118026	21.9091405595810507
14.0265963735723709	16.6420175643553527	22.3397968348956226
15.3173663793008306	14.9449619589916622	21.5470621956975776
10.2412271883667838	18.7631274601902476	19.3324083859270957
14.4572704341024263	15.6888325311325953	18.7595153472609688
16.2544196480891614	12.7870420239430835	18.5389621068803727
12.5241397966691235	12.9246005347440196	22.7784713897833342
14.0813811673471641	11.9587828959947196	23.9963129768815371
17.3652296320887665	15.3112872286588395	22.0112789474345938
12.7946345265511585	16.8781856969093980	24.0222670365670936
18.1330952301765578	18.7520888979079494	24.5013960400885011
18.1292754176553430	17.9821706386845506	21.4392397513735915
6.3479447851929631	15.0636387896820008	22.1036350244473496
8.7753124018113891	17.1853943284628876	19.8646114957969715
7.9011585124544466	15.5039818620114591	24.1371764589917213
11.7746517728003273	10.6799041251996663	20.6242123806042059
12.4969737923208921	14.1386860073255249	20.8355086904503750
7.2771265826881750	18.5222667940413679	18.8772786252581071
8.2972286213415352	13.7528964322471303	23.4490000814028861
7.3370466542815960	17.5197833796985201	24.3031382721127223
8.4801440825219991	14.8964545347350317	19.1881845699701330
36.2890005667718754	15.7039259893363567	24.1466204334868237
9.7836757250448425	15.5893317610573323	23.5150037463730222
6.6496270549760279	17.1065363339888847	18.4665726708068192
10.2891349582151346	12.9094031035030774	23.5096042286049993
12.6133695101345218	16.4836182833253417	19.3186234674811317
8.3102806917105614	17.2076855917805389	22.9518723547314352
7.8376839049945550	12.8538709491987433	20.2636901633453910
11.2369636132213024	15.8117910377596420	21.6414634209818040
7.1128120215485833	13.3902959366534819	18.7050444303039036
23.1739749515194369	23.6518203438651717	19.7404586132582622
14.7316553523154354	23.8546703403920475	22.5796839775467504
17.2825068298159117	20.0993224797681727	21.9333638681099892
18.0877528138415009	22.1810980429891131	21.5877779325942853
23.8767442762105553	19.9068389860509711	23.0924419352867254
23.0102812421218772	20.0724234849055811	20.0758922049838375
19.8634122386604091	17.3688640164130028	20.0368010894905204
20.3433000227904834	22.3084621824976246	19.0835133640404102
19.9042829636104912	22.1377159287245675	22.4907208949221911
21.3824635097172902	23.5190316310973095	23.3445496062525137
13.4341408592345157	20.1072085085133416	19.8636468938139572
24.9748529000637802	23.8262895707864075	25.0432237864558935
22.4523750185998097	19.2606282641258169	18.0982292107500271
23.0275121103006839	21.1172389352353278	21.7478314864964268
18.7389198924565008	20.0221506370138869	21.1467160858347789
19.4252183283138038	21.8495198170660174	20.4129388702529333
22.2678210724846828	19.3795800128994387	21.4076439265040399
24.1283945654408463	18.7674007393446978	21.3468493139718589
22.0763870087960612	21.5346636528352029	24.3974728592390271
12.7989309931478275	21.5177373860221124	19.5096648944257218
11.8655452681807656	17.9929650842924254	22.5670568344288114
15.9182599539301446	22.1665317610393267	21.6686866441360593
14.1226801433057787	22.2328710606937570	22.5144706173149274
14.9067225452928245	19.2846589535072646	24.4962815765745425
13.6252670494635790	23.1422637146327403	24.4748204101912208
16.1914468508779663	22.3503731799309548	19.4746741514295074
12.1147723377800300	18.5867938355987548	20.5698090628847723
12.2368049788687792	22.8009734639053896	22.9717421285266390
21.1430549673988111	18.4723951344763329	25.4305808158609707
16.6297960536414848	19.8968300184912827	23.8332361220756148
14.9884240220438993	22.4269613557148482	24.3559392585851420
13.8108944428958615	18.8913779248322236	22.5292660614961768
16.3226493843083844	23.6973687727922666	24.8456089713107460
19.1529579208859211	23.8105138399700564	20.0984798517558225
11.4689890719475382	23.4487717536278630	20.6960844200140031
16.5334876282228116	23.7073934007367200	21.6917148111109306
13.6856695114715237	24.2395073212043428	18.0654174600590451
36.9036908693718217	21.6306438972035302	19.3585342458996195
29.5972920330809366	19.2951972837379095	21.5785442744797393
25.7108939775379923	19.7814686982118353	20.0140392016506254
25.0728923682785521	20.5839708887733863	21.5642139927417027
26.9996558159150055	24.9576464003786249	25.0000610138525445
25.6269697378626162	21.2441168105803051	24.0384342715816501
28.4376201116939811	19.6232833743367578	25.0909540631448884
29.6610969991902245	20.6939930677041630	20.0285840345023090
27.1937823062713804	19.7991921902907499	21.3098337176475425
25.9227983933187183	23.5256893295877951	19.4702981855146469
31.9989677077777976	18.7542135501639748	18.6941672863801820
32.8016824846879089	20.9830141239945291	21.5564666545914285
31.5300217190725434	19.4367992594041183	20.9574994504305323
36.3409231950032918	18.7855418016024593	24.1986034185014454
35.3872534662048466	22.3621238465958783	22.8837605361469585
36.4067939157825080	19.0363414401577771	19.9360457582317565
34.0463413227621174	21.5683388682895654	23.4715402467149410
36.0472394322297873	22.3612770956026026	24.4816875265437872
26.7760271551880500	20.8690580058733488	18.8517138841801568
23.4855623110048164	23.2397984850817352	22.5920063109795244
21.1618301310427199	20.1955926346523817	19.4489910346634005
20.7350007724687835	20.8689132598376368	20.7515453907071254
24.1437152772361650	22.0345933860734888	20.8856921206333688
19.4903670531117683	24.0830583116469477	18.5097443020984755
26.4584461293807998	22.2053082380310194	21.0513185202238908
26.2612707055565622	24.2565161790471251	21.3699633991932458
30.7660189459296980	23.5180493028172712	20.4433078132163999
14.5353368526134243	19.3904091352196026	16.8807225203501190
27.9413196433047055	19.6902599893569707	19.5571070374952427
27.8180085701983693	24.0952465076757214	18.9001542585263600
24.7241148177815120	21.9636561107707386	19.2102444102115797
28.3574678569206071	19.4638100746813016	22.9906291424984737
28.3904131853624619	21.0980059194609169	21.6024962376300920
24.7570323967185146	21.8555897884098407	22.5015512466563941
31.4771209354583341	20.3618419961327071	19.1206346732365056
26.5413034522964573	18.7240933426937275	18.6776956886684466
5.6720453697893038	20.5213634605056434	24.3665670361830138
4.8108094068728287	21.7841202920100194	21.1729504076464785
0.8525760887840561	19.8227807145966679	20.6365409817835577
4.9888989095814820	22.2229532959676774	24.0979257729389822
5.9692384728440331	20.1034902030470946	19.8039221800978140
42.9958840474861930	23.7647941596005161	23.2630409858730154
3.5621198998406118	22.6156191845447836	25.0133624376988521
1.1354526400868423	21.5188586880168913	21.4855805037718213
42.9699171741792370	19.5972337670640862	19.2649201865861635
1.3482411167819990	21.5054316243538146	19.4509067621844771
3.2785761060176322	24.3208399906071300	21.6640539972442383
3.1774018962944433	21.7224131228425925	20.6320574854400505
5.4947252513853044	19.1091823491814345	18.1285189871375216
4.1800187628043330	19.0709804298337922	19.9942200865914828
4.5801673919699448	22.6483158786848833	19.1758048732126305
4.0971088343911850	20.4235953735877089	24.9256140084776909
3.5436726507298002	23.4349687337253023	23.5350257427854892
0.8646998254173444	21.9275248680768513	23.3634485030697263
39.0167962687530760	16.6757056660799563	23.0769755109844148
34.7537045179699220	18.6063257663097126	22.9571528257609430
41.1115325072747453	13.2968849283689963	23.3678547941965462
37.7519226368748946	18.7139561743421545	19.0199217826370521
40.2893252899504901	15.9985663267564586	19.7904063304697502
37.8008224549375385	13.5616766063440561	19.1011846821520592
38.5661760228489570	18.8227229418087809	23.9268343788664133
37.4587181453187128	15.6951204746467177	22.0198961494601591
39.3468496909311298	18.4511715124636204	22.3636458781132959
1.7438702019929577	23.4537880045586462	23.0644650383051228
41.0004596041907803	12.3137864548200771	18.0530391587624450
36.7784345121145364	13.6103691588416833	24.4320282996924014
39.8803082617595663	14.0506895650664507	19.8139006971439180
41.2654198500900478	13.2760907835654738	21.5342356312777703
39.2972933135518403	17.7938654378344765	19.6897750304827888
41.6226602483366648	18.3869032736961096	19.3362447015846612
38.7675580618673550	12.9897392825125593	20.8450049790884826
4.1079375300727925	21.1468767663028530	22.8631088134539233
14.2276151744473704	18.5380598532394032	20.9288840141667336
8.6189483906208935	19.8641717610294606	18.6681100752617048
12.2191710650849625	23.4239886245942195	19.2438091858547793
7.7284889198044269	24.0873580569779087	24.1419559939788648
7.1891191122750069	22.1287384026765288	24.0434905649952526
15.4120330956867146	23.8316412550676020	20.4096813206621732
18.3926544714337830	20.7553706731766461	24.4744657885051602
14.8526690526916738	21.1750296283037329	20.8538945422202993
12.5006330937467656	21.0284081291793292	22.4115814956133903
8.4056975715806104	22.0414996577558782	22.2009040364672359
12.9608626541441829	22.0224246716292775	20.9041253442923320
15.0769171773222901	20.1383570560023237	22.4391488612409518
12.7250180684592173	18.3025743702950869	19.2229926746620556
13.3262850912770237	24.1517869090448798	20.7230190867824504
12.2684611291552450	24.3465425610334449	22.1172329470622806
17.6375743219805052	22.7051430978633881	23.1439960157284510
18.9830485886557945	20.8284807445663809	18.5250623529453975
18.2362507435682382	22.6498953786321628	19.3905951197156732
10.0752251931264389	22.6548611671878142	19.9540077573454475
2.9381612899416627	22.2542761401777476	22.3915452726124791
6.6664082813748653	22.4890559896393292	21.9117382606804370
10.9195962633950767	19.6206019773281177	21.3215040664832181
7.7220753221456686	18.7424931834129183	22.2711397220460690
8.0337183298301511	22.5116729589074431	18.9900835664908278
10.9818649594452200	21.3605869545249689	21.1259149165092204
10.6845113809874732	20.2453559896398971	19.5896602869180718
8.0602968850131909	23.8316240742638428	22.2209561791959729
42.9884200737160214	7.2697065555545866	20.6305461518684403
5.7914816875537669	18.9151874998283809	21.4739839379886774
10.8749276588422497	17.4881525414107628	20.4912286642062327
9.3393721786152373	20.8752032673014867	24.4227160559137921
6.9624132415546294	20.7271307412223074	21.6079002083838212
9.1522092232049364	22.9000938014830773	24.7463648265294047
10.2542608737927790	23.1241544744630154	22.1375919907239478
11.9383854702785239	19.8255352470388893	23.1344681410229533
8.5640523229106833	21.1280017396794371	20.2479953686254888
23.9252002343040537	3.6650657809353149	23.2028851895425312
14.2531069605465106	3.3375596782533141	22.9629755204230115
18.4936073577013822	5.0379543804731988	19.9665966415681027
12.5589127246649603	5.8383103909124969	22.1635078372139986
16.9010346912282436	3.3677787677083160	18.6877151127028789
17.5721814227458850	0.7933651048192774	19.3029491817951957
17.8010831510199203	6.7257043190384680	19.2067981149061069
14.1898261783112059	0.8945625883199205	21.6214717668170557
13.7436717712764089	5.9842839542909463	20.7187811786668199
19.8954404606817654	3.5090072605652858	21.6108725513919424
13.0682017686389518	1.0366540488970697	24.6702086963609695
21.9140692575282827	2.0940730895641977	25.0633312344312351
19.9987771436296988	5.5787643450908400	22.5435934980331751
24.1654111399121447	1.8272937747850753	24.0357869192788982
19.9344963647436053	1.6109857044908651	20.6749586082372048
23.5864707099634110	4.7794084068024185	21.8670373495710209
22.7920916366842796	3.8329560015184549	24.8472683569449408
21.6893656751115138	3.1660871732631524	23.1962607128785407
19.5613713178109769	6.7129328618440436	19.1830562229360382
13.1061429016381847	2.5929330004736970	18.1559251802607484
6.2412038564749848	1.5895841625013274	23.5505985367508295
6.6468785390339749	2.8641685994919559	22.6265464665439637
15.3616912747341487	4.0972612056545916	23.9471630047295143
13.0428594185965210	6.3066887925340156	23.6243859685779043
16.1840034482020023	1.1222362718137309	20.7539007253040282
15.5857165926296730	2.9399218399368894	22.1838612040201788
17.2385725856371188	3.2297994084413784	24.4382538458436755
12.5634194394028373	3.9533299543586740	23.1265273973813628
22.3561974108945840	5.8424246334576733	22.0028690777174454
14.5326319699171496	1.4712741345822649	19.6145468777205245
13.6989386183691071	2.7155081806873902	20.2675279579148189
17.2738849662374427	5.6860636027257927	21.2161911993568779
18.5719330423445363	3.0581323856922755	19.8949844188774954
16.9303861690072637	3.7708301179038024	20.9634562764242496
15.4096641860256405	4.9397262304774161	21.9185178393522939
16.5376494058072723	0.6018154461156813	22.9753134923492794
15.1663617118718594	1.8186372853993598	23.9986580237445075
30.6035956572072081	6.1731281012731207	22.9806068059036477
26.5222910299939620	1.5746198696982423	19.9821941585360605
29.4852243245929131	4.4462891720581581	22.3494815933295605
28.5244295307274385	42.3391625599047714	22.6572978105985747
28.8015551215094590	5.7383038256805543	20.2211629213845754
35.1447542461458369	5.9884912252160163	23.7997327035787549
36.6217835388003294	0.6177657882141382	20.2387868844362941
29.2474871479366598	0.8472768632331799	21.0900591442368075
31.2743421468543374	0.5109568695615123	18.4727491335250988
25.6368854154527384	4.1397977231988188	19.2999125613401183
35.2178712787701542	1.6705558853014586	23.7366057400138679
30.6617300856098858	5.5471349341800513	21.0785560291975713
36.2876402156892937	5.4879443867792039	19.1183260681193694
32.0441273189038398	3.6319465491828695	22.6430332365007310
34.2861697817301945	42.8147363386995892	23.3937941815977837
34.8763738050477343	0.6126504730511353	20.6855626278637850
32.2072065582933504	5.7375911650471103	19.8887604414506498
35.9853732657008649	0.7865511329892531	22.4144842829284734
24.5764244567412113	2.1617728030300021	19.6788345994657270
24.5131766166631522	0.6511630647436474	25.1886671475128630
22.3573425254045048	5.0983122837254831	18.9188191597982573
27.3108249944784731	5.6117050516798885	18.8411915099863201
23.9700521129572657	4.9567633073757467	20.0312364798182045
29.6023205251121873	4.7555192617080699	19.1034061574096476
27.8149425753624868	4.1797836827326620	19.5645594426572735
29.2250421744870508	3.0244450756250263	20.5323154896634286
24.5552648317337514	42.2703432196110995	20.9030752993026212
9.8871991487066371	6.0097255061596018	23.2754091640556062
28.7658894318649239	3.6273878113261144	24.2733115366825096
25.8242592279521901	3.6100321588083699	22.9732081214488346
27.0857314911454132	3.6504715923485582	22.0354655742745287
27.1953300168863130	5.5389023949329594	21.3930231330427354
28.3629839076746535	0.8288841406886611	23.1250028747634246
30.3800675695291247	2.6122622488757212	21.5843880440290192
27.6109605382813115	4.6530165500617482	23.7995480911417694
25.1989066864695097	3.8960657591071142	21.4751937599798524
0.2442970772126438	40.6621679008012080	15.5497364022457987
40.0560891089923174	39.2135012643664567	13.2276015336402892
38.9466910127348740	40.1020588179881088	15.1001952151170187
41.9226540202288120	40.1334812332319473	16.9604059755771388
42.4923618314434961	39.0295783858638359	14.6929168302538642
41.8149657108502879	0.6723250546748664	15.2668422793406204
38.8811712054674175	42.4892276413810634	14.9288792127619168
38.9485330556518292	38.1384636370413830	15.2631261507847462
41.1807408285852574	41.7227109876705953	16.4547933403845548
40.4645803687212435	0.2375336384062398	16.0685586721554436
38.0767403302031084	41.3749664409031865	18.1383399666802880
39.2189158515016985	0.4653101525981132	17.0466813363419831
38.5526017233686105	38.6934936746787344	13.5149642828602978
4.4158646643441157	2.6518906614973492	23.3532690092378559
3.0897117020815581	4.1752957500188659	22.8585838012728502
4.7563424727267734	4.5342000670704063	23.7834993900168215
2.4112171540913079	2.1389246640608381	20.4358218469353012
3.6368435004973816	3.6030886505481128	21.0044279320068341
36.1413231559388635	38.8258266949944328	12.9080197375727384
37.3072237355550200	42.6018069542835036	16.2358873381761697
30.9730675848039816	41.2223755960445288	11.9735559627435872
31.6171565767378162	37.1743620627709888	17.7547585048231547
31.3504546579013024	41.6424258952469586	15.1064624210371292
32.7214932933183889	38.7640202860518670	18.0830844579283792
33.6270567691339934	38.9674969885182350	16.2928702925456719
33.1444918210656709	38.8057017081045572	14.6435674745058630
36.6178617025556576	40.6712040255178948	14.2878800452501107
0.0990011660523183	4.9068253428304125	19.4215587991876468
36.7624780662802451	40.5110409140115877	17.1329718001502194
0.1751932421023883	40.5002897648990441	13.9046293758724477
39.0268203810807393	38.8002635593276111	16.9356732411303987
41.4438097712026590	40.2486563758215752	14.8743894792826836
40.1031736554088880	39.8793928814146383	18.0763333680303759
41.7934371003661340	42.1233293144466856	14.4563359122995632
39.8935994197315011	41.5725674219490813	14.0819339599786204
40.6415460392237762	38.6418092801949768	16.0957400451944004
11.5195395771703204	1.8823433116989015	19.3448676050039126
1.4610694694046735	3.9513083735166625	19.0599517341771794
7.2020610061597798	4.7144541870188039	21.6927526005986735
9.4972639638858976	3.6803923767331543	19.7562349998485622
7.8819113412117234	2.4089136638125717	19.6812351036478148
8.3617849067373182	5.2672684880144276	22.7542558181367625
5.9085907266354036	2.1149481079367174	19.0223294741153026
9.7752155987194520	6.9942760329981732	20.4004086413230610
7.5751737623287747	0.9059827599463747	22.8823192931159376
1.5130015167356461	2.4501980826268821	23.1374410342017427
11.1443514892613535	2.5114410440937691	23.3997185570845794
11.1155353605485310	3.2757790527189692	21.0865031171620103
9.7593718925840953	0.3671960390021064	22.6845641851596298
10.9994216292478839	42.9185860107841606	23.7077149126036879
10.7296809076268200	1.8579239884013843	21.4927351716066362
5.2317806927411432	0.2846606854004478	20.1550847596810137
9.5862932789574593	4.3379943270317884	21.7791014984402160
9.6297346344893224	1.7640260659885252	23.1936823554759854
4.7173275651858724	5.2318856186636156	20.5947821843093060
1.8150982884892040	2.0174826633966503	19.0403221266297926
2.1576080194769696	5.2040712186470390	21.8535854442969999
1.5470805963721033	5.8637762318681768	20.4827502156885437
5.3755730800458688	6.1211738359217218	22.4913550496288508
42.9364272728064051	2.7600711340337138	19.0107338771537542
5.7560070998153989	3.3998987399984295	20.1943696273095377
3.2620694281557685	42.8230259496389252	21.6670613800798328
3.2615495448074387	0.9218214756086422	18.1219600667842897
36.3256343174326730	5.1227995278318570	22.2655268212346691
0.5631581373630808	1.1727703977495694	19.7255418823207478
5.1998066583745937	3.8923845405756339	22.0614665119699538
1.5705357965337299	3.8331898316577502	20.7710098759486428
1.3633009883488965	4.0829146386040387	24.0639221159178156
6.7108942780534875	5.6534839711446967	23.6255495771731816
3.0843958387639088	1.1469571744394975	22.5876451608223796
0.1742996905889484	2.8226818588160065	22.2547073816430050
4.3671425968511279	2.2793464665126493	19.6992702936235204
25.4583640923984120	9.6175748068056457	18.8908631927959014
25.3942600324957262	6.2525234940061578	20.7088349642059946
19.3995260158097871	7.4776478011262473	22.8411872289437774
19.9820241903159754	13.1904311739540692	20.1367116119016956
22.1327021519251161	9.0005028477619611	21.8108385280738517
26.9525876076726156	7.0457137924628475	20.7360630979802778
25.4432042217272993	7.6548960179540888	23.1486516001538440
27.4287408409807014	8.9838622542228048	19.6699711972721651
26.9426283540336620	12.5369642393746332	23.0689561909735907
28.8530534775764842	11.0716435455558813	19.3012859840263324
21.7808297766435928	10.3628870212801729	21.1961317882063902
30.1179435587305733	11.3926056785029939	20.3411918582311806
24.3903092015758141	11.3553851048942818	23.3704926026884046
26.5527648136761449	10.4095602014987882	23.6627388632396318
25.9054942376421593	8.8766695028548970	20.2724369327355305
28.9279065780311484	8.9510026837095715	21.5862516828952771
27.7451521843243434	10.6843449811211144	21.7923402746067083
25.9791213370519465	5.7930862456253545	22.7735549375793802
25.7688870385774287	10.2159415058939302	22.2388711496679150
22.4063845175562513	10.1258892708813359	23.5722651139528310
15.0320182719181332	10.5796790226250828	20.8006212379148359
17.8697875578453456	9.0407510096583152	23.2596822407031851
13.5706765404398357	9.8373527743817100	24.5124912024330150
14.1445695205277211	8.6016686142430263	18.6352670603486708
16.4129525143837860	10.2099517253692067	19.9934407247527908
17.7773816093061612	8.1159723246374025	19.9792863574985375
12.7306258561616339	7.6557361346095547	21.3976663403229281
15.8203051150124949	8.7553322975399013	21.2969001490542489
30.5275858243407399	12.0089141833369908	18.7405677426252701
21.2352634790913619	7.0454929980377257	21.7311231857911231
17.5598308288256639	10.5454828615229612	18.9243025734939430
23.4577496233969285	9.6330900657515510	19.9982066111900423
22.9746654800186612	6.2749546351313965	20.4643108718841695
23.7560150110181922	9.3241395592084402	23.0503977363518295
21.6992607021938291	10.3747358656680273	17.5153645417520245
19.9593427388825226	8.8963250459728229	21.7752338541674320
18.8538881546264676	10.1860682073813482	20.2461929777007192
40.8791770202904772	11.5554175518773583	23.2788052703276698
33.7942276287493826	11.6121237581351959	21.3038417850810227
34.2369258694400784	9.1732199309225813	23.2856792523216534
32.1380004533281394	10.9958408089188726	17.4589300601846418
33.1038974784769167	11.0484174348180311	24.1281149303980342
31.4411513173356099	11.9539012687196937	21.6568319032047967
31.3542653773295790	9.9545931982078102	25.0357042534717564
37.3440839885322262	11.2495171621808829	22.8642377753246784
41.9120325232433899	9.8445468023311768	23.7698134822282725
34.2744223779162738	7.3056520567916676	22.4509835707063985
0.3739151346932529	7.2575089150779926	18.2489783053398220
41.9780734106403841	9.6936113964684782	19.2335722821157304
39.9741709248440031	6.7336185678794962	21.0671380573663463
41.1857885056786657	7.8581423026145139	19.7324582348314550
42.3871417711891993	11.7349162245157856	20.2990131038038761
40.5271769052449073	8.3857843668773064	18.2584052237223453
39.8640412611010362	10.3195419767056151	24.2906937107880871
40.5062092562899352	8.6211974311741510	23.2927111424257696
30.5479764758896550	9.7631664286838475	20.5930267775360569
26.9712943223688129	9.2445488416237875	21.4600572982579685
26.5739234812322032	10.9651602032519513	19.1288107118155040
26.6521963051766164	6.6116913341031269	24.3174876812136773
30.0888143628800862	8.0732959988424664	22.2641579495271564
35.7867301603103343	8.7552961704040477	22.3668378143399948
35.9111371620985551	10.8388810799811743	22.0179904899469641
31.6186304034433476	11.8078240977027136	24.9814878672552929
34.6162636818707625	9.0657053316600340	21.0445098199943033
13.2396158944172289	11.2063010320827523	22.1470531206718952
32.0059044855731187	10.7483779058505835	20.7339425170003331
32.5838981902282043	8.9596817492663750	20.3147953590596337
31.5277801832183222	7.0984729776942697	19.8826005439836919
34.4882924408984977	5.6927114531166367	20.1739198533953719
31.9942061413158605	6.9350932860592671	21.8802196090239782
34.3670600807880291	11.2119535971544089	23.0893694854892999
30.4816742281415678	11.8736249896888300	23.4352712700286432
36.0602908570468443	7.1077180662398458	19.1559054477692037
42.5213401835339795	12.5964071899683230	23.2980937445105276
39.8800512410168082	2.2925468204549708	24.3138458761652210
40.1945550002009639	2.6941457825260819	19.8864435607639969
41.4436580082640091	42.7477550176849022	21.2808581585031682
40.7383875283924155	1.9511549701577864	17.1332004986271720
39.7082491839869576	6.7084581356013224	19.4962297662197486
41.4447220397884308	1.6648397379448254	19.3838664610880720
3.2518585820239818	8.9710515398751234	24.2286417860069179
2.5496906668372588	10.2150243938968828	21.4425326249000641
0.1235572170511920	4.7767881494514493	21.5722835961657928
6.4441836652798807	8.1865877258389865	22.4601387784710766
0.8011077472085115	6.7486184450125926	22.1227677204495023
4.0324178770207908	8.9683132122050786	20.2999786554971848
3.8573516195088628	11.5378575286423732	24.6342075350701890
4.9930684810331423	12.0110915982381616	23.1018217745275756
4.9376177545620816	6.2400623277048153	18.5668305762442856
4.1691528521375991	7.1296110047609762	20.0986458877090506
2.1551937361475724	7.2695613844581732	21.0369649961873364
41.6528690360131009	3.5359587662067664	21.1065544316000420
36.1409178087847351	2.2909609146135210	20.9783511072457749
36.5572678697538151	3.9202516196188872	21.1844587747178856
35.6238596783712609	3.6556868550873283	19.1330921067610227
40.1722140085773702	42.8733986409481744	19.3806043106540073
41.2092246495111567	1.8600670029860555	22.4563168872868637
38.1258669960246479	4.2651674060765083	22.8253816827702849
39.2235686287940553	1.6231127368290204	22.7902783067888279
37.2516284029010620	1.1574393239141874	23.6117095337779723
4.5246889409866178	12.3845286584053458	21.0041074267783863
42.1190684563184305	1.6251919202551728	21.0245739504189402
37.1849640750708943	2.6902503203437562	22.9414136754662756
41.1762416642898827	4.9631072746565055	20.2126091853908711
40.1655581787492508	0.8096828013244227	21.0926490420889401
38.7904306867077437	42.7569646864286383	22.4159523810174015
38.3352425772573469	3.2459969473416472	19.4261205434085937
1.0735320920296085	0.6210533784980152	22.2769143448494127
38.2664062039580557	0.2598528779731056	19.0103114357705181
17.8556518717288455	9.4230797398234536	21.4657116903753185
10.2766700707854728	8.0164066670553797	22.6288252577108153
8.9051957170961842	8.4659773128219324	19.4135282304792689
8.6825407880634415	10.3809246869501539	23.2304272873259414
11.9953198059868349	9.4401868001827793	21.7256965680896528
11.0528061636543651	8.4503062275645462	20.2978712219073714
7.0417022818553283	11.3951454319976637	18.5964748875339794
6.7601996114030225	11.6393007612902615	23.3390853246355547
6.2230555975609425	7.1041429800811624	21.1445035543139213
9.9873258251279289	9.5681731888916985	22.0434337521004906
16.7872642203460032	7.4550143351143641	21.5040553852515401
13.3703746407249309	8.0396339771342813	22.9229024554504903
14.7770661492101603	7.4128740797392290	20.2434961757232550
14.6799144238325230	6.9528460693217546	21.8445703954581028
16.1296550629200830	12.4750260714507366	20.5934696488797115
14.8799859556211178	8.5303763996499882	23.3152014448353491
14.0651729765249698	9.4630284583620838	21.9292790949290364
16.5232526477392661	9.8565763968676929	23.4067866902439938
4.3169765549973063	10.6180140160465211	20.0482100665573064
4.9245802098049687	8.2685933131059794	21.8494627065544051
5.5019494276219767	8.8914075188032715	24.9920198819234720
0.9189781257857952	10.3602368031108387	21.8496288771197129
3.4735112367007348	6.0917982418595544	21.9597127423989811
1.8859824746211988	8.5506766618018837	22.6091725309552984
2.6279446754909457	12.0841060459705645	21.9582206243494227
1.0456123823545969	9.4309212120578465	18.3096490506039480
4.5317899377035475	12.0570286176784123	18.7681265180843759
39.4372951448891484	23.4539165847830944	29.5044536761526857
5.2544713270532535	9.1258866492981081	18.5506792158480245
7.7749025697745422	6.5417771546789183	21.6769713988163666
7.2643478527805971	7.2769524403642931	20.0301509602632031
6.7383743030607883	8.8460908973702406	19.7815199554261021
8.6692399502797350	12.0343379045137215	22.3309015192433975
11.7479729973911002	6.3957121924354885	20.1939802700589937
5.9965197335777933	10.2515660079201556	21.9270027341057379
8.4397597264350548	8.0655814985170071	21.3616587838157059
29.5844460009600532	9.2528856079057000	39.8219790003320000
25.9529281278597601	8.1093712865828671	39.7829720074225079
27.2533290617481434	7.7141145748784163	42.8316112939070806
28.2203859343346792	7.6014623163286981	40.5436945349998794
24.2488747219574137	9.0656490391075515	37.3173704393295722
25.2608867903001091	8.2508412507907938	41.5345186379510807
26.3125660976057780	8.4522318586156189	37.3989831240022141
23.6429367422350403	8.2789331851912564	40.4382193622602841
26.6215551021659778	11.2747890653248497	38.7221765606772621
24.7220458784606976	9.7100266275729439	41.1665831464071204
26.9582556822862216	7.3690552054173901	41.0552310932233269
24.1112490453290036	6.8869764697334261	39.1866423816262568
25.7374858202133829	12.0012853767441108	37.2404285778744395
28.4632527687235743	8.9489461483823352	41.5935194555614913
29.6147957988253125	10.8997039230212867	40.1067917219381727
23.6581114539139570	10.4829609652843203	39.2010156276783306
25.9018451284764133	10.0807324661226279	40.0482099114125347
28.2625774855482810	11.0371388752940724	38.9633802373108793
27.6288592683234242	8.7889055762004666	36.6188818443788264
21.2740609052344354	6.8941046021751209	42.5899102253571087
21.9067956637891612	13.4115468007446452	41.4454233648172803
19.2442780529998423	6.0485450684625865	41.5208001066511372
20.5605549399440406	10.3265423382474122	41.4122610067877659
20.0037146219967319	7.8124574998773264	40.4916745763518620
21.6706242553714326	11.5713290946272629	40.0935455342774887
21.2176678620563308	6.1196133847608616	40.8566238653665295
18.7437552896337358	11.9867498256521916	42.4912166350532772
20.3053039783542104	7.0735081855803124	38.6564180643140389
25.0663790244941680	10.1036994281672747	38.2945797703943498
22.5609310760479431	10.0483884966609320	40.6760141158181554
20.6940960871048070	9.3299268204754693	37.3491678661500117
24.8269221700040070	6.7262184097156386	41.3881327344510126
19.6058798867184265	10.6759318370529854	39.7949126520510461
19.3323714322031606	9.0267716564445930	42.5670005664117213
20.3345545766702074	12.0569857364722672	41.1289869539182718
26.7621599361944895	11.6740556179746040	40.6471039637243976
27.6412822351428993	9.3478295872684587	38.8964652763326626
41.7135042552124062	8.8931880718017293	39.8844911795739989
33.0258865457005157	10.9121271249068208	42.9351153331299358
33.3777574083863939	5.9771124925420942	42.1012942005006678
33.6738344828332714	6.4792618923382301	38.0791275132690359
33.1298488211601736	9.6845059327894027	37.9936961266506472
31.1941452801164694	10.5786780904589346	39.0504625200904982
32.7660328598954393	9.5796596136167800	39.5215351881841883
30.8123988285468009	10.3863966080325554	41.3968571280976505
31.4984847040655644	7.7756749430436241	39.4801574647456448
33.0013867905523810	9.2142496164730243	35.9961021944754265
39.4678324662357198	9.8655375861190482	35.6945962299088961
41.7364743129513087	7.2448544711975247	40.1250944484356964
40.0712008299075322	10.4044994917754430	39.0513290057406408
38.9076598123828461	10.1832789628897480	37.1522576857687596
42.2389898597215350	10.1290131167677409	41.0136812779962625
0.4713449248790400	11.4331405738946863	40.0348300863963900
41.4964354968471483	11.4651805078338178	41.1536325231544780
38.6779713614637615	11.6965355177855805	39.9268214885583035
32.9664039185177842	8.5631871137714768	40.7660703273487641
28.6266270350810501	11.0806702546971767	41.7420723575782162
27.0074814414776689	10.6551827193107442	41.8878908807683885
26.8649364729496156	10.7190413361744525	37.0458252300307151
36.4488079939145564	12.7745568170928578	0.0002627049360555
35.4683818714779662	6.8582194614147864	41.9126338712056139
31.6410718683636496	6.8233825472379879	37.5434950580811986
31.7550963837544415	11.7976751147050400	37.6006622772054371
34.5098776356433774	12.9266446642552459	37.3406554592270368
22.8804960557096564	10.2064050970377398	37.1892756071367572
34.2049501560089340	6.3483826639304297	36.2528119223862859
30.1612244268735168	7.9870138864086604	41.2639729885968478
35.7811708613664692	10.1058310375595095	40.2275927953785697
35.8744234690319814	8.4253657150210142	38.6631669419782824
34.2383155437899376	10.1903582315330681	40.1934380812275194
34.5026609075518422	10.8581576580332886	38.3866243554344067
30.6614129554035735	6.0418465012019666	38.5773767670013683
35.2602803330911883	6.3554130624070044	38.5868075759353246
8.4951848314450995	7.3650059789119009	37.9807521127567682
0.7455044371313485	9.6490149251334838	41.0438984768430899
2.6227311422992465	12.0748529046111877	36.6312412734179702
2.5973897461969440	6.9651697703270719	39.7353611395624995
5.4686108539703460	6.8087127648442971	40.1297592767857410
2.4532799430891159	10.8882777012558982	42.6695630343022998
3.4270780114536024	10.5602628750241898	37.5148237821911152
12.3732904731409086	7.7153209675480827	41.3710960616365497
8.9353138207984326	6.5718328280959089	42.3359005417917089
11.3863388057642574	12.1230670364672992	39.6232067760915143
5.4779055617023609	10.4489532624442489	41.0651001448470367
6.5225799948050769	14.2048392816285620	41.8345473895035767
6.7132648588514252	13.7115121844008279	38.7407361475469543
7.4367104416574996	8.5567590036158503	38.1907193279822792
7.0854837919087590	9.9840050978558317	40.7994390043973922
11.6075321392508712	9.0175670268330048	42.2358326161112956
6.8441599951698997	9.7665274317532607	42.8358777521011973
10.1429565626451978	10.0656039909333135	41.4834380753480616
8.9735413144682745	11.7906452997743312	41.9347443952219905
1.4789937083367004	12.9177746182245610	40.4211146878915244
36.8274488164959735	0.7090430844605037	40.4151173588825188
36.9474783736364856	6.3040489448368584	42.5384181272698072
42.4647752982292417	0.9732592490336672	37.1619495516392320
6.8496293405046735	11.6519277870087095	39.6368207819646017
6.7500102848862324	12.1543001622758862	37.6747908960855540
4.0102471473176635	8.6105744162126570	40.1091520763382334
0.5493368497832515	9.7152136331298369	39.4092119104111802
2.2720106617228373	10.9900881147389615	40.4715917068118287
8.3311569902896654	8.6703277690939338	40.0337483213675327
2.3339587071334278	8.5283351040777866	38.6238761277986384
0.7661581630064140	5.9710233476911405	37.6152594295841283
5.2636984099757784	8.8244163520068604	41.3924238710615171
1.6034645824294409	9.5023738354295428	37.7977061132039012
2.8155274196152722	8.6824841100977661	36.2697017470160290
5.7794121128091502	5.6903728623720884	37.9605072884618409
1.7079344063943263	7.5260158784486713	36.7171424924408356
3.9170622580749286	10.0924466826686654	41.6358866604696871
17.3018149921377713	12.7997199479799040	41.8588335145848092
16.6553369431385470	10.9342250446529210	42.2490351299002214
13.5798284854568685	6.9025944443196678	37.9893419341077561
13.4662208750784931	8.7852885120564768	40.7761814014923942
14.9114243209817836	7.0810657671503137	40.3560157198432989
15.2895043445541194	8.0882100343469272	38.6184515736989766
13.3825309115571240	7.4053797085998516	39.4474386823363261
18.2719126770827316	10.0963836278396055	39.1036473611951152
12.7506193942890249	6.1264889201195105	42.6286265740463719
18.2076838167040300	11.9815314304477241	40.6095232584962318
12.9323375019887319	10.4780096171154398	39.4124586785146676
16.8020909882547294	6.2595300621557293	39.9659919731538338
17.9567198968765354	10.4191816964713286	41.1989136567105163
14.4491397995760025	11.1353104009000674	42.9344771177713724
13.4621872406367782	8.9768248300075637	37.9169062634377099
16.7688906653400132	7.4082986717722399	37.1714666424543481
15.5003909153355810	8.5367566264010453	41.5382790260119208
14.2874394051703995	10.5691932617984250	37.5185923713030149
7.2178780166895358	12.6585582188319599	42.8810920984679669
8.6227414290934306	8.3855304304164253	42.0386305116060797
8.3197715635701250	11.5790438096915569	0.4947620551425597
4.9064742771708225	10.1697109266294490	0.0911913792531225
8.4479825740361161	6.7883205674898957	40.8916379871682878
8.9129341215580382	10.7919016444221558	40.1030039297481764
10.0994191594093774	7.5683547216038400	37.6554611366295831
11.3872939884279347	5.8789639096654129	41.7499372131100515
11.7654114674278194	7.7120770898198794	39.3248158734026561
37.1578728307701738	5.7439064293540092	37.0243549889645891
10.1480146055817233	7.9094565617121999	41.4097249643617715
7.3786934652099179	5.1283196647705180	42.2455546689882624
12.2629107592358562	10.5352073891345412	40.9870953925652231
8.9050361766125548	11.8086553321326893	38.0022970464439851
17.1832498881131528	8.1229216833346793	38.9662147806977543
13.3589421859963995	9.7803326267944684	42.5519225991423724
19.3548762591679981	8.8088458676968191	38.5674636941629885
17.2236461240400551	8.9716765513524042	37.5395969291661586
25.5104063039900346	16.8146311976050136	38.3325124819055816
24.1666071066301704	16.7368034011956226	36.7626403052410211
20.9415829456674238	18.2041830384911769	40.9662847690515051
22.8542527852546264	15.5697657119778601	39.0873827957196838
20.0665248762277812	15.8888581315431470	40.2471265634395365
20.6713502468610493	13.1501424930418054	37.4939261841595908
21.2082671893031964	18.2020816627518798	38.6674836773653823
22.8632531553032585	14.5753121858590244	42.0124589731409657
19.7295019336880806	13.8298613860226691	39.5069292993547876
22.9214289915598286	17.5253513423657523	38.7718832527234056
21.0111488636246051	14.5143742520280785	38.6275056995641251
28.8971085844389535	13.8358342315634939	36.6984618250178656
28.3623588325383409	16.2669555428536086	39.8100152855866298
29.9271010209451021	15.5589446257926856	37.0676623466633828
24.3303809890589626	14.4400437179881713	39.6175004627601481
27.2974747174102532	14.7397166090649794	41.1095482534094003
30.6211751904548599	12.7194312801874894	37.1394631696579722
30.0015467942151517	13.9582218493235288	38.6019609264852974
28.8091820707531490	12.6920589579522094	40.5673901136571828
14.8421895272267346	15.3933790919534346	40.4279701363271755
18.3522692968609356	15.7312763042881798	41.2952269040921536
16.2129164283203551	12.4880619705392579	37.8993038560401700
13.3354913292634798	18.7436996238856359	39.8999754793805295
18.5524837584589832	15.1339730842069997	39.2991100428663316
13.0709187135630351	17.3251778669991090	41.7291125792321793
19.0107357423673733	14.0619584288451911	37.5805247728488609
11.9241899562557041	15.5943881140962795	38.4163603964839950
14.5070634558402620	15.6109036269311066	38.3603296865387122
27.6482011613659786	13.1170589217720082	41.7628494122150187
22.7227151933642055	14.2224770288825475	37.9593919623481000
21.6305706402713653	14.6237341024691538	36.7620900572681322
19.4921185618762287	17.4259580107458163	41.6330971191926693
23.6975241827167338	16.3980461659652583	40.6385241646227442
20.3300557611168990	16.3762320679000979	42.2097510327511074
21.7862986811852188	16.3312749524090499	37.4870830755306343
18.4525044906016582	13.7296346907995996	40.9576294198058335
21.1038962627816886	14.6023115620777890	42.8807123708743845
34.3885783787594548	12.5256487321592065	42.3492751948935435
29.9141369725998558	13.4706191931025145	42.5554235012677964
30.2417104494711424	16.4214971281446509	39.2084027878881827
36.4863268395471536	13.2616190561782386	40.8891991251447564
31.6614276658239753	14.3694877931707463	40.0436406672944969
31.5372568305884933	17.7924421909819479	39.7954061938802965
36.3015169459465454	13.9597331571520193	39.3616066348751446
35.0421013216142754	14.8319096997465838	37.7774113592299159
31.4083609598633018	13.5229433648329724	42.9969020117520273
32.3889874289797106	17.5403343324673635	35.5294370647814617
33.1555903570983830	13.2177659094087474	40.4822311914425299
36.5581808272627455	15.8773877021054908	42.9360608442408136
32.4403730956593463	16.4165312611013228	41.9048334681184116
36.0905715246885208	15.5370733423518104	40.7969079205767144
35.0998571411688260	12.1429418021145850	39.3628196745275858
31.7015066113326967	12.8809810528478597	38.8422737106944780
34.2861476992311296	16.4246712629624447	41.2273580611701220
41.5422218963606227	15.9906120921349633	39.6269609333459059
24.1570736887365385	17.7093098755552596	42.5499650537729721
25.8514155308123748	17.6766703976273583	36.6209382403139543
27.0951007097851502	13.2808476170600933	39.6271417658283909
28.1476970800729305	19.5815181804044158	38.7660150068064766
26.3262380982643762	15.1083860874005644	39.1946569700108327
27.0552932832624222	16.2711488369851516	37.8839447156858924
28.1385413296420914	14.7788828782130288	38.7321305995152656
28.7883542837446775	14.3499117253507915	40.4686145479295192
24.0447214987317857	18.4206914160709516	37.5363840935951885
14.0661644364859750	16.9280809512508945	40.1655874420290218
25.4353096453047307	15.6666978030094626	40.3808195028516153
26.1758868621666601	14.0778644079160333	38.0314280780674920
25.0537773675563926	15.2315318293018986	37.9064440464225640
29.4553416360372644	18.1895239044991257	40.0222770659405995
31.1005424542690179	16.8149734734404745	41.0802225826857637
33.8788576374644350	16.2437711138427545	36.9768235039985811
34.8581048655224706	15.6798927899740281	39.1980673399621367
32.9481267490234515	14.5577358932160088	41.9007415154328484
1.1728738712660145	17.3416547749084131	39.5944495564710124
6.1252726878510861	14.8267104159239747	37.8376235323418939
0.9260855407189444	17.3192165226915158	37.9061592436833124
42.8774555607784578	12.8193241496084340	41.7291441163790964
42.7518299768570387	16.0712344749294402	41.4988322838624981
2.8075557033354945	16.4994473173584666	38.1110951522490211
2.2892874797742371	18.7230042518605906	36.4343315319602823
5.3494661429394457	14.3543645183422104	40.1117579534271087
5.7138081889027372	13.0569278006889089	0.7628502393786681
3.1739374746053213	18.3344791453486415	38.5072183935493726
0.7338292641175469	14.5019078624826747	42.4740405555290792
2.2682356091896083	12.0961671167598137	38.6523776958477825
4.7459062161150047	13.5144252704384353	42.1850355334242835
4.3275185434790870	18.6952500811823157	36.3509808675344104
2.3906456136599652	13.6066064840591299	42.1975972622228923
4.5038788114066444	12.5968551933888815	37.0477595358703624
4.2525523172774982	16.8159392812868127	37.1278456433528561
4.8437158164417573	17.5356351379214637	38.6664630242738454
41.5222614950383644	7.6263738476004992	41.7448031136623214
42.3269229897630623	11.8906354928545994	37.9574570879792788
37.7803963367193276	11.8733586659632699	41.5602911988426200
40.6376351376017837	9.2112158848025150	41.8125003718922272
37.1288041208062936	12.4200372525946161	39.5516596930005164
41.5406840930909453	8.0224362285602826	38.0112221980084755
0.1176183765300239	8.0562291928301999	38.5078578288302609
39.6870752866148422	10.5553988167848409	40.9030086100944601
38.6538659539658056	9.5125289570304403	42.0682012511335728
1.7459073952617357	14.9937606541094066	41.1144170325375455
40.4153097757247295	6.8966459772373154	38.8737263334025513
38.9457211721342063	5.3770167430896301	36.6738782873491331
38.0390563187954669	10.5662537102564507	38.4948366821250332
42.5727519769599354	10.8498033240552552	42.7469641351651788
40.1065232193959034	8.5813734206346304	40.0433157966680540
36.3903226183744692	6.5063172298155623	39.8376047893379663
39.7451972782675753	8.7962747339570200	38.1028992526181867
2.7860354453581357	17.7742401236441552	41.9984449261447566
14.9284869686256343	13.5661799614107412	39.0662611842346834
12.3525570424734195	15.9261300209394925	36.2771201337258873
11.6818319742658208	16.6765222677656624	0.5670268365803200
16.1791241865499487	14.4748273087153532	39.0523815669170702
16.3986373446076605	17.8221142346042676	41.8087769497374353
14.5655430092287332	12.5882605330714945	36.6314078717226081
13.2365317600720971	15.9763857028924150	0.4544427274735230
16.1394187222623735	12.8826434838607984	40.0977560910425410
13.6742056630729927	17.1506804557115764	38.4009347919506254
9.6386224976420642	16.5786199528346962	42.9727974183521511
14.3041927477031603	13.6493192240718262	41.1297928692716610
15.9797994008798661	16.9549016687155536	37.8371566319571002
15.1575405107007821	16.3933948237200511	42.1803919674397036
13.1477484774094275	15.5461016110035128	40.3125516074536847
11.4225969385650412	16.9106488814052724	37.6780789450689113
16.5967781301408159	14.4107158301962759	41.2010625446655325
12.0348334449642191	17.2308354399847765	39.8559679871223693
15.9467631171982998	18.4494834355243391	39.4169279539679707
8.4996322588067184	14.6261799674267845	37.8877311639531911
5.8472057382569416	18.1377791613764217	37.5025242958985601
4.6743410253598601	17.0964662453057450	41.9369114092958526
5.6853725247818181	19.1762804619755158	39.0591790635005083
3.5913012840411160	14.8912854953861906	41.8637985451246024
10.3244751105287840	15.2510890702397255	38.8842560915196316
10.9608280989717404	12.3855151883527377	37.6618894733099054
7.7182092038547570	17.6592052993969055	42.7740260466201576
8.1696415292700291	15.8406877016785863	41.7378731066719482
0.3070492134660179	2.4276224360579799	38.2463653187670900
10.7341549300284544	12.7094606267950283	36.0344338197132359
8.6286517407860277	15.1540962456388240	39.9521876464658021
11.3885575834436992	16.8424192045038694	41.5856506688457799
7.3424601961757237	17.6310151371484203	38.7612871311796710
11.7698191074087717	13.7477008090212411	37.9520652165461954
9.9186136787721946	16.6473988887844158	40.8929612406767760
9.9909140328561090	12.9529114947520050	0.4775164303607581
9.8448372285326524	15.7283088981809325	37.0504672664091714
30.1723637239727474	37.3216181143889969	36.4928495032349787
22.1242981782754207	42.0458230220018478	33.4690391011561701
28.1816554581708658	37.6793222407285171	33.8152237272742653
28.0985036081838153	39.6022862253319232	34.0684954445999395
24.7747025814799464	39.6322643001879342	33.0182020751237530
25.1914624809557743	41.5464593006332592	35.5822718406105949
26.7186319567248027	37.6746829360443627	35.7206168225567282
26.3530030839528671	38.9072881734034439	34.2052229828314580
29.9861696629041603	40.5193022144692634	28.9980012066770456
24.2169357927151729	38.3252338633307374	33.9580660499011913
21.3454812233888340	37.2830274251043079	33.9767108202563719
25.7478683949121852	0.1775346633543314	33.9270411613529603
24.5335526800420141	37.2873297020707071	35.9058466185458300
25.3334278561412205	37.3668884929919400	33.1156680275436912
28.9308005527505152	42.3673714669233874	33.1820434926454411
29.2004171123138434	41.0417936200667626	31.8344738530195599
29.4151849251719995	39.7174551479625677	35.1458504699783276
29.0148955691385595	0.1615749645598471	30.9818279600994764
26.1751653147268506	40.9367834877305086	34.0084073772218716
23.2660540635370054	0.7825959162085000	30.4590294143202058
19.0260629932271428	42.2739151983591199	34.5698579394282106
23.4602044572898585	40.4345793344876938	34.3821959527176091
20.0727994382122965	39.3651702175497107	34.2784116048833880
19.6173427361699204	42.6535835006480113	36.2343673577492851
23.0767712391670692	39.5717220380756416	37.0874556529334498
19.6680739671027922	40.9445433176209264	32.7887815873241877
20.6145679815181602	38.7984021325215949	32.7089042477609055
23.3039735886272119	37.1592227239469395	32.0415168173145375
24.8425935034824015	39.1727973833691863	35.6669085784520590
23.7983242004595752	39.6309710731107430	31.0362512024644168
19.7712554073685887	38.1488650405310636	38.8777828090677033
24.7605272753144980	40.3334391225721305	37.3735305216150024
18.8174298055104217	38.0449886474798120	36.9280765828307693
24.1887467809737444	41.4486498346236303	33.3330956807534662
24.7689154098768576	0.1363002049973461	32.5972194513350573
22.7369646797906348	38.6392649857350534	33.3526795425451255
19.9701537406248661	37.4571427449919980	35.3372467211562480
32.8645305745742746	38.6730568629520306	33.6154316898167451
32.2275561789875340	38.2589406456789476	35.5151989570972688
34.7455647103013874	41.5042706909090171	35.3396510444960157
35.3805260615136490	42.2183382641914591	37.3165228958675712
34.5591764204673595	37.2821572809471888	36.5512455178711804
30.6683497301343557	41.1788845319793708	34.4249724849726135
33.5914417232627187	37.2455264067666789	34.5621110275441978
35.1492730044698050	40.4673854332615051	36.5370515704318635
33.7506735521061074	0.2359312122946383	34.8552959755855554
34.2849577599442696	39.9223980543251926	35.1880508562802561
32.8502588107856539	39.8967598603218292	36.6037090335022057
33.1404509811838324	39.8318387690184181	32.2715541676848687
36.8251191625195275	40.3860167877628626	37.2890423711630064
36.3542683772009667	38.3146547643734436	32.6026874735566423
32.7278610166201176	41.6926030995245185	35.3405325922171514
35.2052639097269235	40.5791325435857573	31.8876257664734979
32.8350433065357308	40.3708023092704025	34.1956002316631000
36.5501061984886988	36.7242312109913271	37.5034678284561878
31.5312990439162206	40.4894857415928584	35.7355529378533063
25.5820677737714099	41.5394039170902118	32.3006663574746327
27.0760351927973844	42.7523242205025795	34.4826362045747814
30.8704101916026836	37.5609182021698587	32.3799030325402342
29.0371354046408214	42.2878382609359136	34.9581601363619257
28.4641656042467979	37.3399587829290667	35.4583157860656968
26.3080339242414496	0.4787833964499609	31.9779927422917076
27.2339630077265369	40.7092061595415586	30.9843602303151364
27.1960616196355538	39.2312485270605293	35.7549799504203705
18.3578949053778544	41.9781913819260879	31.7502559165218798
25.7601640069355433	38.5867300732402398	31.9120379026935481
29.8794187408458143	39.4716398836443787	32.8962837364179421
25.7546551485664459	36.6676810072941208	37.0853888302379886
27.7276303099327528	39.2850566955063556	32.0867757341589410
25.5452157217268585	39.9800077405928533	30.9281519226146990
35.4612301735081843	38.7804128218651911	30.6142848937271737
34.4752285642444960	38.9759303071066370	33.2566716933574185
31.3689222138406478	39.8170127174114015	32.2823334411936429
10.7264244206655732	38.4483205565185315	35.8098139011437979
9.9390535896293972	35.8360901828157807	34.3302894751920817
12.8062277101871764	37.4487251388721134	31.1260136248334405
8.0410178815760638	39.0175870871888648	33.2859730486747125
10.9786533963053472	0.2824824977646744	31.8101659742866367
9.1851611502730179	41.0113036835690039	33.7466297163530413
7.6533534606676463	40.4710559238812522	32.6732555238829505
8.2632378088113896	39.5718800432351543	34.8578715571806228
10.5936560666927804	38.5890530453820872	32.4661565724798180
7.1132306482867920	39.6349761051145038	36.7319625543804236
10.3573563273393585	40.8205759064852387	36.0410114893215336
8.3983776289702412	37.3858307989838821	34.7200259269217497
8.8987216806199694	41.5832439574155188	36.5118967156830578
7.0377152337177122	38.8559723283412453	31.8453712183947140
10.3841331994918651	42.0340829092633470	33.3429762562109815
6.8222198077059435	38.1331802945813294	35.6275119681814161
6.4658883797578355	38.0148600339082847	33.9839495609285791
9.0975426848905965	39.0547657155387782	31.1825745334964104
3.1238707393237073	40.1719031293826916	36.8861783148512004
2.6498576032920722	39.2710463827920506	30.0929279270765129
4.7769841031039864	41.4215141325549325	34.6547780257404909
0.4177260793219160	40.8994538575953186	30.8897238572744861
1.9765567665068531	40.4848272620897234	32.3543222500296679
1.1108709635718252	38.9036766818970392	32.0581670105877379
5.3418267733720182	37.5418150335069569	35.7374859843042287
1.7216914306488038	37.6326674256622482	34.0501987863083144
2.6213459083437369	41.5352525442717635	34.0329058364764876
15.9730585203962754	0.2628123929294915	32.9480164261059443
0.6678054894101384	41.5597933076166584	33.8419441601995317
3.7873169454756961	0.0197929669427161	34.0446735829218596
5.1342810335463351	41.8549228991409592	36.8329214502118418
5.8106977758041403	42.8196378115327292	35.1640342394821843
1.0536479444351627	41.3510914805781198	35.5585775097251471
3.1732173499619587	37.6079288715488573	35.5044558502695864
5.6782622051627305	41.4294443756835378	31.7435174652758398
8.4796307856963953	0.0356995923151104	32.8663499019164220
13.2957009976021467	0.4262337640694667	34.3546226866226974
14.4077432792907754	41.6656619627930596	36.9062652066038765
17.2748070151913389	40.2096202999273089	31.5558934385342233
12.7533852681174729	38.2434106165758436	36.3842982804156634
15.1331283909572267	39.5344274522398038	35.7675041749689271
12.8529304569853107	38.1391337449032051	34.8154763630864821
18.6915536509348712	40.6657540260070434	35.4732141114880832
18.5693571221597686	37.5907736640531240	34.6643953789966730
14.9235193300006017	40.6468284747983617	34.5762639794768489
15.2012080511239436	39.2369235334504793	33.7522844516416569
12.3802475966244927	41.7372393419026722	33.1293361291857380
15.7428942589890060	37.0192949502936415	33.6609949371415027
13.3990053687936967	39.9876570806894662	34.1535553137519017
13.6294915685848945	41.4866597012204679	30.5838851199075208
12.4269401276564242	38.8697084194888944	32.8763727457908885
16.9191920229385282	40.0803843879697723	35.1250689931281670
19.3536055298233869	36.0378213308113331	33.9880943605852579
20.3773919220802604	40.8538474835419052	35.9292224834181866
14.0300575664311058	42.6153303420717222	32.5548948812556986
15.5283044161338104	39.4246994664435491	30.8893371741033391
11.3252390905252973	40.2141759087613693	33.7828205792001341
15.2868984160434156	41.5094625356123359	30.9218841509590447
16.2024594779669435	42.0903863106980722	35.6018735903467274
15.0331647151556105	42.8396789667319737	35.2919705432650659
18.4248788587900734	38.9194670652656001	32.8482101678301603
17.7905849452227258	0.2485383218775633	33.6990092586724614
16.9100984046175000	42.5035950317670910	31.2679328321347043
39.8313581485178716	40.4649788922833977	32.1219318664861078
13.8662185588949356	36.5618858030615073	36.0430197035808249
14.4781980879936860	40.8273963785743703	32.3699669964895520
18.1042736710182943	40.6168360061586000	33.5613236311402119
14.9932485802146935	0.5708468596413936	31.2224388728003071
17.3028050335705927	40.8699858396554490	36.8012053202593563
17.2776309957279004	0.5936962926679699	35.6284698348503142
15.4374598353919570	0.7967901045757142	29.8710571638627869
15.9668621326376261	41.8830648413621347	33.6479951930892369
28.6422374468700234	4.1648126463093691	38.2540368499491308
26.4062375282333655	1.8683499715998855	37.1247975700582842
29.4569213058206820	1.1205531699802813	38.2006858988284534
25.8260021623647233	4.2328122645840489	39.5465332826621676
28.9490638359424324	1.5193756314352069	42.8243032503397885
25.7363796210357663	2.3794463874871292	39.8970116051692543
27.0630640126644018	1.6492754205484563	40.1542224518211199
25.8466585307705543	5.2450220078998200	37.6699685185157591
27.4594034996699321	0.5323892152602320	41.8022422844793908
27.2316842992651793	5.3760038648924500	40.7455679147169292
27.8480283960816521	2.3526562155402133	38.5681643291349943
30.1964907610293203	1.8178302058030931	36.8993075617671380
29.0259909766565123	1.2662086313984207	40.6258864816667682
28.9491695249261376	2.7828189697116583	40.0281166541862277
30.0514081916662903	5.3181270883334362	36.9356165495446689
27.3665371383250573	2.4241342716514676	0.3085209055850895
26.3803573865332872	3.1455931587764332	38.2929380306310705
32.1896189165987607	1.1657367474409854	42.6646403493492770
33.8485249405109769	4.1932964106651998	38.9374911690976830
24.2285253296255760	3.1064158911591115	42.6854560036307902
23.9621724290587146	0.9997666862554536	42.2779915873762562
19.3922480481561657	5.8979538954544548	37.4517955991234786
22.6124432879262329	5.1495638934234833	39.1956207893770809
18.3244854548303486	6.2561433309452052	39.1927968099912007
25.5957399424723206	0.8371552992428033	38.0914002769218953
21.2071770020592822	5.4047222313607746	38.0921385786826079
19.0123650829785120	3.3134760407705413	38.7926498736983021
18.3406307443600198	4.4562406669588226	40.1708152837426908
35.3575639749260020	1.8325871080213154	40.8439486645656160
20.6852277954490589	1.6399249944860608	38.8587559935980948
23.8420910471013165	3.2436358865904209	39.3681339479022157
21.8880187824840071	0.5229362502915438	0.2487110167514979
21.1930989445425340	0.8556851389798236	40.8376892175364361
22.4148469825418672	6.7091423510399917	39.1429975276246367
22.1422179866295679	3.3046444064858314	38.2291333750320916
26.0158482905053638	3.4484517266315637	41.7145782105781819
27.3643415061949504	2.4171872228620286	41.6257554980362059
37.7863878757572422	2.1801115920648653	38.7033025294294930
33.0269941237515141	1.1586258652509094	36.3434225820971974
33.7661798430302795	4.3508478567472668	0.9846202531379947
35.0257930350245772	0.9954039457645808	37.3302447844349317
39.4787784557909092	2.5392545411018292	37.7106973050471339
42.4336068130783843	5.8028272266875724	40.9987477829178601
42.2394999339231845	4.5374705868443739	39.4877762191297847
40.8313473743260431	5.3158936556595870	40.4601058394315913
37.4160817041703311	1.7685366895205361	42.1603506278739175
30.6163200889652103	2.3039753418575430	39.2581244561148708
37.4057489251075879	4.2879111814125812	37.8111129393744392
39.4124752364837434	0.7782221601215379	38.8470790931222325
40.6710737315634603	0.8272308597350916	42.0734723117685263
41.5018950571159380	0.9112935685753583	0.6844610562397798
41.5111380422940996	2.1336204686140210	42.5028687537939334
36.5561220669815654	0.0485046035449199	42.1023931875688149
42.2814751266119444	0.8837189355370334	40.7618181151465251
42.1843897396239171	6.2528768982923699	37.9020123122982966
30.4012694431976804	1.7956586067122275	41.4430914647879547
32.2793521041327764	2.5125545266093510	41.7671173068911727
34.7700871643921161	3.3118476294941814	40.5976428135720724
30.6647585440771024	4.1556404410149250	38.4477208690737982
35.5667886888941496	5.6282170143276371	36.7850669069241079
34.7117377278062094	2.5615267811094573	36.2807042607062726
36.9871126052722516	2.8466623315139583	36.7745026569587239
31.3015479457122545	6.4420420136198357	41.0328088446144150
32.0348808856638954	4.8392653498005558	37.7593629674374398
20.2046155423025340	2.2729657812195092	37.5057612797610389
31.8821994604268539	4.3291624751633773	39.5305617452571525
31.5932814727332669	2.5977268619778457	37.5918951249420701
30.3995352793922002	42.6149907004106652	39.9918526539190964
34.6969627334508885	5.3966617201768008	39.8450974014748098
35.5884096007431197	3.7822895451599812	37.5072016349433071
31.3052190494982838	5.2162890561593294	42.0240071524904195
32.5123071479727770	4.3119105124477493	42.8846357454959204
33.5746161204097575	1.2613105959756485	40.7580207287930918
6.2604709646397101	0.8581933449648697	38.8489524273307865
4.1385171506312979	0.6145670807929816	37.8242995964677746
5.2791050738371066	1.4228168098590368	40.6780699409020627
0.5551266632520204	0.7734523595944375	38.9395037659603744
2.2563665962200998	1.5114626497899302	37.8829605793426225
1.9024134831854136	2.6974678168308697	39.0047136667898044
3.4365488348916617	3.7915400119067204	40.1686850171129635
2.9196586320397162	3.9019937103024591	0.0733101193760248
3.4474467402921825	3.6602966221431159	38.1541704429567829
3.1367616741288105	0.0796194439637777	39.3783525691804215
4.2943472732105068	5.4301175989295896	39.1359834674883800
0.3135431026042631	4.2504634668033967	37.3285155910819384
4.8880449936543720	0.2158225224880040	42.1606268633339880
2.5840906800604535	5.2940517587144393	38.5649282484606672
0.7501700383194471	6.1239005236691639	39.3241531950420367
1.8686735853329299	3.7090570902763189	37.4431145433784351
0.8077120738459913	6.8480569945090535	41.1391683099638925
10.2192838188644384	2.8896389368636135	39.5465213372529476
36.8869204212393882	41.7753400036614053	32.6733971131401333
38.6787314853064430	40.9825170646598522	33.5478480554822056
37.6444460347427921	42.0661504927408032	34.1076445177226333
40.1056402093352702	36.9348673289350913	29.4752985338180977
35.3527469331786435	42.4763000660447361	31.3716415050862167
39.9686867903577934	36.8837981563445894	31.1608182408460657
37.8212237967713065	37.7110366380066182	35.0845648031223618
36.7303209648277615	39.7819078959091783	35.3055368278804735
39.6922730568913096	41.8608892556332819	34.8326783386394396
8.4611497112291225	1.8540122598926427	38.9712209642124563
41.7536659782583754	38.2531290299015225	36.2250088730270576
36.9878550356151479	39.5716795246213238	31.3523055289323302
40.2489254428219994	38.9031209100985080	30.7417479710956378
42.3039804273809850	40.1022279445322596	34.9902249465926829
40.3829673994959464	39.5795360641793152	33.8598817019587415
38.6893972779163207	39.2511089189310454	32.4310083949527623
40.8426015105149176	37.4548513865945480	33.0901662077185819
38.6045943475504885	40.3702525479128127	36.2872543428657934
13.6390332258101932	3.8478599373749374	41.7005036911698568
14.5821746756271935	5.4829305371860775	40.4385829098413723
18.7429995048588900	4.7483938864185582	42.2657398763925656
15.4688148572477839	6.3479862818213277	38.3782384942858741
17.9043021270552210	1.2610436642444665	42.0365552719913680
15.8035695569932688	3.5516598983649201	40.1813888302127964
16.6884669523579134	3.0145085332814774	42.3434785819274424
14.0507417923180018	3.8447548201345163	40.1197296032570350
16.9258180815086519	0.8094352554114694	38.0923027035202679
12.6706098212068170	5.5985695904560151	40.6741013522602799
14.4658789712360800	2.8196954031450563	0.3213997572280263
12.9497797524439680	1.6007680997457081	38.1160359934859372
14.7578151839339586	5.0208865437817005	42.7341473644597016
22.8905643788256512	1.6971624430188308	39.7237003199406047
22.9302690186615088	2.2118371974042645	41.2175753822904909
20.3177182119293711	2.8154297097502425	40.2140989387006158
18.9441742940323401	0.4345698960249907	37.9574365156515015
24.1458585744255387	2.1333393758232262	38.0812890688636188
12.1488369978106263	1.0583004930866968	40.1189874457549820
7.8354203148722892	42.9053196438252087	38.0970623933420498
8.4557999721892614	1.3614973814711375	41.1399842295528302
10.8390421019605938	4.2155417759120972	40.3452105886000183
11.9293263449123135	2.7030448826296234	38.8033884103105677
12.3776282070295238	3.2143849984232831	0.6559957723673178
7.4662873571834956	2.4700672842114884	42.6449418619562195
7.2587562380619399	3.8913465708263688	38.2230027770861014
8.5626946910230259	3.3149256843138124	40.0800207825422063
42.2293336522783136	17.1071777723856719	37.9625180782826632
7.4521435802356191	1.0881936239106449	39.9682253046150109
10.7759147005446785	1.4969505976911510	38.3602702974839147
11.9267059800982747	0.0812267202329106	41.3561010974659169
15.1058105331418115	2.7628797327763408	41.6646912051535452
17.9759622279312765	2.3517909604275395	40.5235790928194177
13.8569412219926367	3.3582208070913944	37.8965903072755097
15.8349079680680109	2.6318156615259753	38.3305513493285730
19.0617438903275342	0.3092320748106109	40.7529046520294287
28.2149362818782485	33.4821350635286521	42.0701811653660513
30.5858686751477080	30.6589033523849537	37.6472786159724464
29.5618521514831869	32.1335959930782238	42.5002173543797070
24.8709137331000463	36.4082175305268123	0.6436437973592282
27.8472634417108829	33.2895964929111585	36.8073443355731911
30.3553760935177976	34.1910213094033324	38.7210480642234600
28.0999783276024608	31.2495370735335030	41.6697147204025029
26.4771624527397087	33.3336300761442601	39.9959655233762703
30.7217648606776308	29.4025890637768299	39.2695641675367924
26.1805637426366502	31.5221780120530930	41.5950358243580069
29.7538728333120588	35.7277401361672631	38.8857255443687890
30.4665019273554485	35.2510052893429489	36.8342657389259784
29.0620882340513802	34.3367237720054845	35.8261794792371120
25.9448631553310065	35.0274918183976567	38.5867377767457782
28.0043244935129927	35.4657157369440057	42.0927732074821321
28.6658449111909164	34.1888681214215140	40.3281217583059259
36.7172434289794296	32.7210371968005873	0.4282510411896262
36.0758895058496876	31.7482958799368369	42.3080820217674045
31.8103632208571376	34.8440498782463450	41.3563411063840221
19.5337723760057038	30.8941509663559764	42.0386711989733541
20.6555916990160569	32.3987866997731402	41.5567030446864436
19.8855627952726444	32.3188264751543812	38.9141439649970309
23.6490828476990380	32.3007279849803979	37.2557894510419416
25.0787853486076031	31.9860790733604645	40.7855565168778256
18.9338930159285290	36.2090894865643307	39.4591328730371345
22.3486140592877938	35.5460530826839118	0.6809728264280971
21.5856194223140072	36.8783184320228159	42.7580313410868413
21.4663688970588602	36.5049432768153608	38.7668122460438980
32.1890561305473923	33.8194660145688317	40.1265991871294574
24.5008383283099320	33.1501481989612614	41.9530806381104711
20.7621633825650740	34.4204236908238030	41.7849543945236448
21.4825966118509015	34.4759152709953938	38.0670373484015698
24.6188982722630811	36.5024910952185380	41.5124784274865775
27.4497001539720458	36.4385716537130193	38.5427944236628264
25.7655235466380326	35.0086177799227229	42.5097475403172069
27.5072887224139997	34.3489002413442464	38.8826695324630904
29.7235431939789834	35.1495543161013231	41.9078471080388866
40.7849512064416118	31.0020362399310976	37.5670917894915135
40.3352865781742054	33.6199870643318803	39.6136907546260417
42.1061136439142203	36.1108366881693001	39.1504208660152244
37.8858180018045942	31.1802730899269136	38.8889083785566001
42.2872090753272900	33.2757571320084722	38.4743198516465696
41.6914146632638847	34.1562868264607218	40.4166019210762784
41.6059481123674360	34.4124566865380004	42.7974082179761837
42.2156096257956364	32.7841505245915812	41.7164278549954446
38.3850597814532790	36.3011672367800529	37.6763959281444585
33.0985779861930141	36.7157813138493410	40.8853279672636489
39.2468201129566410	34.4084676595919419	38.3637771678778847
39.2438034710056698	36.6400179822208401	41.9605146211745748
38.0893721968918157	32.7280208165027986	41.8840957077334650
41.7357853123533076	30.7311426484183308	41.4198734086393756
42.0880658846507174	32.2755635824213840	39.8595838236816462
41.1191150736399678	36.6420758929267620	40.5153491421869063
38.8684022907562223	32.4771729471307324	39.7426665104368553
40.5449682557032602	35.1921681865043325	41.1928537263407293
31.8817510022792590	34.8989910881444416	38.3037270300419834
30.8527118322631573	36.7662540982401538	41.0821801982416019
35.1223986008040043	34.3213753918902711	40.2002893510504080
34.9207174483095173	32.1178877679786865	37.2394882374024263
33.6475322371969625	35.1510779319351272	39.7362897365835011
35.7905581673797357	30.9265639680486402	39.1415117131669064
35.1176020533256548	33.7830331490933986	42.4276471060979290
35.6618506283079597	36.4717638051384512	40.4894256789686580
33.9575833203359991	31.4554461123528029	38.9316092239844167
22.7119961067774518	35.0888492294794361	39.7790250448214806
33.2119282366287081	35.0813340690448499	37.1638504949053328
33.8125333118845433	33.5037447156958450	38.4633744612766364
30.6164853375283172	34.4234223884908843	40.3748382847831095
32.8091210501654729	36.9118985394128316	42.3937494566897186
32.1393990630014699	31.3015971372529158	36.3061100932509291
33.7561260136452930	34.8375904259640592	41.5232824836763186
34.4541936339754500	36.5972194429729925	42.3678088542802485
32.8285837842463479	36.7194971413004652	37.0481735457689254
10.9540873277780779	35.6532475272379799	42.4352832800525874
12.0321672632655972	35.0931470802082046	39.3003783251697811
10.3494582514550046	32.1128009515597057	39.5949185913731299
9.8141391964905349	34.3688974902051783	39.4176020558348270
8.3234422799220287	35.4839449070356849	40.5182214833173262
5.8681043067355487	30.9445487285908314	41.6998334188814894
10.1542941409487106	33.2373367935772919	37.8697339363461438
12.5955214315633679	32.4926623028752530	39.2883875791638673
5.7604568312021174	33.3081382605019130	42.0089000881770573
4.8579300138941477	31.8793394665269822	36.5549262465547642
11.4563059132348108	34.2024824494833979	0.0038255712284609
8.2860926674674005	32.9474330630393268	36.5347522639565625
12.9461823951126789	34.5403357278090652	42.1398372582549499
12.5215283665428583	31.4197284100530396	42.7584065704448832
8.5581677417960105	35.8767032949626596	38.5028194633801277
10.5413550745625972	30.9010573068313548	41.4897682670998620
12.4593014140286176	36.3128750980127393	37.8289178652960558
10.1796272914723573	37.1224702870801053	38.9245203094508270
0.9972056454973259	32.6119511836180607	39.6735484628663997
5.6428989897859898	36.3666448201078936	42.4711119668471753
3.8363676314111679	34.2113684227940098	41.8044379539644240
6.6768630649745822	32.9640474980717428	35.9539063636464817
0.8781861848853694	32.3470755524146156	38.0965459688717658
4.7774422766673670	31.6084921011801896	42.6639410848449998
0.8473066786585249	35.3460478552093491	39.9636744278332259
5.3240448916771816	37.2004602626558736	38.1430068259138864
2.3220627372273590	34.0713642861007600	38.9894323432399119
6.1453605761854506	32.4753927330279382	39.3204257597101332
0.2068619577623738	36.2376592295849278	37.9146539858555656
3.1578882351779054	32.3904491953630895	41.8189408412535215
5.9314760774510491	35.6254290110877179	40.6298135915063412
6.7126188505411788	36.8488541182324028	37.5005405119092217
2.6012989738173666	31.3952351986678337	40.4202548115963438
4.7228875149927676	35.6823790907354095	37.5948353496343515
1.7388622595836136	36.2670195857276099	39.0490120815879465
0.3518407309184929	34.4663071822811915	41.8398251645072179
22.7765172119209822	31.9156105116601339	42.0001028287311229
12.6482807823011605	31.2859493138275013	40.9168825268878393
13.4596863612051827	34.9960629938536343	36.4989736013971466
18.3735869520094113	33.4527106791861399	40.1160007973738786
16.9453401914963635	31.4524482165019634	38.9171001572870381
24.2653374738336858	31.2046552740319356	42.6586130363846792
21.8516692102393719	32.5426265539919868	37.7979120497226546
24.7457258584569431	33.3694224360075253	36.7008640935318624
24.5582312182650284	33.8815520296331769	39.8628515115761033
14.8657205564358321	30.5929577238575092	38.8577573016282187
22.6401787012014353	33.7060769892908496	42.8667244590726355
19.0687088844783545	35.0593125050383776	41.0410553196022363
20.1223605036415663	34.2517624983848776	39.5694376295295172
22.5349634955429323	35.1758631924649592	41.8624518974613054
21.6378694437154628	33.7642297179860478	40.3176520961767935
24.2164789818493809	34.4392865241707327	38.2527080216019399
21.2653069706318689	30.8065658162406741	41.6252112445932951
21.9209110693206846	31.5624362714326203	39.3162839000931186
15.7119972781683011	33.1085037994756348	38.2089989179636760
12.4339227136892951	33.5148163559005425	37.8383726601069199
13.8326694317841223	32.8599669948332078	37.2141118758862817
13.0656241599881717	33.0316251522159021	41.4160641981861986
17.7979373188958405	31.3615982778684952	40.9350059813419307
15.8416743636896040	31.2261895237897846	40.5588423151041653
14.6796139893692903	34.2803245440695576	40.6509891744513894
13.8629567569579280	34.4974840263211320	39.3589437467135568
15.0691234609513547	36.4326029210825268	40.3653228592215001
3.0529448928348755	37.1543513550555886	37.6551004387833999
14.3025748944789797	32.3999634208958014	39.9193064659705783
13.4042685260151853	36.9972288156751929	39.2786863066507266
17.2040878880564065	33.4690197491597488	41.6748017806687514
18.6282748371638469	32.6462889173793656	42.0211902320413344
17.2360682598767063	35.4075656038768756	40.2886989870758541
15.4015082117287818	36.9963614088512927	37.3197048000929215
13.2091959244027439	31.3218730641446577	37.6650690142426043
17.2208281077815144	36.0702500589374324	38.2482232272655125
28.4627104207213364	39.6519395702971167	42.2887725238153038
28.8004512841917375	37.4369761358599575	41.8822516895701042
29.5603419582836757	37.3399198623168900	38.4348489850286583
27.9324506168260847	41.4587136019186389	42.1820770374730429
30.1093501904546166	41.8114589735499251	38.3924572712397065
29.5896385413331480	41.2946404024442799	42.9188876353295612
30.8281679506046018	41.5440136879386657	0.8272670345458472
24.6427981250218338	41.8061184357275479	37.8297981305989595
27.7572138630318683	41.3555008650087430	39.2175278582028639
31.2803551900125534	37.0364126195368470	38.5908566893537213
28.2518605647452823	0.2502595686453062	39.5226003820904239
29.6071695051557597	42.8823362208490906	41.5118003361581884
31.6031058106078113	38.1424965654721859	37.4407786794260602
35.0174779669061422	37.8966657791506378	41.1111657787490614
33.2640248751080776	42.0427335525948678	36.8296117840399404
34.0990157341858406	40.8828956898801579	0.7937515290849819
31.8257794947249302	41.6058420798066848	38.4289408158632071
34.0133427349115465	37.4499094183883585	39.7417586392074895
34.6137537059864400	39.4286880889240621	37.6331678461863532
29.1841375203428370	38.9126173193577642	0.4835225716234634
21.4927829358660922	38.2988369213865809	39.7006676653831789
22.6419882351750736	40.4432426335736039	41.4724520825207819
26.8069539876653131	42.4065108626135086	40.7586931107639074
28.4256942822172967	38.1927052907063711	37.0298176642586157
27.6108857680095383	36.4293141461148053	40.3647102106305695
26.7499897948586423	38.3199639453376975	39.8361929092177931
27.3829491851470159	0.0361516614165041	37.8274740220375918
27.6691123265506640	40.2422615373085577	40.3913780444096702
35.0812548950489287	40.6177557904385509	41.3877937503811566
29.8435092211694517	41.1819511928600335	36.3970513126483084
24.3606560490992727	40.8492580239114744	41.5619469899200666
26.1080513318129732	40.5070383931554332	40.3055059366546686
26.9524145051483757	42.1791046626578847	0.2171788278264414
29.3553884453810383	42.9528149741378158	37.0108028131768449
24.1831153842086799	38.3610090722063859	37.4692090829030988
23.5172713114494449	42.4655298803700845	42.3239580399858042
28.7036978962568838	39.2953790903283178	38.8064065077849136
38.6432630043684142	40.7109905764787072	42.2765977643944382
39.5519198994588308	40.5869366565974659	40.4077272039512678
37.1611208905347254	0.2355834594512764	38.9630784150151754
40.3702515939607096	39.5716618162148279	39.2970069332847771
37.5599085082860995	41.9061741865838187	37.7982510167684751
41.0574722758806772	40.2295152908930120	41.9020357206957854
40.6559752341675065	42.8901797448788997	40.2985278120701196
39.6715030906901660	41.7050031992740386	38.7863710839266602
41.6391607442998648	40.0001467318467121	40.2987196230489033
42.8698547246785608	39.0697544519950313	36.9911317333206497
42.7030407974171951	39.5131755567013272	0.5672268425251572
39.2160502173226462	37.4803360242590102	0.8046809461259524
41.5628955649349692	42.3549033851068657	41.8658292212516656
39.4735027419724744	42.0823579514185298	41.9268146334090304
37.1017381756912741	39.9306007307568862	39.5619725343475395
41.5057226931168586	38.0140888928477807	38.5343462676538024
42.4721531089992155	41.6257555487615960	40.6467601457602186
42.4555092169159991	39.1398196617434238	42.0508142765331883
34.7041337050964032	39.5900895367064294	42.6076590809169389
36.9253038979359332	41.6054126646424365	40.6990232150560800
30.8987248892120761	39.4976944512013048	0.7019753986865599
32.9435845769471669	38.8006171487690921	38.5967146882803931
34.1965440388893143	40.6225012349979693	39.6831613948376614
34.0304986226206694	0.0050095975961235	38.9491999365970614
35.6915569715136840	41.7651312429763095	42.7951656683113342
31.3770769385896919	41.8645433859383402	41.7351163165677832
32.4318118898108665	39.5134267509128208	41.6336112726532690
24.1516701097361555	40.5686229652904018	39.7147593686448559
35.3527933147617759	37.8508482738661414	38.7081182800381214
35.9264710836449552	38.4112467138960270	37.2412348066730914
35.4079265418139997	42.4390448512926923	40.6567449322253083
33.4246683092692862	40.7295561122954126	37.9203309274044216
33.9039425594594306	38.9809250293073291	40.5324136835045010
42.6155204192678667	39.0813136052600711	39.5516988468514157
42.6443661312110933	37.9172486483668862	40.9365887864174312
38.6607839677630878	40.4227789345898856	38.2487339355550446
9.3429781858504164	36.7743026255907424	42.2298589900598884
3.3384044612799357	41.2411514871552214	38.1278425753823669
1.6478824872124731	37.1449003956625461	41.3136107181604828
5.1554071109906063	40.1849716610465748	37.8449123928207101
10.1110487642762870	38.3188120119758580	40.6487823369721468
7.8410248090098325	42.1939033910985302	40.7040697670315126
7.8561175123091136	40.9233897925095462	38.9428350321312351
11.6325009040099463	39.0044486952606562	42.2204539363107116
7.8077025377008882	38.6011742077714075	40.8516857880660567
1.3148904737229572	38.6414606516281367	42.0737382754806006
9.0373011173126248	39.4718699449712318	36.7659999624755471
11.4019085782237077	40.2825434006789749	39.5093732516807350
12.3852956260345923	39.0741260336085787	38.3883017409201912
8.7166999322495187	36.8682599455842350	37.1341121790189277
6.7130420222637923	39.0457486653198771	38.2633951344484942
6.3004408453336218	41.2688122129821551	38.8475617962679536
7.5942552196796136	0.1969123767394262	42.2520013272586468
10.5009225979890672	41.5006248532344912	41.4170510393954885
5.5159050891926462	39.5919961382989527	41.7533945594170035
3.7456583987363734	37.6356259920587277	0.8323281840236546
2.9857021488013693	37.6448802398954356	39.7296910704917394
1.4524483295794430	41.4049509288774189	37.4674148274166470
5.9035940440471979	37.6319986700069649	40.8969271024185872
3.1752338926118688	37.5157897098892477	41.8311023291861872
0.4881854555295351	40.9111406229383050	39.4783761969520484
2.6716977992756132	0.9221467248123808	41.4378666789983612
5.9052995715457319	42.0154762716097423	41.0248495738347927
7.3446522011115150	36.5183111190176461	41.3420418358524344
3.7279537010294455	40.8673514319415503	42.3850141416731034
1.3258514108908317	39.7681865051763452	38.5334182056116035
4.7138885391349765	42.3135415891952604	38.3932513652744518
0.7835395559412502	39.8380876492830680	40.7251275739488463
4.2725825483931903	39.1868483588610701	40.7945021462971553
1.7954012096841272	40.9469373289663636	41.4376551382467753
6.9466022984433486	40.4102201421516014	40.1990045141065480
3.6273545717855362	42.1676536482326085	41.0164882089244145
20.3726530038389662	42.4834561799205517	41.9041341571616428
14.1505871992602561	38.3411657462559887	38.6472777073251024
12.6031924347043738	40.2786569067604177	36.6350241766411528
16.6280220372439125	40.4235171330068326	41.4294752979858600
19.2215727981720548	41.1945387548048814	37.3860262456705641
18.5885688520580636	42.3887859041425870	42.6256798011783218
21.3487671549303748	41.0481222619027903	37.8875650095422358
19.0408328442221411	39.7445052063406052	38.4548287784463199
20.8998811081598497	40.3094560723648527	39.5844176213073951
16.1731977239524056	42.6271084847032000	37.3488350259832700
22.4533934417764414	39.5250592368448963	38.5498569714569470
23.6302111815419238	39.2665803825388053	41.5463201983812098
22.0039820317709349	38.2387577338595506	41.8553014759372104
22.8778983655952040	37.0326092640547060	40.3073501787002826
20.5007494110003705	41.8540045180522498	40.0025776695019246
19.7067174315236784	39.7821483831248415	40.5771446242390823
21.1857397723052010	36.9947692390712319	41.1923489397772329
24.6421655327045421	0.5305086095767266	39.2355760388291941
17.9262027394375316	41.9584466129952531	38.2468075868221504
8.5377112715264971	40.3429308343878077	41.0310184546212255
11.1714623474345380	39.5678510715138643	37.2192642610208537
15.2376796404080199	0.1874940902536965	39.3994903461537476
14.6285871189621872	38.3241115475113219	41.7727951401360897
12.2975795729330635	40.4383256476301796	40.9172032192167663
13.5608490012750060	39.7356205926520971	40.0932467152841951
15.6657522002758025	37.6079127390914252	38.8509560436334525
16.2132374995673416	36.8224308877840585	41.6596649838395834
5.1981659162939060	30.6831444897439809	0.9407569875862621
15.3932458601130246	39.5890213278708174	39.5943453338850091
18.7441707288123460	38.1691372301708327	40.4871033670915494
17.1417619047995267	42.6331092903729925	41.4158692544612066
16.8730111600539665	39.0842374508925516	39.9333269636751993
15.7837260406951501	38.9849151399224851	37.7459011519715091
13.5468461451396625	42.1062489922806478	40.2793552538724029
15.3955043208200024	41.7110240400008010	40.9091280064723151
11.6502112529292230	38.5110050759282316	40.1294912054775494
33.8848205894601335	23.4112163472457304	40.6735827240073178
25.4635042728906207	24.1083926902424963	39.2057399547631533
35.7449989286886876	22.3683485688512071	40.5691719050733326
32.0004861536677510	24.0065008874295636	41.8205125475900843
31.5844882025059626	25.6627609300808963	42.6302588257894044
34.5676131328398029	21.3792739385030330	41.4820114507924771
32.7171441108234262	20.1137144814376825	41.7194238062926246
34.9388027752299379	20.8382404267649370	39.0448622746223890
31.2809402661402736	22.6823762678672480	37.8255942129322662
32.6379466296257519	24.3813585583632744	40.1771503621311155
27.2221333415369955	21.2272300161468550	0.1724986084899771
30.0118810815026791	22.7588909613251289	39.3927606911520058
31.6896420508127861	18.7071994612292229	37.9390928647724479
33.1449333534060742	18.2211786340674138	41.6463312886158192
33.3094947712936431	22.1481666939426987	38.5092192635068642
34.2421696856333782	20.1585033535671982	37.7367855107197769
34.9449364998024663	22.7073865654010447	42.4240708187376541
31.5941078642482758	24.3080479427631424	38.1542754535703921
38.9258077074160198	17.5041495873493602	40.8613844585309991
28.8140576395510202	22.5960118020029306	42.1059100098944512
21.9500196702085368	23.4614675826079946	38.0326799840433978
23.4233655388180750	19.6340596807822330	39.2643115544854098
19.5623385526690754	20.6064083645518572	38.8232964231521720
20.8898433948546014	24.1223953367298627	42.1096056737246158
20.7657581283857127	19.6309543892568250	39.4020848002526520
21.6677960037614135	21.2813999475353590	39.8077861630501673
28.9536028970136101	20.8630766143860313	42.1920054412359278
26.4123073904375296	23.2136962190120855	37.5959088945360946
36.4248862891277909	19.8706623954673134	38.0970259543470462
28.0071183963711192	22.1700439515492320	40.1685612917801578
29.4442652801044815	21.4737341399151909	40.3422038299707353
26.6590700961840312	23.6169927677663232	41.2602409045512317
30.0382278714009914	18.7114512674553737	36.3330507772910778
31.3318359656715124	19.3324119278058326	40.0368285221751634
28.0379961078669560	21.5399019563261440	37.8030845179993022
26.0450518379959313	21.8066827936481538	38.3786510357821982
29.9786881857708032	24.5477696618369166	37.9122365297562993
1.7691065116980187	27.4038623278279552	36.8649751231903906
42.6243576636547701	27.4195627985296930	37.5357191420453731
1.9357174839307594	27.9163707603891780	42.1452538769100258
3.5309659455059474	28.5317550600594281	0.2843259509836325
1.4508431862354836	24.4464275469034575	38.7069882267012844
4.4500433330031486	25.9488164847764757	0.2617890379830984
6.1420502003425481	26.3415387862820829	41.8175925297926412
5.5554757684098837	27.7313824973976608	42.5849182697051845
3.4190967509859829	27.1375876894832260	40.2114531203365146
5.2017514401271470	28.4503727611983201	37.9465151783098378
6.3372896711469542	26.1289553124022511	38.8740388539782131
0.5116606911109469	26.4526220266344936	41.7523770205566578
4.7484739085215688	26.6157793848618311	38.3488170266847348
4.5802926800332555	26.4797370021324241	41.2216538160434567
0.7874268578774736	29.5712026206484246	41.6797733471879397
6.9328272225781200	24.2354977240443965	36.9061951747932468
3.4221542712649708	30.3261077051636754	41.8083809643284852
5.6374344876403475	24.5160866417405963	38.6968495481585819
39.2001013840082777	21.4854236755998436	38.1021073474665073
40.0210662841359124	20.2143201278454363	39.3756576220683030
37.5923724251790716	21.8026752130179737	41.6408964799280596
42.6897034080216926	22.5296736031027933	40.9522561176507409
39.0916997582593169	22.3289565658144227	40.2120026868408829
41.2071491907922010	19.5489404391846655	40.2180637439920616
40.8034591354553200	23.3323432316226800	40.8302501416497066
42.6709364926574892	20.7522167333505152	39.7028277648481946
38.1832131312438108	20.9438859098562169	39.8336648155358830
19.3159055129306552	18.8660407114215118	38.5308549256127648
42.0234751645134494	20.3863906145846414	37.6260391365661349
39.2116832690960067	18.8512960088222350	39.4275243462039029
41.1004642267446840	21.6343955024417092	41.3247410134898487
40.0407294748955422	20.0248943319417414	37.1747773443559950
42.1285024981943508	22.1676984619010575	38.9209888201396552
0.6597528480795287	19.4705457676383027	40.4319940428297784
39.7021149662107575	21.1150846875073022	41.1745872172212515
40.5812141777031883	20.6517017144813728	0.2727544112746759
5.8525112022493273	22.8113431184805933	40.1911562661602204
3.8546939399579037	24.4761846485967958	42.5500082036097638
6.1514413439405979	19.4104593661000564	0.7159525028882329
3.2155722333540493	23.4473167656211494	37.1920640687777961
2.6193742824897717	19.9814782773853743	42.2065207151939035
3.9251317172442595	19.4196487074021782	39.8455819452898083
0.8738848639767959	23.3692585945578877	40.3841337033425560
2.6244256411936062	22.8101303553587513	39.2258455833225312
1.5977722826477694	21.0504747650039938	39.2076701254460076
4.8873626543526969	23.4761915259210596	42.4867105373087739
2.1953843474701822	19.5567755069412144	38.2655361254107547
8.8610691848625791	22.5790465088766581	42.6096018487610948
10.2637881377659159	22.7335844118854382	41.7360642707403571
11.8461656952086170	23.4311125498629558	41.5129118844415288
5.1652567440557267	20.1893462262455223	37.5929002644525880
10.2939159340738602	20.9132604702188267	41.0764648419787193
11.4252065223734931	24.3283529426600218	40.3609618769674015
6.2869304200713181	18.5373956120529009	41.2435053956445472
40.7837561018991863	18.5481680416757193	37.0150120854475020
37.1506101427473681	14.5101579382684100	41.6039037454064555
42.2100815405593295	12.4130174453651190	40.0206100159424665
40.5476744932169737	13.3198482005580292	41.3589183388879675
41.8120374297769857	14.7205217364696903	42.1656143632329403
38.1276225676913398	15.7577790861056179	41.7356015471131201
42.7260619757545825	18.3666339241275303	39.6278837145892027
40.4308249986924579	15.6013441120358571	38.4779481593850079
40.0805231393829757	14.7341943478792885	40.6207048922681011
10.1549602234374969	19.3647415434659393	39.6554500282873761
38.3269029121492721	13.1986744844045152	38.3154652447973305
40.0740095674456001	12.5561680350076497	39.8040330675745011
37.4585921012631289	18.2755896149630495	39.3928268806552850
38.4606122907876724	13.6829663731609905	40.5621406481672224
3.6131059010056110	23.8039833569350492	40.8704005606145913
2.4056018564136710	21.5580400748927126	37.5118565056706288
3.2411079919012722	21.1430859673872753	40.5635635351716815
1.6174540770522960	21.4453145291313270	40.8129587617640439
22.9774695578204238	20.5695362978007559	40.5142239251629448
11.9308028698209494	19.0488878694601098	38.7748660483155874
15.7480742456377669	24.8841251441956857	38.6006193545968657
16.2283166329762203	21.1358976125253371	41.7705307333024223
16.7764157707944115	19.3900952518513741	41.2919317963660859
13.4903195993994416	19.4314555484082909	42.3950437217828693
13.5343862928342737	21.8287096923918860	39.1495096172467356
12.9812447708208083	21.4546948793669934	42.5021007523196417
21.4793239678886891	23.5028560700586659	39.9585824097127116
16.1898931621301188	23.2321949323960979	41.8726166688155104
18.6157958434187343	19.8590803222988406	37.1282295920953018
21.0431444330906778	24.7634557901295445	37.9627923916924317
18.9154338732081726	19.3386833528657931	40.6335445567738773
17.7174775601615337	21.6769112838622391	42.1957089162354180
22.1388100323993982	21.4060567830165418	36.3364416362827498
24.7475771349029436	21.3269577292241230	39.9877056690452548
22.2940567722406904	19.0713445402179609	42.7806067834792003
23.2224658873943604	22.7302820515148269	39.3635521075894772
12.9844774683828614	20.4934329733984697	40.5802935201036377
11.4559980602289784	21.1144120611674282	42.2036742540117302
12.0033348001551072	22.1201517942380796	40.4367824395537809
11.1829508109591469	22.4482608671365469	37.7060352540306667
7.6440622360535331	19.3299711349022658	41.5322259989922244
6.1400491926147271	20.7983281463480587	40.8214464908276113
6.7658035975690156	22.4330153318824870	42.0731053096784038
14.1452763019769510	19.9278540098049035	38.8310871974198903
17.2230278811808084	20.3884509110284498	39.8118632191969368
2.1884227168157464	25.5922816324358493	40.4044853073284003
13.7293814259597085	24.0139373478902591	37.5332131814489713
15.0254451195572951	23.1780216063797901	40.1001326069239141
15.1240915633950230	19.7981553745649741	40.2549956518460164
14.6470479067024097	24.5829610339476190	41.3446178202201153
13.1867650258571523	23.7675825728811354	42.2546519940947078
12.7047239464016943	20.7354932523292064	38.2029254178689399
13.2171212293982663	23.7280475524468741	39.7378460927393391
17.3394961125164748	23.8751071335468730	37.9739724145324189
32.2224982428824873	26.2608602209583921	40.8945747517800271
31.7353740970478455	25.5840400723604304	36.6031158740200269
33.0651991435776580	26.9522907242970433	42.5994509207148795
34.5642484540082435	27.9576375602734792	39.2082545295609961
31.1127585413438474	27.0223068579932111	37.4511192827885253
33.9356916071104919	28.9936972743875607	37.1438657501114946
32.9236318182577676	27.6383781117498764	38.2405934116817363
34.8903978652791551	27.2901449753856866	37.3505908700528835
36.0276228280608208	29.1855835566083854	37.2889605399068884
34.5582729044738599	29.9206731178646663	40.2495670647778283
34.6694387057624809	24.0338150989059827	38.3466767996382103
33.7002206725606186	25.3077862641507529	39.2461426779224212
33.7118997092178745	26.9755014334414120	40.4429982543377946
34.5812562825372751	28.5349623117854456	41.8725873416383862
32.3835341948471367	29.9294919786356495	38.0046844087734215
36.9822687268460797	25.4635649037116494	41.0651686802502169
33.1079097605926336	29.4564305514295839	39.1303328992347588
35.5817845127927228	25.2829404444381964	37.6990807538971922
35.2680883960341731	25.9215321709137889	39.6636381084383345
26.0509527180435683	26.7822336823228895	40.5072754540706299
25.6725713156634505	26.6912032153502885	42.1256777881421272
25.0210557733405778	25.0351642368951168	37.4508545374287749
28.3353118640045842	27.4578242024234065	42.0396092298500008
27.9184509445290452	27.3025654318347435	39.6600537237615356
25.3330769017220092	27.2358785682314135	37.6249408862644401
27.7845117588922470	29.8709449876035151	40.2510530943803815
25.8562421691147577	25.0093434243290531	41.7265783885592541
29.4817559694629487	29.9622807312118873	41.9195011514742433
35.2557169373078736	26.7384280524857338	42.6380700406976700
25.5520384797710811	29.6364095161529306	41.2740973488010070
30.6716210037817945	28.7440370158360246	0.0953993845684567
30.1032134409554288	28.8853699997489812	37.2851123119295949
30.1593267596784003	26.9200621849303445	40.1314835369188998
29.0784075535602220	27.1269671457912231	37.0752677249416109
26.2575431066386784	30.3639119217539353	39.9780018863407633
27.3868911022469987	29.5872093420216906	41.8454923245048178
27.5581742798696538	25.5349443665723399	41.8724174697822846
42.6059208250378845	24.9142247796363634	40.8258008792755049
41.2145665873069120	24.2046221237438353	38.1635045409842846
39.0598048560432431	26.8218929155082293	39.4943593957173960
0.6074312032629336	28.6695143080132411	36.9581028678170966
37.7688191240291147	25.1934126914266869	42.4181853862874405
42.0466791261719521	29.3104828223506608	40.6244543772979583
42.0789371979072797	27.9249342115447696	0.2036456349693079
42.6037372577854683	27.8472616267209574	39.2737608703155843
39.6541152723025903	26.3498773340789008	37.4355674660755611
41.4582423275181426	25.6910691604412342	39.6653278326585195
38.0287378063898487	25.0987668708536447	37.3774762824531734
40.2019980727573341	29.9975891627532754	41.4907392664610839
36.6675920700489399	28.9494467403882965	38.9810856744728227
41.6116864535498294	26.1065642886072879	41.9035590611975621
39.8479375726613085	25.0164733393630030	39.8282652339151326
4.4546388390376750	33.7530455505356386	38.4401114416223493
42.5378146937288619	35.9173490886766658	41.5668668871930578
4.0103337826694405	32.8621037552148181	39.7736275262514667
39.4675621025456991	30.9094697175615138	38.4668596516305783
37.1627520870457744	26.9951565631125696	42.3927907722532069
31.9634696023786731	26.0945914196230007	39.2131432123865622
36.8349814889646510	30.4356520839374838	37.8082404466586368
38.1916607182807297	29.2930949416848172	38.3367112111948174
35.9778131891878417	27.2387740040929955	40.4318199050757769
42.6770957145236878	23.9306899113676295	37.6187743482670953
36.7541325599001567	23.3887541794627296	42.0396177507297466
40.9786469422068649	29.4853959625909603	39.3603556719231662
19.7721686779309849	31.0565398440371609	40.1882928581917724
40.7013273335936177	27.6076437822313245	38.7244934585751963
37.5548876737799660	28.4498813906059809	40.3980705461236624
40.1648141842865627	25.3396199887794751	41.3756425972025212
39.4762009764924997	28.4654211796956602	40.3967797043292691
0.5803956950419724	26.1146212378012663	39.3827999929656869
38.6371640979932778	30.1875243456018865	40.2229560248001761
38.6856966759534586	26.8192374442375332	41.1532385103115885
36.3552196736847790	28.5363051779932988	42.4509044203391994
10.4160898943062818	27.4495243670081948	41.1758252683639654
8.5361311283504229	25.7349001626579827	0.5967078463721553
8.7049757432603219	26.9308059805553874	37.3492684240001154
10.1335818080933571	26.2268605413145828	37.7578870537825111
8.2060079580056495	24.8825969332544972	39.4186026672631087
8.9360038540560112	29.4725166668521119	42.5316148711581832
9.9854163531123650	24.2374392763819699	38.7905804491904220
7.9933667739413208	26.7216629691914562	42.5033781261046855
9.8722807230247547	30.2769369906571484	39.4769489246087133
9.4940780290134654	29.9698296197646670	37.8956809813891695
6.4949854059653092	28.2637359969831365	38.9641985659193750
16.1504270403971191	26.2339372825602766	42.1391646069860997
13.6410934740690788	30.1532832793157048	41.5527837881108795
16.8945686821357839	27.9499710197495688	37.5108253083274050
17.4936901310577184	29.2789633556953426	38.3585610661140706
18.4437187779476801	30.4222211292095821	39.0545086699429547
12.8118702106937761	25.3737986751558324	40.8768005418047053
15.1717833791710053	26.5923943156062919	39.9272640327658550
5.6771834906521281	29.5507261105582231	39.9265491977397033
2.6401767213101373	25.5234817950899817	41.8518904067372262
1.7076194339273778	27.6301703764316890	39.2702875756998964
5.0239286815848274	29.2828592913371537	42.5568332086158492
3.6768760259111701	27.5790398678415158	36.7290483763598630
3.2759742710768815	30.7964632541634167	37.8798348275632364
4.8968602948525621	27.7678791075167162	39.6356022200803011
2.6007053488551080	29.0657842132259745	40.6537651189325331
1.5256191002036097	29.4902766908755787	35.7446290953034236
17.8614498610001888	26.7213037452761633	40.8956122606925447
5.6192913221766112	25.8438367930927662	36.8722874896607493
5.4143833570980577	24.6502022151331737	40.6762610484290619
9.4472718242448401	23.8212920572230438	40.8013506913012876
6.9633505063708174	28.9059068773288033	41.1945125920901418
9.6235054594279426	28.0756107018297065	39.0606629386933975
11.7732110797940379	26.1894457607902851	42.0304551866578606
11.3324551599672674	25.9078854865105228	38.9818890085499845
11.3323074173846319	31.2431533749956962	38.3179937215964443
21.7462197416800720	27.8222398720909823	36.2064636614376809
23.9896064791190931	28.2219367254954285	41.1820464490179674
23.1252871532420556	30.7291404105044492	38.5677244414767912
23.6223441513134489	28.0084789026528327	36.2360085388756943
24.1631190691240469	26.3848002359790534	41.8046039389093238
19.9428311230101443	27.9879611838631952	0.0234476435657687
21.7860705345179362	27.2786182554693717	39.8553281931357901
23.5132505413645134	26.4808947405653896	37.1630302246332462
22.9815761503857878	30.1660412343265527	40.8637070924576946
19.0431475874241976	24.8571819213410947	41.5320439949348383
21.9694417922778236	28.7405680418523737	38.0562653145950804
22.1199260063639045	25.8324475733547523	0.1678330076079528
24.5561161683811200	28.1513838293399736	42.7417605742840223
18.7746134667062208	27.7218659129827323	37.5005889430684292
21.3035019247687814	29.0066519517215049	41.8647587447043747
23.6611348753253665	24.5723960237858492	38.6437233340817059
22.6759893710911946	29.1243324560559600	39.5075206259390797
19.0582860888003722	25.4706100736430763	38.1681893344274954
16.3282145365611093	29.7891743805948330	41.8174955511252477
11.2534847493558861	27.4696458037281381	37.0361568774443199
15.9424814488951156	28.9357227346129200	39.7048307149458495
14.8709879436557735	28.6434997157017008	42.4168511181365986
16.1270459637638126	27.8312244696264131	40.9224426628879385
15.2405185042984854	28.2179203687904909	38.7066688839307602
17.0042806282064838	24.8609677461518288	0.2949502463522697
14.6812383288815891	31.0138494695658089	42.4323375232064137
14.3787003307966721	24.7773386592176870	39.3787071655093612
2.7647410226744551	42.4709473475919381	35.8138242229571091
13.4279857255159758	27.3238390022500965	42.1339106160293682
13.6786365767966274	29.8475572398792508	39.4545298108443987
12.5587853821250501	26.7217642706249272	37.3620594524967302
17.7724260096643540	28.9723260302395005	40.5568581322251589
18.7152939346578862	28.0526086082341912	39.5163600434483655
20.6641281092598952	29.3427431898146125	36.3573087856086872
20.7746343745438402	26.7665606470794302	42.3439604127547042
21.6111268828723055	25.3406080580002495	41.0584941817252940
28.6409762205364942	6.4798430035324088	35.7499104273332620
22.3675657671915644	5.5185302263473508	30.6434085750433169
21.9546658827903549	3.2679204926222449	35.9450212180179207
19.4487565347077691	1.3255397045191337	32.5009240737430787
22.9852176459422672	6.1817032907219733	32.4383771416398332
27.3009106114596811	1.9325420242841476	33.7939389143781952
29.7911754420590889	3.4815261120011396	35.6384422960464704
25.2785298509395595	0.9297163919456751	30.6309928386602621
27.9749366385991713	5.0611485459712666	32.4801367355506230
25.6258644306471055	3.3860563599804410	33.8926321227011158
23.7043800990716882	4.5457647219643160	31.1087733627234542
26.9944539904101610	5.6601646958590051	34.2782536184314139
24.2089168572586999	2.7054169291080465	30.8013099873161380
24.7937923578363986	1.7629495782375342	32.9119371471183015
27.6434355277634864	3.5795416491481884	33.4559292330279874
31.2591373182006187	0.5614279690106714	31.4781923110923394
34.6345019188994598	2.3732611497495784	34.3000277386038874
35.1395483460204616	4.2225142429468159	34.9115267468185664
31.5093266905790799	1.7083716439151939	33.4875294923224018
22.4073378131981507	4.6049494208141688	34.2551860649022828
15.2916510153149208	4.3253546123388320	32.2062900182706358
12.9075073577862813	2.4877282753103196	36.3248505209201582
17.8981262801766512	1.3225982027464154	31.9263619748049372
13.1555075110317361	0.8171172949934392	31.1660938258370876
21.2165691585837060	4.0854204873176148	31.1490260561222740
22.6299932569310087	4.0241239922344576	32.2889764086406004
20.1972478168973240	3.9463699190695700	37.1894111968404601
19.7776115698744057	2.6282257562310507	33.8783951885183683
31.9262174338331697	3.1087518040216744	34.2703860976357717
23.1998044952273261	6.1637649890357800	34.6910318095110100
21.2950767307835811	1.1804933449708097	33.3844783877668831
21.3662691109497018	2.9458750706140759	33.2296650626874097
20.2086623530119844	3.2364796411964387	35.2734927534320306
23.4616955452055329	4.6754457615897023	35.9733789021863970
18.4090781000909729	6.0339922469486655	32.5455705623385043
24.1515684913938884	3.8314810601816474	32.6149776354244025
22.7544368038371019	1.9850760968075505	34.6179713617180695
40.1831693341471663	42.5281271977200177	31.3526338504613378
41.3911249559404126	4.7478086177334591	35.1503707621100645
0.0951600761333380	5.3349076090223511	32.7710009940832450
42.3911878676491298	2.4560765233520279	32.8434429768634715
39.1406555316572593	3.9403883461204021	32.1223582096368006
42.2730289885324808	42.9165805986998805	30.8819634286572473
39.4846215538352112	4.9162264032195848	35.2505204641295435
41.3101369786915882	4.9277600560861252	31.6413720070192923
42.0044064526713754	4.1046453438022246	33.6217470965219931
39.0846520450325485	3.3463350591056957	35.9412743872943352
36.9407104727825271	5.4807830242854001	33.9643630468154498
39.9803412949163217	3.4811636828875638	33.9575839361652783
1.9618164089853745	11.3092360555940470	31.5253740469046946
5.8848595887376076	8.5557853334348088	32.2308392743485044
0.1705448641188744	7.6459758678120586	32.7065126726976487
2.2258673177718293	12.4214971842905406	33.1483940838719136
4.3458475467997912	6.7996928374874219	32.2406639297636488
0.9909103640142863	11.7375523780646027	37.1459626058082009
31.6379837120055498	2.3608285897260926	35.6949611182740867
36.9119400457401881	0.2332841144374541	36.7638491732335169
34.0308026158309573	3.3327362038349246	30.9845392076735138
30.9463413765156261	2.5541589629126884	32.1790180718922798
33.9611128804791704	5.3867220721750346	30.6783152268799668
36.3975516863806376	3.2430407235688445	33.3449278738320984
31.2961676103073145	4.1224014488411109	36.2228508385775783
35.0303542573339470	0.7102163637829971	35.5508774854759082
35.5918396519745102	5.8274332498641410	34.7664476702722993
16.6047079048474551	3.9884685232180810	36.2336031927836757
32.3162259033032271	6.3408065430194114	32.2858262236502824
37.9742177208937619	3.2307193224389921	34.6638098089492743
33.1886662303955191	4.9319990360724955	32.4056235600610023
38.0257945600027654	2.0963020623320645	32.8407947432074678
38.5720447497470857	0.0905682932141674	33.1950301672024253
41.6041343494477971	1.6538791274112818	31.5966040249917661
39.4577862101647483	1.9966585602738907	32.3159271976216900
41.9520320023088829	0.1171446282337725	32.7019844482047688
6.9895107968664032	4.2798576531487722	36.7681439128013210
42.9967905998715381	3.3087808653078401	34.9291885815318821
3.8821026239175129	2.3611793649283799	30.5594390140802759
4.2396897854863171	6.0016521739980160	36.0804897653255310
0.8355318259088484	0.1307438009966348	36.9343602695500834
0.0491909096764718	0.3777644719712649	34.8867229840442405
5.1600272208541904	4.0060576907163243	31.4311685878791920
3.0899915947550425	3.7050513522138853	31.9112829856363760
6.6983501987756373	6.3651264147542577	32.4209758252120750
3.1368537249487041	2.8143590395969595	33.7936040275280902
5.5653945893996370	3.9758138081503165	34.8998565310858950
1.8623799793556939	4.6073085967903644	34.1431411962561597
4.0252503050448736	1.3028469548884092	35.0114371783310148
4.0279168596551491	1.7614042369062890	32.4563510045886758
1.1754731467706003	6.0535664377143394	33.7477187216924435
0.6452208709063414	4.9911015044992091	35.6449632250004527
4.4158099552065515	4.7271338287444307	32.9941873174050855
5.7591054462936526	2.4547328817387992	31.3601610409738853
1.2720572692366332	3.5565625627479855	30.8386324078842264
40.4035294826481106	41.3672949295900239	27.1040981475841178
0.0020452609901171	36.9655951265290028	25.7950820182024358
40.5283659555731504	38.3961572591578744	24.5190325509292499
42.3750810562775015	40.5853318199041766	26.3854758055162719
36.5349536733306479	41.1641535857647227	30.6686266753117813
38.0105967625754886	41.5860290629245242	25.9098916850033127
40.3438815084892184	41.5241144728303766	28.8837536563120949
39.4169290644519847	39.7627143792093065	28.7733423941009150
41.2404602993413221	36.5439661754301923	25.4133402607925447
5.3996869729481292	5.0856924735603899	35.9710592274488974
41.3853174378871742	39.9329576510515238	24.5975259137477771
41.7674621036931626	40.1979694262519374	29.7460342975352887
40.8711806691392283	39.8244737843061856	27.2520775179855548
2.2727154008633113	5.2087569041191077	36.6592665546418885
5.2561343214550487	5.6887378436906637	33.9856044677745217
0.9970797463706604	1.6367319932322326	36.1524886374865986
3.6849490309839399	3.6336524387561782	35.1095168727047948
5.8378523519392749	0.8991000781068434	33.9427564487342508
16.7798010684619108	1.8821633332072112	36.6442527852608251
17.1966561251956520	3.5131379365195849	32.1283467857006357
17.2179098775164903	4.5327005710027048	33.9227526330807478
16.1110180371606013	2.1203792040115905	31.7402966710360381
18.0818049260585632	2.8789641848385013	35.3680544045877383
18.8479946868646415	1.3640744979531847	35.3256479637485938
15.0216908521658539	4.7720696599053376	35.1383125548930124
15.4522277372703467	1.3568184517171904	34.7382982446979867
15.2931230780602476	5.6678773772914122	36.9348959099571061
10.9792013381481226	3.7792428684977986	37.4032355295600709
18.0417438962438972	7.1195611942701520	35.9960712273264676
13.4275220810654687	1.5740982318632959	32.6766650112030419
16.2671916934816991	3.4406024021915402	34.7322837999230316
13.3263045740303490	5.8055968903694133	34.4355544167778262
15.1365388434320209	6.6860077740936612	32.6107727527188160
16.3667934635322503	2.5119949640820813	33.2799253893538847
14.4627667581155759	2.9105889888117793	34.2913139410477967
15.0356389316861012	3.4727430824770233	36.4661920860609214
7.6339626521941000	1.5704592537146436	34.3486135025984751
6.5340283482573902	42.3031415103872490	32.9712005703106072
11.4794614446115695	5.3326273102053170	33.2535769048755441
9.7104982039455745	42.9464135122146047	37.0498237147088858
8.9908378794682644	3.8018978732990871	36.0858441631315401
12.1023234989414856	0.4628516033844542	33.1396938701228692
7.6891117464504894	4.5551487853573072	35.3435570948536792
6.5003425091734028	42.7669066464134318	31.4250434242056365
13.3208101840520552	3.9747101688140716	35.6891180507819357
2.0841081766782525	7.4889665348525574	32.5479956848453114
9.8366622404586206	2.1725955371337164	37.4395203286549147
7.5129013008320271	1.2364262068137388	32.5506825334536032
9.3902272656125483	5.3861726859732748	37.5764271718309431
6.5173067622967267	2.6307539796033446	32.7929951309854530
7.8901829752958168	2.4672727311913767	36.5140904033922880
12.6624823382465213	2.3004099720681497	34.2568090240155882
9.5393549994735007	1.6182543530370697	30.7677810719999059
8.9094223035990439	3.7362054759824908	33.7457179068477728
34.6177295047174098	8.3047618618937022	35.3998187756576144
31.1869084631149711	8.9696430362883373	35.0397758393969028
32.9296432030166670	7.7635604256511836	36.5276155844262433
31.5618721080867921	10.9292210646375452	33.6565611701430427
31.4925703980990015	10.2160167868215357	31.7436852985301066
36.1616898112436900	7.1426046133742105	31.9579582185882813
35.0099520671968349	7.8969270418860038	31.0504418594201255
32.2701161362496620	8.4122727552116459	31.7681613408006527
33.8281854688689450	6.9014198932340429	32.2611482337301467
37.3034432470122184	9.6801260444609216	33.0841419851655090
35.2418726075108637	10.5421771989468152	33.4492308079791414
34.2773051844388803	10.5641278897003659	36.0614020328791867
38.0494823207160451	12.0458436023101534	36.8839741403213921
30.1210219976568716	9.9985634747884955	33.5642162758685600
34.4711534071822783	9.1515483032735094	37.1669290820458613
32.7530855910097571	11.2456788577594580	34.6022930540011018
32.5308713390495967	12.7468828670308607	31.4511055366761987
33.2414681784487414	10.2046258168130066	32.6788187587373784
31.0534323557465264	12.2663310413171871	32.3111245077489926
24.8571166013037761	6.6311627243632971	34.0427434151825921
30.8146270162910021	11.1659457528358352	35.5611211866330521
25.8540786770514224	8.1731856349931356	35.3246150122887812
28.9514094677439076	12.0690248010336862	31.3781680975211152
27.3481543047966937	7.4780346616359648	35.3626429808484417
27.7786483167761098	12.0142714538878277	36.9039085080707707
29.4302904536633108	8.6376219175731848	33.4780016927262807
28.6655327841382856	10.5757406851844760	32.1729460804200897
24.7933649287106910	6.3844414400819076	35.9131703863778498
35.3749619524861458	9.9618964677466764	31.9588081877084882
26.7497540805606704	11.7653649203437425	32.1233429896474192
26.3386065883702152	7.2708763474705069	33.4147799349162113
29.1213350650367744	8.5975167627387030	31.8847046189229602
29.1671689483034946	7.4906373861999258	36.8963075406245835
24.2131169425441435	10.4229914357598297	31.4960771152859387
30.4447221454154437	6.9216462938959280	32.4176475706299740
35.8876114369716674	7.6910539317032534	36.7720320595151406
36.4703222486541563	11.2254180015563509	31.8822099025538961
5.0516964899972656	14.2882364025528688	35.9567287667959476
3.5426253690803464	14.7054184147331881	36.9369332758246856
4.2735284444192390	13.6897948535329892	33.7301167280049015
5.1128204704608251	15.5355228622460402	34.3088031366434052
42.9229643831351879	14.1665689034709654	31.4171495909121923
42.3888747255791358	17.1640417411785542	36.2541686519901418
6.0597290890645654	16.1743472354328048	36.4069845038093050
4.5216051447431314	15.2987330589062065	32.3850414151122905
4.7711502878627048	16.9143444307670379	32.3505002295825577
3.2184831617795604	16.3049721624941633	30.9889904534561396
1.6345373587701326	15.4046542181004735	32.5053116791947119
6.3870337206941787	12.5044468030979559	32.7176813450767270
0.4884302534196688	18.8982596137484364	32.8927875524464071
1.4876671159161301	14.2135403313161834	34.4799112273192421
2.8771768507184081	12.5831393811566272	34.6316340452896156
3.3498532088348161	12.8685583033323994	30.0880924486864103
5.4554656498099448	13.8866685265767202	31.7987459956620917
5.4086344454913613	17.3892530984463214	35.2615161600642679
40.8812079885663948	11.2311997047595113	36.3185995004295208
39.3181006260126935	8.8836200030193382	32.2487915502349480
36.8091069199668226	7.4281513217820132	35.3327029243042787
38.1162800784019353	6.4702167801714490	34.7017654327179699
38.9282190855794425	8.2492329155309765	35.6148542622425524
41.7307845863438658	8.0652806024184400	34.1614084286425097
40.7794392985447729	8.1954139837926263	36.2186965528707034
40.1759596387339215	8.6422755110910767	33.8728061288300211
42.5613622296329126	10.2369018087047117	33.2343914239320597
24.1121530202628165	8.4393449932879250	35.4250883080242431
40.3219753020100171	6.7895108260440225	34.9560791431281928
41.5839881855943858	12.2826994554418469	32.8374972426171681
41.7383714441417126	9.6532839846228846	35.1898943960089383
38.2148548892151538	10.1983650455098420	31.4593393910891095
41.4142994222856657	8.6753091694069155	32.1769034106134839
40.9400302539931786	10.5061520128772550	33.2362311985292962
1.4699637368784173	11.8962621931093242	34.9635984935275346
41.7703452779731990	9.4415767054552919	37.1159628979538994
11.6146294764567592	11.9943402159439465	32.4000430512143396
10.5308412786264967	8.8913471814201497	34.3381351264187842
7.9866275951817611	6.4589319798732934	31.3560153525803145
9.2150109575677721	8.0210207943976339	35.7535263463159012
10.4469532610612195	6.4129999277863146	36.1197856808295583
10.3402120801098114	6.7642514522458494	34.5438183654008313
12.2907981211814619	8.8296588720132156	34.1510415024370033
8.1502371673251179	12.2131031503393377	32.4652163282615689
10.6019068654230804	10.5251141381018982	31.4240955192368610
7.4516116866648785	11.4277373996021367	31.2365586396361650
7.7931719847959089	8.1864752705707406	32.8656485574802915
8.9824333426363090	9.8666471745486977	30.5504789245202453
6.0734095845101832	10.8681804122677832	32.7669802212166061
9.6676990986216538	9.2840197311186614	36.5365141540558938
9.8013008214832080	11.2846678430788323	36.3487076756974616
11.2816710487843004	8.1865696098036853	35.9009571940765824
8.2293424754301405	4.9313466262415959	31.9599268754452623
13.9763198657060261	10.5743280692503543	35.8001526733290234
8.0325699057687228	10.4745978851952675	37.1040666639548178
1.7142332655358503	10.6083102156782410	33.1214111092787107
3.2830884536319513	6.5796942968183565	33.4664810385180829
2.9862024720384506	9.7030502242973515	31.3572868156869760
4.1971799383878858	10.6501240796157273	29.9274962184779376
6.3500259964101300	7.2681195537538876	34.1257829142876830
2.1184341205432142	6.4412120453079797	35.5202688546925032
3.3545689086669430	10.7283542169227974	35.5183803257382138
0.7705653774591256	9.3267529240895790	31.8613907117569859
16.5824118500731394	10.6368954911327602	32.8618414093505891
11.4038849122311028	7.8435721772677578	30.8063245357671960
10.0487208266917865	6.3392369934727748	31.8279211128409436
7.8267551969652427	8.4803310183002036	36.6596357952361629
7.8741494301739090	8.7658693130383298	34.3646550991534312
10.9600666200603261	7.1987756596069934	32.8956785810077079
12.0069915310454594	5.3003789837860280	35.0873844980743712
11.7929682693131728	7.5805494577704202	37.6853806776281246
11.4201654838633750	10.8068838105925273	33.5428927506077841
21.6993681387728437	7.0831817129129027	31.1760962573873286
21.5195303427513203	6.6353349782900564	33.4991773994348421
22.5678136403069232	11.6518054046530448	35.6549418200177897
19.9873431494504814	7.5294645278850085	31.6900976485952022
20.5526158612407492	10.4518910123610116	32.2927061533127926
21.3916016469347738	8.7982031775277587	32.9441911899835276
23.4983110701489473	9.3980977641781003	33.2551777354389486
21.3909339456910352	10.3677028986120856	34.2927769382067780
22.2211857562829351	10.3639625758370446	32.2543846521007822
14.7775820815917687	11.2748527388077644	32.2919842254111771
21.7975032794358086	7.1020930219027889	35.2850562848934644
20.8075675460510361	8.4271185113934788	35.0885976138429498
22.6351936989008671	8.0905342299600864	34.1544123434007645
20.4856096032220627	10.7710617615422333	35.4406488960604449
22.2951664992306320	8.5459205485971665	36.6117997772578576
24.7699136833816667	6.6277539315796172	32.1339802807816639
26.1013190020713637	9.9652757838037598	31.9764830183809003
24.6805100026360407	10.0293743133851105	34.9766852327107429
13.3939488785085796	10.9327315013742865	31.4120100204496318
18.7860951589919232	8.7581810919129293	36.5796922260611410
13.7082327795813406	7.7328363494442547	33.5853014664860154
13.4278641129539498	12.2279166501139418	33.4014050312526649
17.8948431911715709	12.8288073961018760	35.9636448916242912
15.4345474527994853	5.5775894301947035	33.6926865245662199
15.2866338751916579	9.8063355939255636	31.1179858134179419
17.2357441514937619	12.4507489801140991	32.5281300171971637
13.0341646230663173	8.8201005866992119	36.2228847695121630
40.2175210099764229	41.6342284800410383	25.1074388342696082
17.1127521072091220	6.4990600060145693	33.9484726440608213
18.8729695402045650	10.3506130507551752	34.8588944393119178
13.5257312356591104	10.1368129713658846	33.5994327170669678
18.4805005584316113	10.8787356443194554	32.9713580808522195
16.2664764728362599	12.7518081274996575	35.6901695146335598
17.1604423364768941	11.1809024938318391	34.6277753070273420
13.9335323825460122	8.7357597124726389	32.2890056787962223
15.0463396517218850	11.1469703521876493	34.1547114961069198
25.8319050499268421	30.0153849402950748	28.9224395352810539
19.8502834924409086	30.0948302596771491	29.8043006129601054
18.5620967531180519	32.9518703713569607	26.2987592838516164
20.9744336912007441	32.8812751461635244	26.9491611663148625
23.9624757482734942	32.9054747713876736	24.7431324006895359
20.7373678616600223	35.7090995046524640	27.5630425762557394
24.0242083674025686	34.3777749532111088	29.1942547026406665
26.2848148611989245	37.2260132272636000	26.1703239713280951
30.1464655884732018	34.5228671812768653	24.1818158364141453
28.1534352551863520	36.6996548141082712	27.8629963401604677
18.1945572955816921	35.1302571204451581	28.6513883954227389
28.1185530874122307	32.2803084432207541	30.6888303881761075
28.2257018545433311	30.8202274185522462	26.7627040700158290
26.9221065788369813	31.6258420965606675	29.8134697655868486
27.9322871032675621	36.5460536515131267	24.6894794074967692
27.5282145892016743	32.3892651974362664	26.9820703153657995
26.2785456237911674	35.5367839323559238	26.8630354148117156
24.8134860702940259	32.9040548489181504	26.6305775840647030
27.2575003603720845	34.7033535900850296	24.8316891494324672
19.8161980467162557	37.4439990914790073	30.9581231623778450
15.6694973523698611	35.0051135688514492	27.6693387106102264
14.6854253807651940	36.4996080733538335	25.4187593166523449
14.3504171989042515	32.4454566633567936	27.4882691281771123
14.0699023224906075	34.7394599398826145	26.3546736880206076
21.0731099839577496	33.7100830656208785	31.0329823988538323
24.4624826965955151	35.9878645011644309	25.7779969639266895
22.6162366501352032	32.6875682830117853	25.6531887863297783
19.3323627948062402	31.6595058227981134	26.8679716128479420
27.6471430788197203	35.8088262385763656	26.0947279754285546
21.2490570487046853	34.1707929797214334	25.3074511595139739
21.4821795487333951	36.9316236025263720	29.3837436135053949
22.8972959734140673	35.4249319973800283	24.3848720680457411
20.8883096285816166	34.8526644731600044	28.9844638176324132
24.1786942843176327	31.4517852562726112	26.6308225603471413
24.4665009263313138	34.7372965703450305	27.0742566285649815
22.8134161719535236	36.1772153548564148	27.0396143632065176
19.5928231570413409	33.7899708802880170	27.7453752211919600
31.8955831869787225	30.2759349891025806	28.0058632253651716
32.1654962293620414	32.4277366323161331	29.9031447276265965
33.3895104364369928	37.0614632464647045	24.2105995747420195
36.2159756345206105	32.7579572731114723	25.4350802575989157
31.9468954754921519	34.4340717685583400	25.2295993409844677
34.8753597062821328	31.9153996955000245	27.0261560060710266
30.9722047476936595	33.5256918965756014	29.1248571754190273
34.2110239313722388	31.8981685213168866	29.9593526883281456
33.2867690207712386	33.0849020948150496	28.4704712582609609
31.0120882732427603	35.1562687553978748	29.8689872901990192
33.5490094183080103	30.8503739183822141	28.3567311185244648
34.4647282082353499	36.5209251722289991	30.2220480065836412
34.3711307051048394	33.9517383956484977	27.5440362169959592
35.3749416018328944	34.4321805472437887	26.4508649524463202
33.4753708837311521	36.8167688999296558	28.5739939772443350
31.8773374529004094	30.2744578762793850	29.7670095493371143
33.0456015896934190	32.7082794282952278	24.5034233054835759
35.0519059874958145	36.1463634473528685	24.1457692050377588
28.5908988824087373	33.8628835769810266	30.4170828405931957
24.7797160460016244	36.2518580802823180	30.6465495630083424
29.1876236865675587	34.9341535907112757	28.8452670236975770
27.9332779450177284	32.4291940515746759	25.3627511621332715
26.1438511554204602	31.5343162466858011	27.8184145626501937
26.3106328154709459	31.5570567862983076	26.1436998128737770
27.0282389062413522	37.9402392905929844	23.9006881350294975
26.9783081807793543	33.3679029153117739	29.0232794912973375
26.2074522264636833	33.8048450083321583	25.7274165406544881
12.0351861559406821	34.6814426534047868	25.3262053409134928
30.4515583636692853	30.9856969619119553	29.6499474962043585
30.3596352401635095	32.6981031298269755	30.8401745897982345
35.9546758029255429	36.8156602977702079	26.0822682167544038
32.1542427428499735	33.7901609942560910	30.9996336069846450
33.2255984076851902	33.5965547128274764	25.8901851201412292
35.2950268533609091	35.5517016333547460	28.5491391779588888
32.3234419841558136	34.0888707527700348	27.5645667262615746
32.4752538644288791	35.9440420057909833	30.1910347754564725
4.6979941589840486	31.2401699154543913	25.3578624662825263
3.0413609382331819	31.4145080715256420	28.9081138815042316
2.3108955386176122	31.4227750382691298	27.1413503407534584
4.0899354806997570	35.0280322938255040	28.2999825150876170
2.5048616282579115	35.9458609155477120	28.0077421823143915
6.9559937530286717	35.2437793211921715	27.9743330087669086
42.5818867941267385	31.8571250628554026	23.4900732385228359
4.9064980436819319	30.3365046009411756	28.6521448883099481
4.4811100352050950	31.3543163540977190	29.7983500482789552
2.8541741951702346	36.7940273049217126	25.1663245380260925
4.3227511104239111	32.0192185672659875	27.4991005127947794
2.5468693268869043	32.4712288205557158	30.1307272753504023
2.9638806692469233	33.1434339154401201	28.0690480537776779
3.7317993815668267	32.4278801060673061	26.0108529583358461
42.8448910415772701	29.6935405259908158	29.1832733284811781
9.2908584126596807	33.6220747110042879	26.6037652004520275
10.3570981906191282	35.7447572543238792	26.5913312353606450
9.3791484170571380	31.7160994144310813	26.4554036749530042
40.1348358583784446	24.2196395098638604	25.8167771677253270
41.9873064834872167	28.4897831720933432	28.1973713902549754
39.3505410181466786	29.7680206321120444	30.0282086021969441
39.5191704152395928	25.9267974302885307	27.3232089586957194
38.9247369258863287	26.5976234783228840	25.6762011557782515
38.1943391422740604	27.7459534355697777	27.1747420842900098
37.2745559813217398	27.5899442755990307	25.0145922694871601
37.9480314643920309	28.6941248894611682	29.3964003174715067
41.8094394811348522	30.6447694140585405	26.0477595098762045
7.8389961658478020	31.8095595341669402	26.0886963943955443
42.4276372275923848	27.3616407035606883	29.8079390469961467
0.6597578100894275	29.2143658355838696	27.8655814165533613
38.6981748618033947	28.7178231476485344	25.6382897190563739
37.3339476187651158	26.7846748838959599	28.9300367748529474
1.0017501484963813	27.9513462511838497	29.8675601899099803
42.2728115023605540	25.2235063431056048	25.0611999067014040
0.7286693823119428	31.0916850472091397	25.4531405996554589
3.9238836652612421	36.7403397112655909	27.0041103946459948
17.5570779228552176	31.3564330934469702	25.5634898187653725
17.4360609009249110	31.8815628383734939	29.7877530751870481
18.0455410222367476	31.3093008193298274	28.3882095229521383
14.6095265640177878	31.1867337044344701	28.8106658469247137
14.6743648737201617	32.1162989046745651	25.9134124842293190
12.5159588046865036	37.0459657999133114	24.9705408507672750
13.5213426889144070	35.0631615051095764	28.2495876737484721
12.3876841269355111	31.9889523880659183	27.0996692400318544
12.4883255255714669	30.0810898585751758	28.9151648672324413
17.2960488799533572	34.4853831745541086	24.9916475113868799
12.3759608168106894	37.4473330106704552	29.3739746058050990
12.7343592830503454	32.2245308955352172	28.6068225048079690
17.1212670886803231	33.0553059513970950	25.5680884650713942
15.9972966051132790	31.5701259506576406	27.0984751422608774
10.9226915078008098	32.7075871882181843	25.7198433707213177
18.3607360611441166	37.0690058850042021	29.7406240830885089
16.2909943015300804	33.4472620297330749	26.9041133307651954
16.0746398851547916	35.2912492928402415	25.9179573405819994
5.3145893243066240	36.5598128094085482	29.0873560504502287
8.1957468595592395	32.3762674762682536	30.2895411884782604
7.3430618949994404	35.8576258691838277	29.3265898955068032
7.9072071078770696	33.7059297508324320	29.4040088837048295
7.5223023045784956	37.4355094050198431	24.4469388562427490
11.9912619486894201	29.8398004858656485	30.6372212096577350
9.7636925123576663	30.9294605516945822	31.0918887437212632
8.0224297893153924	36.1910091352203906	26.0987627421703472
11.3648254567299869	33.8382957670701430	27.3240421783992176
33.0006982904802797	31.3545106161629406	26.3271355662406883
15.5167389777927287	37.2266431540316702	27.0908613073405178
14.3527037065980494	32.6332295387473437	29.8123451532541637
13.3888057011940287	30.5775884646388967	26.5333576812043113
12.7042068065604088	33.2213043402305104	25.3703220096359594
16.0666774250374118	31.3106874430368904	24.8449324543769841
12.7304432976667794	34.2291427951096381	30.0333007718895217
17.5395450188458781	33.3915097255267739	27.9977475224475079
12.3067275515835881	31.5700476380674928	25.1061966358263895
30.2400875070667396	40.5603000215507095	27.1614985379119744
20.9907038386564189	36.8154867312876988	26.0071119355860425
23.4361839066792257	38.9564692694033070	24.8179587973868117
24.0550762979421009	36.9608360175544988	28.5369330140072179
26.7517058578773437	39.1523805616246392	30.1505894825587717
26.7368998098226669	39.1668509145795483	26.9803416129914844
24.8726472664815397	42.1566568040182688	29.0035493666893665
29.6407262210202376	42.5672666342271100	26.4543953376215519
27.6126664031952238	39.9326714683245996	25.2121110416841141
31.5113230216561746	37.4037037613405303	29.2724505668235793
19.8930886855206417	0.4668403142281182	28.9298733948706825
28.7208402177570647	0.2412641049453722	28.3012319783521846
24.5813972507494505	38.5131917005699620	29.5663878461573084
27.2543433349054141	0.7323148117898242	29.8502479689576603
26.0487941462599828	40.1553525382801908	28.9810914071695009
29.6472085789793134	37.0366960791563002	28.4063885139509225
25.4830338668124377	38.8535578997960656	25.3850300828060966
28.3412078225924802	41.4930098438177950	28.9625918052042302
27.7147260020322719	35.5526266376732707	30.3089581980551692
23.4017901669450126	38.3359676877339410	27.9015724581302038
19.2107576752438760	37.4703752212675383	26.7939106704239443
22.8214401531246907	41.4747890987884560	29.9381031989849582
19.4621600650084972	38.5119126699223457	28.8848872003836661
19.4652510982971556	42.5825224100256108	27.1325020490138549
24.1269837447941384	40.8438387108202221	28.1582231920980632
23.0580034770162214	41.7178585270504598	26.5719663052589858
21.0182122207640525	41.7800775324840501	26.7122410859070953
21.8549581469510414	37.4455820029784761	27.6016912424709382
29.3947955234381517	38.7759505926032872	28.3665498286305890
22.3236052402593259	40.5629431117978640	28.0895613470042314
21.9528632311347174	39.0657573849923949	28.7470293248469630
19.6995211786918425	36.8040895775177859	28.7950334276435562
19.9838328242731720	38.8005538091978153	27.3403365876730113
19.0496152732880439	40.5836568701274558	27.7038699558051320
21.7682508200068554	0.0138273550049561	29.9125147691770437
22.3237412557259702	0.6590271493075038	26.4762782062877555
20.8553297754965605	0.3171761452830090	25.7050106829450868
41.0892469285116988	38.4018058604234298	28.1344618706716219
34.4214667626080200	39.5835561369861963	29.2280440539185413
33.0255475045982649	38.0282387286724415	29.9814948300225481
32.7606546675336716	38.8186953180826464	28.4592083760620511
34.1111148400193827	38.2533374397029462	27.1425135982115400
36.0076595266241171	40.9640552429426208	28.9207048143113674
35.1831705651246054	37.6352994016488012	28.9263274023281163
38.6269765782310230	38.1543337141244194	24.5857465920236251
38.8371772175618801	37.9948615720222662	29.5986220226587982
34.0255209146023958	41.5811482239923791	29.0297022512985556
38.4501896548488844	0.2317878267294262	29.8765309597113564
39.3726087450785087	39.8417590346853956	25.6095843753974819
41.7799959815564463	38.5107909767051240	25.9448421960311393
0.5551515915291794	39.1696216127464751	30.3973339523392951
38.1440101698703771	41.2047747357214575	28.1750266133577405
37.7244467526424359	39.9738940238380991	29.4564441220347604
36.7247309601141865	42.8431839441369036	29.1965186221859980
38.2640248927893083	41.8195633874933321	24.3912441724316906
30.5735304432140609	39.5619258508961096	24.2704828090021465
27.3204279204952982	41.8876816398951988	27.7630646156525174
28.3807698595709574	40.0567856961272568	27.2107058142525098
30.5056078097586685	38.5973160815488328	29.8122218926408422
30.5903198549520212	0.6993272310458994	27.9379399308955492
25.4341520885905403	38.4956586433932841	27.6458431810195826
30.5103449834700591	42.0641569407771883	28.5417975492285123
36.0282611254543070	42.7984694923976221	24.1734747511174461
32.3129128438827919	39.4875440654555305	30.3195616883307331
24.0915481874300781	40.5068086000103236	25.9582714562963268
33.2076136525825092	42.6290161183268879	30.5232577396039453
31.8047706311174139	38.2239501279542466	24.8847810966194345
36.2616110394512248	40.3100122955697273	25.4034973699919000
30.8206705487949826	41.4443980793076605	25.3890987937279604
34.0173557225613123	41.5275108043009951	24.4568577649543215
32.4741207127316116	42.0872573103136816	24.7094532829986164
37.2185229436215863	0.3744476779521174	25.7859250778570548
33.2197968696810477	39.1768322913283598	26.1667289801112766
5.5104176117461074	41.1362423574368847	30.0549663873515236
6.3380721277470089	38.4597086033471243	29.5984625661432865
4.3110522494150212	38.2974118808109552	28.8580300179087601
3.2829358593713178	41.2024593616195673	24.2864967444312789
6.1729079857302489	36.8347531324946473	26.1321346775184082
0.5735070210673987	41.5961000624534805	27.6108977963911038
0.9725943918798119	40.0240466404450288	29.0558300324457619
2.8152120691039775	37.5811466689534228	29.1598521126357895
42.5982412794378149	41.7120780214195079	29.3926680090382391
3.9967985774391366	40.6786070189596245	30.1330230095304259
4.3120741033349503	37.6405281918685688	25.4710185706213039
4.6256953660358695	40.2001675711436945	28.0521022851219612
0.1767714254525163	39.2073438227875926	25.1984311865822939
3.5525872048561942	38.8923130242356621	24.3591354067329000
5.9274731465008479	41.0225683153858824	26.3871752165915936
9.6484481385943628	39.2798089040012002	29.2166579668092048
7.3492792280491770	40.0100238018296750	27.8574412717751336
12.1149308123595905	37.9514325312208385	27.0266633907102616
39.3055913137058752	36.1043548134193060	25.7744586717925195
37.5873020790838837	33.8395073937374633	30.1229431630408584
39.5326653407837370	36.9640868332199233	27.9216342914514506
41.0338624024500049	34.6156981742922056	25.4764139911054812
38.0171234506421243	36.9693107257302742	26.3805527961318624
42.3707076625627082	31.2577239032873919	27.7812804330307159
0.5441198917179063	34.7405199533858635	28.5457036285984174
40.7297191603577176	31.2426520177929277	28.9959960593631685
42.0821068417693809	32.9457914207475255	28.8148977512500259
11.9964024274743259	39.1273193656910934	25.8676135996748897
37.4578981421491477	30.2811783212832211	29.2375771375628766
35.8383550520416492	32.4944847161715629	30.7642478745123142
41.0580382987981380	32.1435003012961715	25.9701517618855249
39.7319122730814414	37.9212093496401721	26.1538539940527350
4.6053659398696789	39.9887551427911205	25.2508935285057952
0.4686637839730083	42.2947419056310636	25.7956246206476649
3.5010776264497641	38.3296697826936992	27.2334987845012115
1.2767034768965937	40.9803234459368610	24.6621255570398645
15.4994667036832894	42.6734356831984130	24.4800329500768328
16.8049124814370749	41.2842618901477110	27.8291412959244226
14.1754387854319681	39.9316747099317055	25.8613617908817481
15.5297467322022609	42.0789843522622817	29.1988186302420871
16.0765234779651998	38.3500855301869379	28.1644176960251613
17.0957723713202974	36.7602066144937396	26.9074219281254088
17.1437793730099379	40.5854269756652641	26.4893803827260683
15.2276083151917625	41.7867615799430610	26.2086851634581421
13.2227386392493607	40.0420071147809367	24.6444326286700814
14.5105029466714974	0.9203300606530486	25.7404276095995037
16.6029000912572648	38.5546097164370067	29.9392452025777658
14.5643618276528759	37.7993323541534423	29.4790701642191166
13.0579424559427615	41.0729715057313030	26.5091267185783117
12.2519078121932115	42.6455659095030057	25.2531025155915039
20.9464880469179704	40.9977454439029145	29.4397180766700508
23.6813128588282247	41.8540065910592887	31.2767516249682203
19.9421118939036113	38.1562308701259170	25.0866885901232664
21.7669517467179610	38.5145262953172818	25.5680409393046375
8.2272827500436758	39.4603300700745052	25.9252141598500216
9.8261380621845422	36.6028683976088942	24.8183405864506206
11.3622619059913177	1.1102004069818288	30.0706950186459032
10.7641083218643114	40.7267971577492176	28.1643569948043115
11.3093276173928725	38.8057850272091400	28.1574023374646920
8.9361553397477369	37.5288095883917094	29.6830416227757006
10.0664855857664097	38.8089225882766229	24.8493790725436021
7.1548952841643318	42.0953365109546027	26.9105621376693165
7.8949980064580956	39.9145594744322949	29.4864755406886410
0.1779480846626757	12.1142605769833054	32.0051924439924989
8.4526812934931037	38.4688865614551929	27.8407146838648494
11.4153926120490574	38.5629092084324441	30.9890605242491901
8.8141294316370633	41.4046541394517646	27.9241268787356312
12.9575738823841533	40.8447383290258230	28.8577203950237831
18.8325945099444709	36.6874794545311147	25.5038217856491016
17.2485038437893259	38.3275422415856042	26.1961550919094428
16.6801446123580632	40.1950814965044074	29.4572246685255514
12.9411573607916921	42.3242152245588272	27.4973973140161370
36.2309100561807469	27.6759971206556195	33.3987935434756267
31.4628264868288916	29.7142631119320839	36.0856656854116977
34.3524855977921533	27.8146102774841992	34.6961835543591022
33.9057691813837678	28.1220535629788273	31.5098378491419737
32.0129392526515630	25.1137372446014204	32.3936326644211192
33.3183196380807161	30.2655519736301351	33.0817440969404615
35.3379524008055270	26.9954440244810634	30.8692127417644393
32.8834237419744895	29.5978466639386788	35.1468625823302219
32.3456614980212223	28.6710113277749308	32.8483114820096560
31.9601859296947701	26.4991475420058080	33.0998140092890054
35.4060254985213092	26.2297269818397893	33.6014509890054143
36.2950516805168917	25.6871306149389653	36.3457008885147275
31.3250374832556453	28.0621419761438879	34.2839942776570794
34.0316264971120859	26.1763917454736443	32.3101572685414098
32.2853484214688322	27.6488946186099085	35.7671125371621059
32.6665324696215507	29.9431892688816035	31.4830428618138960
36.7073006486221871	25.7627081737718626	32.1899415318746165
39.9981649040208112	28.0589664688295635	33.7911909931693799
42.2433560518214435	28.5889346698334599	35.5484102249662968
29.4513344604107630	30.6948927844385047	33.8507491724133729
28.1045734645207226	30.8357647698019512	34.6156226496893780
28.6042269844429988	24.7025742005410756	30.6800902171175807
27.4126468938488905	28.0946253095432219	34.0717653120611743
29.3898355925812744	24.0801146260766146	29.4047508294580702
29.6393336249016990	28.4012283591735972	31.5037793152545937
25.2856776187800207	27.3548725171042832	35.8032453113055311
25.6059727487061259	28.7118463461411793	34.3247643494160499
24.2226807041757652	28.4465219366807283	32.8431413884823584
39.8216469776969788	25.6773407665616631	29.9921642923875069
26.2020888114672665	24.6692465973811181	35.8838914966435922
29.5055937857327066	25.2595825039976489	34.2195497774069963
29.5077267584211498	27.3757120097362687	33.2780503250874347
26.1187452084107221	25.9069005509346724	30.2098654339757040
30.1847663207658350	29.0692914637903250	35.0075100689928007
28.8389452329563696	29.1170466785795590	33.0706825326977736
26.2433829622567281	25.9125038300117545	33.9408036913016389
26.1922670351716214	28.6118510611472701	31.8194642164643007
0.9159452148906950	32.4332658228771464	36.0584268739551845
42.8529395848596195	29.7230938857218554	32.3478378645616829
40.3382642476879312	29.7424107150494592	32.4016602832863470
38.6855449401193425	24.5892371980194220	30.5338247747957823
42.3871390984481167	27.5210456128705232	33.6299501531064919
39.3439318882356019	27.5369918058736083	29.7743625774217442
2.9862782166266943	31.9771705368393775	36.4851024019218357
4.8521170641453359	35.5628298386007557	32.3899351857140374
5.1767492939845852	33.9995779962006708	36.4962492770106195
42.4017770022047387	27.5356928569129629	31.4900641508059245
2.4445328494472767	33.9380816738251596	33.2990453812039178
1.0651745628781237	35.3651832892733538	33.6896962852537172
3.1020543321429068	32.9169431705611331	34.9496121432883342
5.1616762169353754	31.2926796838764290	32.5018510181644800
4.4083175345514354	33.3371954399310724	33.0361098756766154
1.9026684222372785	36.1867848684008351	36.5207433574022104
1.3018771591348361	33.5473560111139548	31.7730628137327251
4.3629899273597434	36.3303136103328086	34.4874502538867631
37.5818690691119173	26.9164515887214115	33.7720731508876710
41.0134777045962480	28.5838575785562590	30.0070248710727014
37.7386067552639943	24.2026411667468473	32.6351308294383955
41.1463537065823033	26.6259284346392811	33.0042279768592621
41.1878395351832225	23.9999984239757786	35.9831040978257803
40.0039691627265199	29.0153340735415988	35.4935321016081247
38.5262287522569693	30.3965236826376781	35.0330896556010245
41.3841369119619316	28.7678945377888589	34.1644771608384090
1.5295326042073649	24.5759764981761393	36.7004277639183201
26.9281642715471108	27.5476593386237951	35.9699156625215082
39.0821743031424234	25.8903194001881296	33.6333944386699599
37.7286480192724127	29.2294846750046453	33.2547378090044177
39.0633745491738651	27.1427823121488601	35.3591124028163719
40.9243700497186964	30.3922793121518104	35.6925223812893009
36.4057339049390691	24.0370426584837418	36.6199030129532233
42.7589929925576158	30.8714405924777502	36.7614748014494097
38.1743435858153575	29.6899079609629624	31.3911551285637280
40.5098782786624199	24.7604304001150375	33.6948178696250693
11.8480435034060196	26.6898247718510397	35.3122733598782261
15.8777871783387763	28.6417744333113014	29.9661565393111466
17.1528024061159847	25.5694669601505495	37.4817009114111528
16.5771074401217504	24.9919050404188070	34.5458281639135265
12.6242140710250226	29.6913960508086205	32.6838580485076591
14.0343834912076506	27.5649954484571431	35.2247413572148602
15.6548794027880724	27.0420620535214979	37.0169397475741349
12.0049355263163164	26.7075897495551366	31.7552970968496702
15.2923795600578813	30.6918427214699037	30.7469197469744913
13.6584036282828318	30.8242889591745168	30.6706263511995019
12.0054820940267586	26.1522187711366527	33.6358182771401388
13.4826860725436912	28.4067562620213181	31.8496603883026879
13.4908563166922111	26.1442551417390234	35.6334185601802886
18.3951847052181527	25.9059018613405989	34.4925029705899817
12.2100043100383004	29.5286377573905767	34.6600502673770592
16.8402730336502877	28.9511568967531616	32.4817521555452373
12.9129693574551077	28.8044132603214074	36.3659014895264860
14.7172320756985151	29.9786492850931729	32.6274999627733706
6.9657278070824171	28.2393091798727198	36.7658292907361286
7.3205208931746295	24.6436120853645093	35.4509728359387850
11.6816477103057483	31.3080218869121829	32.2054293354548022
7.8763341555242503	25.3806720321306507	31.0336261508300879
10.0827509720002357	26.2068656450766539	30.6862540085602440
8.2510883959923245	29.8459692157761083	35.9409368595319592
9.7918730856587022	26.6749100234987573	35.6693363433621755
8.8108550835460289	25.3563207016307288	35.9579463711416167
8.0690368619508384	30.6319546996863217	34.0561245442173899
11.7560984559939072	25.1487766096814624	31.7986301476130606
8.4772776946216535	25.1330895049119860	32.4641045739093883
10.3198772778613623	26.3950180833959891	32.7056980141556579
8.6635055221160773	27.1396825482824191	31.5749829365341412
7.0569673543742644	26.2043708595437899	33.9646578332245852
12.3257714474368196	28.0211637415824875	30.7417309160870573
7.5802143805873836	28.1797115402863092	32.9197604036825027
11.7849688327242124	28.0485615499841856	33.1195771999684752
12.1992575218784953	24.7721936421129527	36.5124534995049856
24.6840717640496479	30.3243113269481377	33.7419450355650525
21.1383957969788021	27.2483773885711500	34.5125955788937162
23.0999650596728436	26.8430482958534746	35.1587363160314936
20.1960765710645767	24.1225459944642964	36.7488939387642901
23.6204473545035256	29.9122487873443319	35.0787444558677493
19.4521971994623364	26.2316546223771603	35.9390824289721493
20.9327625151563801	30.3399309711727660	32.7615185832490425
23.2375137788002704	26.7299999722116652	31.7870116973290919
18.9683951741808023	29.8142518724825081	31.7047497474807933
19.4898652332064266	27.2710552728983622	33.6895155329938873
24.7792677189124113	25.3067417343122827	32.4830334736265982
20.3676313168441752	28.9554408386391664	34.9062914343590478
28.1760440100172787	26.3864123904321097	34.1567152320590495
27.8034786139622128	26.2210455558385505	35.7797278623811437
28.2688408917179750	25.7040451905352576	32.6136981258680905
29.4709647570413829	30.4952691922824641	36.1423769298498883
24.9629116323326592	26.9236554085080009	32.3487464521640860
30.4158415745084909	26.5284885804843249	31.3934051427421608
15.3175171700012118	25.6617207020968934	34.9705466046254685
18.3368265753590265	28.3315006599875048	32.7115142758550448
13.9632921330821134	31.4629662267774464	32.6406127413730829
15.6925712006669684	24.2488426945587427	36.6078748401566685
15.6444188939249909	24.5961819841769262	32.8525281260745459
14.9649516692229696	28.4933958186382270	36.7132622214339577
17.4742950608563312	27.0641844858410714	33.8416749837675326
16.8163169532163721	28.4322139021174465	35.5194018489353880
18.4486330163051484	29.1827578287885494	36.3167352816102635
5.7808556631953323	32.9068179932472944	33.8943940499803773
21.7601507573352784	26.2632922845009311	33.3276799979523091
21.8291724435768657	25.1100186433794690	32.1160078380782892
19.2223362375972222	27.7277521764722437	35.4142705614288289
22.0771113822257448	27.7478404727144543	32.2546398698966712
20.1572136317971591	25.7911460671344130	33.2181038612105795
22.1052412269352700	29.3614083676768658	35.0433535605018420
20.2484152138914943	28.6141088022113763	32.8183984443422432
19.5994464943263118	27.5657453861455153	31.0841834295040016
34.8361030657912707	35.2764772121892847	32.1050723431868335
28.7280266462441141	30.3372725826639389	30.0383402707023563
24.5988373786542667	35.4122683680925689	33.5915871854510328
28.2825321832645358	32.8111436252264852	34.4865819660991519
29.5969483093726282	36.0705324924624549	35.0269326984621259
28.6099810598040385	35.8224180991947563	37.1701751381335157
29.1555553103907279	32.9754436308015855	32.4139246062135271
35.3857690086147940	35.3754447177780094	34.2459069047018403
35.3962344758933440	31.6337105307446116	32.1063132788331345
30.6880163244753490	34.2987896424310037	35.1243762523931125
27.3208588050674628	30.2059705163652694	36.2532693226562159
35.3109234584201985	36.0002961074904135	35.9374751243003985
33.8218074748610320	34.5860706776053561	33.5478547259496054
36.1309419583591946	33.9995675584310746	31.3871437650098137
35.5733138851962565	37.3821841737756557	34.5522791480527900
34.9925943721009531	32.8627566904227280	33.6749316940933099
34.6366490793601329	37.5497522232913994	31.5800529036799347
34.9810326407553731	30.8956998853834897	34.1189562499794619
33.4659377523536605	36.1992812649323810	31.9183104506552837
25.3852175545298913	36.0411568221938765	34.9918721677785385
22.4465853363826895	31.4216668306922209	28.0336661200089203
27.5306273854678487	33.6692349090737935	32.2517543410554950
25.7281336273863133	34.7360867469495389	31.4117881105828971
26.1756537624685066	31.9204073238302009	36.7496440984547164
27.0532422367189547	35.8577042099095351	36.2769925829208901
26.6346912017398445	34.5710642124349263	33.4539632819678303
24.9452348386781253	31.4132900822882846	32.4435240231477948
29.2654979149623244	31.5128695775616947	31.5322648101708012
34.3122632441672977	34.5573250316904179	35.5978984154524980
26.5583308598106953	36.5833599903647126	31.4774798083322338
27.0723036933373749	33.6378191905401422	35.4368561914353108
29.8437849575107705	32.6380651409216114	34.1309851957053070
26.7475323873618755	30.2016265445248031	33.5311415043366381
26.4048576231825827	32.1753385185618725	34.1299475838757544
28.8074371807243388	34.5293357786084556	33.9170523644475921
25.8559236083608788	30.9710029977202943	35.1438495055060756
28.1329782195790905	35.2992677396690624	32.1548666385749300
42.2540124431003932	32.3663837343289913	34.5285095806232150
40.7753906738009206	32.1040364541474545	33.7857205286786737
36.7543087989518185	34.9842383044414262	32.9777379243908513
38.6286977763353008	33.9746592792000683	35.9442999066992144
41.8437086847890853	36.2641054655818778	36.6430958263260038
1.2870357247900648	37.2751017885575351	30.6160946053015266
36.3488531826892185	33.9797894597688668	35.5234554774999509
41.5093154442468020	31.0270165166889740	32.8638809326433403
37.8375071343524496	34.8240599801058011	37.4119150308923949
35.6618232739629661	32.4784735564666889	35.3962857315284865
39.7199195210718727	30.1405713947821710	33.9339815018292512
38.3335427617399063	35.4071939035977294	34.9609209240757295
37.9542734962746664	36.5492186328318525	32.2964087923762477
40.4497252281851516	35.1925725227286463	35.4661356832900054
39.4095451111775787	33.4808973351938022	32.8645678831221701
39.3289011286070362	32.9142584817831363	37.7053824306619561
2.7470514849879382	38.8409390312942975	33.3976100488113730
3.7578469479938099	40.1969199361448801	31.7437936467103405
36.5123938310465377	30.7916442771090537	35.7172201576239274
33.5625380535521955	32.0112109484430221	31.6827676617549621
31.5314595318645381	30.3294127949140062	34.2335378130627959
30.3980537569767755	29.8111994946827359	31.1533396606753819
33.5565618364334597	32.9614498871288220	36.1857129611390249
31.5717792925695591	35.8617138915488667	31.5862619499069872
32.1272855182647774	33.6678204955778497	36.3771040206897212
33.9309476720348613	33.7815019148745108	31.9895513647281113
37.0393789545319336	35.9084092913663468	35.7211786994488634
23.6170237260560363	34.2005802033748267	34.9398323039516825
40.2140948412520700	35.6119185831412111	37.3087140573286220
37.3379069138645221	32.8563368908997191	32.2634351630237006
39.7172708244720596	35.7401253960201615	32.2864895025005794
39.0073473577924830	35.5632952677709966	30.5543987141932050
37.7906754232491835	32.2679686135602424	35.6744526847452050
39.9254046853663169	32.7129214210178532	34.9889415228504177
38.3254924853692458	34.2456355220223543	31.8807891121486975
41.5443556577775439	34.8026251512423741	37.5458756513961376
14.5130135715453061	33.9675928330993386	30.9354373030534511
5.8614836511616470	34.4887202948779148	34.5425139444182179
7.7489903951468824	32.5071111110207909	34.6948883211600574
7.4276775334685725	35.9598470926919589	34.3718336946226515
11.1996442492741330	36.6628588429967692	31.0932466522296380
10.6313231686250873	32.4145376724584580	36.5875199238724917
9.6463008532582286	37.0238044920288516	31.5958051046771402
9.6016647136214850	30.7381911149546916	35.8457103514653284
17.2277397601860933	30.9195724428904626	37.1537629253682624
8.1894374930249914	33.7130231310596358	31.7454513648568408
16.1779913369525126	30.6166620309222957	33.3764133725779146
15.3399680414079906	31.4109793670230637	34.4553033625069105
11.6595116384204989	30.6327449602359216	36.3520981161639725
15.6876676130972399	35.5998372080698999	32.1138385798778998
15.5787940187895515	33.7940416939781940	36.1645469337702892
11.4212638605231724	36.6496620718766621	32.7768842363225588
13.2636284918870349	34.3957948906211399	34.5836072163145403
15.2098077714125299	32.3529712647884011	31.4941019448719040
1.4051585359111973	30.9393303271623274	36.9773672555861594
1.0460160853014910	33.6403620708004141	34.8429933029027126
2.9645029775765050	34.0517258195802555	31.4400257404411114
1.6427294718947909	37.0376133098723912	32.5578800587049670
4.1917056016942471	35.2923850516277255	30.3433755711075470
2.5579925021523704	30.9424840546355675	34.9906836610848870
2.3130435920279577	35.9755150987717016	30.6077158314718432
2.3902490307648683	34.0527804263398437	36.3102302565022867
0.4242356440729415	34.3998545935988531	36.7878629574494909
16.0660149654398268	32.6281397877206700	33.1724805174812545
6.9419173218012871	34.8728782743425754	36.2885842542752286
9.9309437427332927	34.9057214016650477	31.6098782304467854
8.7512101485581777	35.8947514089062452	35.4564856088553029
9.3670351646268593	34.0184356346510981	35.4357347284650075
12.4208200114934169	32.7094473386535540	33.3871034469159440
7.6996432153796599	37.5308762245988063	30.6648980510366407
7.5106872389656596	34.2441204471181777	34.6393353084202644
10.3004861479173613	32.5888169165866159	32.5291427162810365
24.4884559689723673	35.2515006243839153	36.5378195979400999
18.2281739491151811	36.9737158589600838	31.9237519546780710
20.1169005890194299	34.1730653726627196	32.9115466152684846
19.6185020116057522	35.4973200196581260	32.0059320092358064
18.8579655754324058	31.3557408943391387	35.4943652376179060
21.7719949962801174	33.1978333914340382	33.9662570737094569
22.7437824136185647	30.9439717836274184	33.3003823287894107
23.2647236937229209	36.1379787650322015	34.8317243738625280
25.0067896477968930	33.1021883577521336	31.9917130932460019
23.2357426884152325	36.1463193516032533	30.3560660947895755
25.0683953390875089	33.5252108345056214	34.0769319907967088
23.6904074438189696	34.0152751409391314	30.7351545538520163
22.3795837688341983	32.4981052178163949	32.0123387583111452
19.6716703945697837	32.0507640265997438	33.8595373408291493
21.6562396067723846	34.0214944796993919	36.0576649598970533
20.7648569934903229	31.0217995587472259	34.7078477369353919
19.7253809972853773	34.5035188753518867	30.6322502659271336
21.0475574041194662	35.9895955252294968	36.7852503283124932
17.1132668325777502	36.3092046602377607	33.8707141445001980
15.5925717003214164	35.8092551182247334	35.5089961900985998
17.4115128378691821	30.4831863587713912	35.1521599020003208
17.9367541790823743	31.6780474634421729	33.4809369225363511
16.9411494865659620	31.9692316448642764	31.8331200945743120
17.1986876582743164	35.2296467942862321	36.1737892755387023
16.4704676323477415	33.2427838147067973	30.8983580713452923
14.3569290150791602	32.9479326126577519	33.5991544831474442
15.1697264799628346	31.7966884400317440	36.8160414014302830
10.4393412885826500	28.7725572042761470	31.3470395013811611
24.5566368605702152	31.6534365017580193	35.7696528532371900
22.0010057209532590	29.2743841993111964	31.8682611697699762
23.0240440913417785	32.6372665876169776	35.1079690503441100
24.4612037501411876	32.1535082624618767	33.9131093328191611
18.3361481436041913	33.2241823890721051	31.4118525266233739
21.2340093708829869	36.1880062660183555	35.2038237249795145
21.0067743307594803	32.2725143192822443	32.8220966093628803
23.9841826784046468	32.4770787013268745	30.6110121911543267
34.9762585734409654	16.3052691643416381	32.8636279925233126
32.8672720395480553	15.4435314498526015	36.0040627703378391
30.8384152909294045	15.3387395191527762	31.3586374887642805
36.1652683616298916	13.5139219093436935	32.2096565715248389
33.2363426300690818	12.4765013568869350	35.5680193289973019
32.9485566597379815	15.4907719173432668	32.2483646023879587
33.5748173371297440	14.6289102283253580	33.5025631941117581
32.5327564675976078	16.6770814770119209	33.4339466252111777
34.7539322116856653	12.7342089953291495	33.9038087616156574
32.5414114806954800	13.6776435743789460	36.8919673801802759
34.7854718165155248	18.4568484350062008	32.0774648121291861
32.1896141937988247	16.8226467635241335	31.0856891313200023
36.1015718201763391	16.2080523622913653	34.7545177959915890
33.0185566972324338	12.5410460473548948	33.2971280258960860
36.2154853443638984	14.3773634373130808	30.3034316807044739
31.1117893268826045	14.2573535405614855	35.3949225927366697
36.6157111517965959	17.5865181800980643	33.3125515991425374
36.8552403350483999	18.2058745585297821	35.4006859253553330
38.8256838603018011	15.8483563513470553	36.7507432321806604
29.0003777227683557	17.6038019178427199	34.9673305754014478
30.2736583142803219	16.9363971668277991	30.6681643057402837
25.0245820749340666	17.1030830117394750	34.9066162712964498
29.6009360768703544	13.5730881388805180	30.9705998762066557
27.7811937058298000	14.5607294203998077	31.2977269723433231
26.0719617061809927	11.3603046469366280	33.8068377901509720
26.6817657480919053	13.1185387028453899	36.2980618580623897
27.9514767248752207	12.1990037259914477	33.4035630179132852
25.5557197702896453	12.0719370126252237	35.3198968472187786
0.8897203603943861	19.1239772353700559	34.7340106873438899
26.3255039831439035	15.6070073150863635	34.3756438138588365
28.1043646797886204	18.4235267971135883	33.2894501734765598
33.6099316257144238	17.2742087944771470	31.6120076584727769
31.6077484615817497	15.8127025991572268	34.3982833246066519
31.7591760859034373	14.2196509998024450	30.6994250190032609
30.8808645068290559	17.7888362188709550	34.5086265935958352
31.5404468337125188	12.8815610906490718	33.9604334250922335
35.0570965230826630	14.6661569964906420	35.9920831750170862
3.6739176989556208	21.8539195840169818	32.1315604742341918
2.5180408412743547	20.1562985204605134	35.7741136012174934
1.9996054636812417	22.1070213982841182	32.0255276452057558
3.3631388478741902	23.7367741989588872	33.0968177480019392
5.1650598069664309	20.9215176044144577	35.7258165557350509
2.2058907335725135	21.7331867726536316	33.5303094859457715
2.6023659113883952	19.4680691431964767	33.4089242661922299
3.9436006196318854	20.9828439471392798	33.9076007262244019
5.1421710872281770	22.3792167041332561	36.8316799778495181
2.2025171525278044	22.1202277936669844	35.5691333651921440
5.9443193130871395	20.2956574901748326	30.8914833725351272
5.0701320159448713	23.1658869435664556	30.6238097768966604
4.5755110036869553	18.9500797773029781	32.1578956541024965
3.8133284110411121	21.5486016895285957	36.2117385126386822
10.3564002787318827	20.7478833882498002	34.0787909743036863
10.5730777192450951	23.6893376211072209	36.8938576263194449
6.1464648231049379	23.1356245725175853	35.8177496847380965
8.6193638415212455	21.8781154346521802	33.0412548760655795
41.0249066275543441	15.1846713025802540	31.8469121195997609
42.2926885821712872	17.8157273351674164	34.2716303648688836
40.1399318677055987	14.7229509553494644	36.4413128267235109
39.9170745074694011	18.7911021055959324	30.4403933776421667
40.6456730051562047	17.2644759943592625	31.4793586834715953
37.9686016479540243	18.1449599856310648	31.7468932910430084
41.1594630984982430	12.8498738807491151	36.2668314724222540
41.9744552294304043	13.8461714780641145	33.1228093297528829
40.5274277678044044	12.2665388745318236	34.2602246990813484
25.9761207053595164	13.6562726013744662	31.1961414014457574
38.6158766716384676	18.2589185679846544	36.5687409856530508
37.9677287586560368	14.3531877383541957	36.6819092949792491
0.0790151813991809	15.6890808386393950	36.5064620389960410
41.9888498476589120	14.7599391545145160	35.7743249567000916
37.3915065858225475	16.5459393305902580	36.3822302913141797
40.4674520692485586	15.0791570110034918	33.4597755456217030
39.7517754100593521	16.4015061451994519	33.0292713236145090
41.0355897916680021	16.3593062890987397	37.0362221119123376
17.2071190220309518	17.1181799751774264	34.8191350133998370
7.4944085136093133	17.7750513527891734	35.6236828698050303
16.1253401802878784	14.2820283191643576	35.0931105986790612
17.2253352489653615	18.5096593747348273	37.7223747867697554
15.2425214692374436	14.1201553108382782	36.9672646729933660
13.4905238317788001	16.9157704239241440	34.6684703759225599
16.0188693445464132	15.3187820359567208	33.2636477472664609
12.3224697271312404	17.3811300851064949	30.8514823074296096
14.8209856289962687	13.1090206945853165	33.8636888297082237
7.6078370355940805	13.5536837300461226	31.2959603817801728
14.0566165419064824	14.0129019845941709	32.3589113823717867
15.0661677563322396	17.3935300049907724	32.8655231695804062
15.2384123973599177	16.9369946970303680	34.5613218887323157
13.4086058657552183	18.8065434643744247	34.8995135944182522
14.4919390498426743	15.8621695566651049	33.3975969287424732
15.2641014026221278	14.7971679532189366	31.5882392056004022
13.2018176400652152	14.4677137730672953	36.8589376272055631
16.2481140339307188	15.9500262670687256	36.2233681876822686
11.3135630612398064	14.2431852495383353	35.4178489254470321
9.7690494660075409	17.1882905976627853	35.6096747543849972
7.0592064914569939	16.2034283257868310	35.0216341313993524
8.1428757403637757	16.5805434636201383	36.9859883545260502
11.5630301680178693	18.0176511288317229	35.9505342744168104
11.9738222924271653	14.0088929980415511	32.2476512438764260
9.5709877003215684	18.8962396773726802	35.1619730649497768
11.0334928508675478	16.9229935453202494	31.7159608932757067
8.0364430447328452	15.5069117842542141	31.6964672143678214
14.4698460576904129	15.4109387667777131	35.6596377456340150
11.3709178105207478	16.2481058105471554	34.6905523591686702
9.0740911146982697	15.8429732860522439	34.4154004589870297
9.2403987125152192	14.2834012487192030	35.7068599101960444
12.7678723750839787	16.9773463153911415	33.0332102542165202
10.5666976540285908	13.7353152004454699	31.3925278429897965
8.4426299357729242	17.6017184575787411	34.0690115258478556
8.6264677335013182	14.2382672501609946	33.5134285610352904
9.8480059294974733	15.2172616594226326	32.0846789326507178
26.3982999804023528	13.4485034764663300	34.1529127942722610
23.2682547239483313	17.1478656423411238	33.7592557786278959
18.6604675342386308	15.4925332157454694	35.1659835336106781
20.2201806896579086	15.5035512945104337	36.1161743063055738
21.7299234532408931	16.4554807680866162	35.3260600901250825
22.5676270640821883	13.8509487195063077	30.2234651635924756
21.3107113422891601	14.4886439106947211	32.8838340233948117
21.1835103207808615	12.5794827879386872	35.4176927280182170
26.3241337221670726	15.2941680983874111	30.8946461971349606
19.7328730171915545	11.9538258315096684	33.6620512379652794
29.5043718709939924	15.4650828009617403	35.2086845205441605
24.5525565425010335	16.5360405227493885	31.7398812688847123
24.1916214670161089	17.8829552684520152	32.5937553673304876
29.1671659690524088	17.0058369022602385	31.8459486892911201
26.2664600225643206	14.9811066010444787	32.5784249377180615
29.2635038937286360	13.3770521544628469	32.6340378763400523
24.7246301088050053	12.3405280241576687	31.7284673668207695
29.9292996325427936	12.3770187196057737	34.2840932845596029
18.8311206895030629	16.0883305550190236	32.1873222000524137
17.8534612071459406	15.2161592443412896	33.7594031153665881
17.5727417470333549	13.7593456422183227	34.3586714368999182
22.9618315455261168	13.8925901525026720	35.6439418528822998
20.4123448247493933	17.4600500357736053	35.4027749850763485
19.7090701183235915	13.9232390762201881	34.0188205344108425
19.8823703248815740	13.4277553118421906	32.0218900264455826
22.4417672221717588	15.4542129949594607	31.6252236910267506
18.0689970499852208	15.7790996859697668	37.1983746323356570
7.2432925816962408	23.0873706777833014	31.6121525894055466
20.5696634802350999	14.2572924756447765	30.7149385252014255
19.8348825373534439	17.8370615524530898	32.6024023630023123
18.5646161431701202	14.6738851552744496	31.5007813975761870
19.8664769641415191	13.3560973330670762	36.0620844897018102
23.0219141232126709	16.4587756786823824	30.0944398721393007
22.8144176435793469	15.3324433772998656	33.8729358618003431
20.1345956006316236	16.0284180034363573	33.8035253637395527
23.3125646414543155	14.0961608310450224	32.1702450543677045
33.2094256815776063	22.3926105436846221	30.0390831265640834
32.9034561089431818	19.7714132973909749	32.4597680449463155
30.9837152103942977	21.4098558529591436	35.8178712026302151
33.4286795499318501	18.8966228992895999	30.8335560933686992
31.7998710637756226	21.1670189713057475	37.3688444856834039
35.4074787389755130	19.8173967981865715	30.8256223570451517
35.4457551407617970	24.4505413269604581	32.8307055798491447
32.9328389247156963	19.6252953422391165	36.1689491548553193
35.1669846538433788	23.2135936333197499	36.4509629894378975
30.4306514498839462	23.0731068686457057	34.4936158018805230
36.7788012689738792	21.6400711765267850	36.4625394657592068
35.0492204075608100	19.3677766075931572	36.1380015879697254
31.4470706808586833	19.6691455146021070	35.6431190478577449
36.3653955113366791	21.9610768713025948	31.2305090391882665
40.2219497472137490	23.0583415247311052	34.7773124435222911
37.0366347680488062	19.2737814482910892	32.4043209048698202
39.4133776719592959	18.5155831012695238	32.2358209574772658
36.4980374652039004	20.8224390785828923	32.4146327685558404
0.2583574187560503	22.6100083195708308	32.2534772368328220
33.7408784929689745	24.4090779698330245	33.2070071827185700
27.7030908735085717	21.0555709149762329	34.7885872627022366
27.0704124931327783	24.3248407669336970	31.9498779504336383
25.2073636322867891	22.9346059966187532	36.6125927053945901
25.3213887864027285	24.1089653980680012	34.0600497331769390
25.2838965884313929	23.5376411895484488	32.1892427769442619
27.1067814730173637	23.0176823769616163	34.0073824517328944
32.0488694670353667	24.7951497880400531	34.5607308347029303
34.3392587958080640	21.5904172784607375	31.3848501768033401
39.8338303199260579	22.9022667507873301	32.8491086169432620
31.7085186406924286	21.4581217066653451	33.3611605147880894
32.8818752641084657	22.8890182699144624	32.1856439032619477
34.7907693093843733	23.1251022782902993	34.4880599190849395
32.4233414508414839	23.2984258971482916	33.9087959517890241
35.2102736475383438	22.4420721180571618	33.0243589963824746
33.4813423876274285	24.3009990440650050	35.4726533093011369
36.3714034714938208	19.4190579272223012	34.3015726753270727
31.7679868194046939	23.7603165129299185	36.0013250349437186
3.2625500565478718	27.9601086216742445	32.3486649328408404
2.0228833173492315	24.6880712223653056	34.5715251011749913
3.7802006245909370	25.4719212685973808	34.2319165622701718
5.1135018729501942	27.7472577863067471	31.5629042833979980
4.8834194812193559	25.4504637394080717	30.6143602848417942
6.4602058180446207	26.0671756478550662	35.4731279825093111
5.1178003261647245	26.9084743807875952	33.4803065596922522
6.0959559543947215	29.3453632313885819	32.2883268632364135
1.0389640060507264	25.8637195895158989	29.9683755657399935
5.4255359868044275	24.0495876068658134	32.0692239727714750
1.4761745595561544	24.0433449100326797	30.9599160220066665
5.2037089131596117	27.1331988145275069	35.0987479146559096
5.4136076609120414	29.7654693673690041	30.8411148627690892
3.1470596386026815	25.6238261735971129	36.4056124886487709
8.7569310888016396	26.6570745926900798	33.9892040277132921
6.8970480757368087	26.7850827453263562	32.3024227551979024
10.7581336507382783	25.0916522851421462	35.2006570372029444
8.1016381876337302	27.8290185584152177	35.6339658347734698
39.6007128174286862	22.2478880216830746	36.0139101024067472
39.2450919957114124	24.7916058500157419	32.1330944331761117
0.7010949215214386	21.4429551912813494	33.9593635645943621
42.1759607732520792	19.9236722996515780	33.7363735179170021
37.2601845200071224	19.9938235216642575	36.2619971861689478
38.1612984075556625	22.2526203422200766	32.5225655794718520
40.1308194702435728	21.8200198175149040	31.0721886815011601
41.5059869462823983	21.7601500980197464	33.2421765954721451
41.6040260007250922	23.3105522798822342	33.7947455640531089
25.8602012705121815	18.2697323030942798	32.6227947095489981
38.6932091054078171	20.6784678735590504	35.4866458521648127
38.0091251998959478	22.9531831346229076	34.4794361781857717
38.8588284319693074	22.9463321520729053	31.0034452260149038
41.9158718605502969	19.0171434690516854	31.4224289706317101
38.1674882543192524	19.0335175085053692	33.9176791354172948
3.2243671436889882	28.8692456683058225	35.0071766431420741
4.0153861836136384	25.4334116653821773	32.3269973618871234
1.8208994934219798	29.3384710571010530	33.5301227355125562
13.0579136930328268	21.4940952145223427	35.1238870957246192
13.1007879278305666	21.8033077147594518	32.7430347829044521
18.3885015518297052	23.0272252421723209	36.6347510922594068
13.7537262455319507	23.0144640236018567	36.3015928493926481
13.9154839327439657	20.6600058955146579	33.5104725475428111
14.2936116011395775	21.2650197651928430	37.0694498994655035
18.0229676090070718	22.8285541401147825	33.0613153263714992
13.9848525720155497	20.5684624127864701	29.6561328303613969
18.9857113097593952	19.7204930807864542	32.8445009900672105
14.9566827685482089	21.2347656129606079	31.5674075065084843
17.9041655746274877	21.5769507252395378	38.0380649553496681
17.7181135707029611	21.3669499693386662	32.4026735131864285
14.8292630526345253	18.9108731786730360	34.2062672760653186
12.0538119936306884	21.4411183787210753	30.5054694167222458
15.5741141643627277	20.2774659431412019	35.7102955891414098
13.1230390208115946	19.1288673123190556	30.8058579180112453
15.9689568022326061	19.9363395280768003	37.5708456815834211
18.4169559572642783	22.3368860731870988	30.7639048511316346
5.4638582543364631	22.2185835119454644	32.7265127095537807
9.0644474636659282	23.1334094542749824	31.6544129331523720
9.9099143070715332	20.1889410287874931	31.2355969674337182
7.9602638464448683	21.0798573445681150	31.3295368803182512
6.7615075692205213	21.1867256882713910	35.7212342053665566
11.6289522973858439	18.5492947677927056	32.1064419243898840
10.9126254371286127	21.6207081753386134	35.8697010977449224
9.7854259551418572	22.6770507860114101	33.5384849875284914
10.7118635766951726	22.5568716591015637	31.6851829153164211
21.2931218793075843	21.4835825892725403	32.7007734778656740
9.3081179257770064	19.2935109096893420	33.2726937044135340
9.3110747347612968	18.3257629193882252	31.9785409187764316
6.3825900904452233	19.2889002545332957	34.8467162161693835
6.7947832720009318	19.7912352137752237	32.5862585991026634
7.8756782125443507	22.7076132510374826	34.8184838836227826
16.4213971681398583	18.8470164679432948	34.1073589598152509
17.3324958375303204	19.0376291358223142	35.8399348943333109
16.5249986636147348	22.8068672555353977	31.6828807455849208
29.9963239521839071	21.3171445211492703	34.4898953151500791
28.8122064981389840	19.7354702625133882	35.0397589585530085
26.5832477684628756	17.8733031285626289	34.3904707098382190
28.7912373256070602	21.0562023827313745	30.7509707079008763
28.7460907400625807	20.6792296835668701	33.1161225651308158
28.1926501508757177	24.5470260967868263	35.5129236894292575
27.3669096472248512	19.0293218958865928	35.5217273610122461
27.1919145666432733	24.5650360770740726	33.9543073836211349
30.9079615407826651	25.0110565677160395	30.5959302174839465
28.4540979125499476	20.4014839405098058	36.6583914677847744
27.7127862284726270	24.9697117127061645	37.4044765636183101
25.8379284144128327	22.1642186065609224	34.9223116374627409
29.7476261012878851	18.6458777581956241	32.7931697908242441
29.7201086492007214	22.1369849322016954	36.5133077824742927
28.7119176060608403	19.8007776464002312	31.7489202844157639
31.1054547804986186	19.5189369813522546	33.0498177447777763
25.9615221696301077	22.0807239099915620	33.1733298942949446
25.3970189244266820	19.1394232808259588	35.9252733409543978
21.2302400357221153	20.9694968653859632	30.7158858102087429
21.1698340704140122	24.1099625137661384	33.8148610756618311
19.5845063205450529	21.0986669426534981	34.0134423975447007
22.4886544388786795	21.6470128392767123	34.5762781808917055
23.9122145394367180	18.7498809958953565	33.8363261472238506
22.1866914427503907	17.8420122010948639	36.8252616619436139
23.2743892682152236	20.7803824118942870	33.4132389311628657
22.3658501824641682	19.7110869112259088	34.7561149218726229
21.6070308746252095	23.1224393577564840	35.7191393289983310
1.6719095578947274	6.3160641521942411	5.5477652680583605
23.8359219739500645	22.5350763285478202	34.9813619454423517
20.0764798551725256	22.1378152323341233	36.0668766898270050
24.0973443854731748	20.5483378067869786	34.8531530043294850
21.6394815594374528	22.9545329864353604	31.2521257616787089
19.7795240208605705	22.9494074255500067	34.4626237806448117
19.6007328323533763	21.1950891185748986	31.8441531765096641
19.4407224801291036	19.5113904586441649	31.0805543644648417
19.0570232069499923	19.3379396705729967	35.0338062822360286
1.3995809905381056	26.9242753602520288	0.4838042601611248
0.9741503651593988	27.4629052720024021	3.8329659140818770
0.2856645808827586	26.7399555142846772	5.6377083985174448
35.9913885896741021	26.3018943449081952	6.8697632667479356
31.6892241964460055	27.7772741454580760	7.0676234532647619
32.5636181939028830	25.9100043237709734	6.1537630512595731
2.0849040104188061	26.5581009879682668	2.5900395984231874
3.6103153532123118	25.1386059086696569	2.3457251859989654
0.7619997256825217	25.0286815895684178	42.4626455524859452
2.3795647419106953	25.4115563636882023	0.8076877065180750
0.8420367131985738	29.2937042213257044	4.0676355955265171
1.3907852712984621	24.8018051627726699	5.8438499013155560
4.5605200198742208	27.8190615744143130	1.4401182700271360
2.0588324888615008	23.5072447751260469	42.2070630490090153
3.0343540560129507	27.2334399258436441	1.1743686559183135
0.6164305489782779	30.1318217755870137	2.3570514223211285
2.6655084109203564	27.4364210433182478	4.6894732723624628
2.8665337281677585	26.3534582571558929	6.8205648624342121
1.3290633778548913	28.3537728708679495	2.0455502023333159
31.2328051409400551	28.3466835382112414	13.4524168998575355
35.5248866120138160	27.3888287836924533	11.1284918274842788
32.5444187256921822	29.3028376572358837	8.7023866369533565
35.5410131892332828	25.8180753718126113	10.6355594017882460
35.1905181318464528	27.3804870719951658	8.8995909611941162
31.5877340137134226	27.9598870471052372	8.8723710738846737
35.5307738063587806	26.0550840287501195	12.8892444310805860
37.7816822199397606	28.0571328453757616	11.2867434963864284
0.8373030099281950	29.3811611507397359	7.4087457249518742
40.4412866937228017	21.0348237777275315	2.3201316530468459
42.4186285770077021	22.1235436931682017	5.4659641908482008
37.1162957730007363	24.4911780992699555	4.1984963440125282
0.4415641219308205	18.8404230742476493	0.9834947341341138
38.8273786714778808	23.3805741422607340	5.9737037619464388
39.5938180208931243	23.2603042901911010	1.6695402553458043
41.7833035026678203	26.8800480406440663	6.8696131872217023
37.2797081776365786	30.1064032486565445	10.8436217209685974
36.7764133741138792	24.6472039979958666	10.2837885641495426
40.2489860045523926	29.2429919356763399	9.8663551932853277
36.6472006021019681	29.7587970143368779	7.5257522730154784
31.1418672781133274	25.6789869482651518	9.2900604877234016
1.0075833491730932	29.0193389375900956	9.4932425884671368
42.0538337515278187	30.1105965690447057	9.7384413447568949
37.0005609613747808	26.3617401425810947	8.2020463466429430
38.5183014188974440	26.7399258638059969	9.6716180746195644
40.5396675312825181	26.8945523958671728	9.5431732613789375
41.8232730537727235	28.2854227787391430	9.6022715047133929
42.4330138089405295	26.3922800843453658	9.0078340422425160
40.1742148722166874	30.1775965445864216	12.0785023884391620
40.6041071385371737	25.1184980836039529	6.7339674782378962
2.9797474202524850	29.8217362322023796	4.7505028760189001
5.6571320784840280	24.5950640998685657	6.6634175421587782
42.4334064956764720	25.0121122448762421	5.9880749336433867
27.6780724024499953	30.1692121003811877	10.6058397670468896
24.4547127309323074	27.6359689404082367	12.8563270917743377
24.5340347576471700	25.3691685867530374	7.2342283187999161
25.4720965655604843	31.4034921466107733	12.4435569459402195
27.5205359427579879	26.0564978630743660	8.9300178867043893
27.1492399069129924	28.4195120744784653	7.6054969729864128
27.7982283326526698	28.0219062181919654	13.5884720769753855
26.2819231965967361	26.7921789493112712	7.0934211829670719
29.2300297793243331	25.0493162371354074	9.4506100637428592
29.4231659272028523	27.5081215586914958	7.4810974174110552
25.8710886223878056	27.6177567318881287	13.6700070249273722
29.7385510166835161	28.9234537166331904	11.9787551110822168
28.8929818475264462	29.3563544107045011	6.5880221907624632
27.7527700358521656	28.2234320178600235	5.8348006486817452
26.3455735371887378	29.5355774556183626	9.2260379154498260
29.9905392476397772	25.4212193454450137	7.2897730723189840
29.4815575984371385	29.3094294758630802	10.1326548088437338
27.2347450540800260	26.5352369725347081	12.3413462748498297
26.2397732322445236	30.5049751130830167	11.2493136125945057
28.5777215018774733	26.2883791359694214	10.9059728775436824
26.3094796635760062	29.1315401228712076	12.3895021564164907
24.5885431692026195	29.0992560192924472	12.1853047489743229
30.2317937894049429	25.0472240117194076	11.2275427252927287
31.5121660707656304	29.3245957126292325	10.6696247483951847
27.9400054382188401	29.9553094365388901	12.5899281601166209
24.9728260850706789	28.2704091072044221	6.7433272631905030
10.2845084330381233	27.0221912537816635	3.2131796903857368
31.3366985117631742	26.5650228027190387	7.9694815155193934
31.7585369912676576	24.6416241452537186	7.5012930243532194
36.1793791665399525	29.3846049274229202	9.4272995321852928
36.7097649767506624	27.0260667842417526	10.0422692042482691
36.5526907392864828	31.3780793789518953	6.4042094273657408
36.2240351142109844	28.0371500194943231	7.8602566287503821
7.0706102506743660	28.4083157365867507	42.6986931511122734
12.3246594653142196	27.2653147543144136	3.8698948559323529
8.3204801731597531	28.0909284800273298	1.0190644321039617
7.1292500158436747	28.7164768325144024	2.1048086339166372
24.3474227277844477	28.4055834618095524	9.8083507910956786
7.8477271803169115	28.3898325075703113	6.0206680660314067
41.4080870768577327	28.7833872160246429	7.2444324456893128
11.3019689815151114	29.5736031550785619	1.6377380509534085
8.4601252875017199	26.7474457628156514	4.1696950076383175
10.1102745115436363	30.6249939274171155	0.5114880140336120
8.9808636289416182	29.8138341570838783	1.6048898600345742
11.5394675783383658	27.9066523985649368	42.9679269457507473
6.9657021712220031	27.7085475016782361	3.9840538509589134
9.3515512089267379	28.7939105398240649	2.8450104196302148
10.0617530725833451	28.4404642213290693	1.3989019130551281
30.6574966131499806	30.4718037760758733	11.6043076978922546
28.0266407010590406	26.4128130732512751	6.9300870745122092
27.7120712521375197	28.3031684358385576	11.1487751120562582
25.6563431592363074	28.4865070566226102	10.7007382184152462
32.9999324272404095	24.1547284571321796	1.1550529065990851
11.3195058237044002	33.2375578301746586	7.9945607375719137
9.1599893783199704	32.2466709858910932	9.4801330919486553
8.2939480211391974	31.3878590611520778	7.6953542077919002
13.1739747622842795	33.8887179756499037	8.7635953375131539
8.6186816882937567	28.9373897635499766	10.2206542385358432
33.5710055535363878	20.9777924918632372	3.8096932596372421
30.5976192947413352	22.4189732653011582	41.6474810225206014
34.9195843347771273	23.3728514949516679	6.7417252409653399
32.8554113427706511	21.9261719386207972	1.8552698648272330
35.9631791580792353	22.9028984834899880	5.0916364549896231
34.9531983980345657	19.3387565513922404	1.4619447439714361
36.1990645848625547	21.8986647201400970	0.1681310687248060
6.3470017469143105	32.0132706464068022	7.9819100395722469
32.7731836534320635	22.8032358721056987	4.3522173806914539
31.6143751557011115	18.5347148314964656	42.2146271040481835
34.6474980274003101	23.5568748252101727	4.3973005608067925
34.5499180531580663	20.3582619771266522	42.6604753991763559
31.3205165574721214	20.8010628798839967	1.2430092311200527
30.8118668693693003	23.9943584898684534	0.0651329284528095
31.6203309022919186	23.1591970232396100	1.2864730209765816
31.3965089572417320	18.7926031732654373	1.3805117762644892
34.0212363213183053	22.7584164649980814	2.5919356650051011
32.1272383219816291	25.2683394756163082	2.0290439001590728
34.0833803270704934	20.4372126415931561	6.0081731356016022
32.9969227080843766	19.5337405352098052	0.5331451352289412
5.5463999318695905	33.8410531775263124	9.4020275516848617
11.5668764927165419	33.3018634140327379	11.1640347070161781
9.6128075772520578	31.9495036850766390	6.5404875448672284
12.3788215525409129	32.0839338986113347	9.4564166373551366
7.6883149385921925	37.2452751706249003	10.6000363617286464
11.4037369501435659	31.6542224064803612	11.5007928304099387
13.4893183345731167	30.9308652769840862	12.7867832637421373
6.7408965301832318	33.7949660682445341	8.2615438139695616
8.2639205191424043	33.6989614079398763	6.6627363677125144
7.7429763602360584	35.4088776604200817	11.2698806517710111
9.8858932484092694	34.3510837728968781	10.3684213933269476
9.7486420700414786	34.1176861737979920	8.7200266076503361
12.5847049840471676	32.2131625092891625	7.7582222357474260
34.8092858793581641	21.2473517789324831	2.2970627567287867
6.1252549176946758	31.8595424778698728	9.8573429669971588
10.6844302500759909	30.4790247940759187	12.6979084384458911
10.6359437840087132	35.4497269472962273	8.3884309926370264
9.0260191586314651	35.8863443848273391	10.0264067551776552
5.7845646788801606	31.1718601320115134	6.5221345357175613
9.5819264522625218	30.3782937152581596	5.9216171321441742
6.7873238546241428	35.3983443046751773	9.9379212318377110
13.0458175490171975	32.5579156686312530	11.5881345621015868
12.0937360417318605	34.8396195180406849	11.1113590626840875
6.6826917325988795	38.1334149844155306	9.2095651288675455
6.1472025316378760	33.2720246253364422	6.3755634179447069
9.6656952650153229	28.7058599222786732	6.7521866973076632
36.2633184512098552	23.8905309675757209	0.8571466042503755
5.3701948269392048	31.5814044212612224	11.9055926660187481
1.6223711248047141	35.0306952243731757	6.9137830777135525
2.2320687915125097	31.0912484571340748	6.7403452518499796
1.2038004785112368	33.0086857556919071	6.5749709563185670
40.3139876260155887	18.9678110340498378	3.2356077071099993
41.9129883071669624	21.6788655694536772	1.4354645097100940
40.2945571595720295	22.4362174759477746	3.3329298290463729
38.6996239399281023	22.8847724559427306	3.3124151064003451
42.0080025758967892	19.3019873949966438	3.7604551754689788
37.4552731404213972	19.9742317464920802	5.2807736596686157
40.2327170680996034	21.3296726060428483	5.9462537750635125
0.4695942415566059	19.7286346377587591	4.8084397567748409
4.5553300196828967	35.4754621907386607	9.7417665769567598
39.3183836013670245	19.3839661617444889	4.8775750536835423
42.1438638274637185	21.3078352971260649	3.8904459545158687
38.8519704827091132	21.4860479304013694	4.9174782574040190
41.4741025987837659	23.5469166898807529	1.2308482394289300
39.9454228022494533	20.8626434219450196	3.8411100277143122
42.1270016849610442	24.8101189978184706	3.6430920843231833
42.6441797423643862	22.8912530440816226	42.7410637881802131
39.0641949730352138	24.0632805134109411	4.3287120047109591
42.8557101754081557	28.4669742251694728	8.3342040438063876
37.7924572149113231	25.7606105253877367	11.1059868618978523
40.3530775733469724	25.4216071088490487	8.7492301943657296
38.8327929466267179	29.2429596230424487	13.7587003528761098
4.4100581085708273	36.1735564980885727	11.5703040327472415
35.9441365781153479	23.1299050382935683	2.7514067008231815
33.2399200977201019	21.7748720052857401	5.4460753513922580
31.6954259440253345	20.6552130178004703	4.8237750845563561
3.6909472311380487	31.3645467056593397	9.1112990103526368
2.3379999289223705	36.1125982601602047	7.8634335838042411
2.0522062060417778	34.1874235875557844	10.3700798994047538
3.7879526493370088	30.8565075786516552	11.2384466251328536
3.8392823964846605	34.4397256924802662	11.0904568998955337
5.4872139797024930	35.0819510082847401	6.1241159476664766
6.2266388992971056	29.7305788652008687	10.4326974953731977
5.5642983016785479	37.3306833620829153	10.5733083395822121
1.0208626353791472	36.1976321481687080	8.7974657024902427
28.4064393835459228	29.5339108909488353	8.2699256680169171
5.4739502199656362	36.8085661088701457	8.6396901040532672
0.7244376027872080	31.6260133064619779	7.4977996320785527
2.1533736137488910	30.7233316981837206	10.1825530994601277
0.9516011913945057	32.3068863558803159	11.2463527929101286
2.7244094374933461	32.8921703638669811	11.9403936145896061
0.5098224615696371	37.6819565467245212	11.9965146528829649
1.3010446301604002	35.6779209909967747	11.7977208239338101
3.9383982821550565	36.1921702134496783	7.2409178115315020
4.4317404117244479	32.7405201449736580	10.5505481936068648
3.6900158016167230	34.5696527217690530	6.7101759094199673
3.5205550557843677	33.6244315904440896	9.1095272156191651
1.1075886065477192	21.4772828941171170	8.0974986126525703
4.4874452298726348	25.8493510577346406	7.8606900921032734
3.9200945678468209	25.6434943573390335	12.3733720446134274
35.9554359436983546	29.2402317316489260	1.8137363081057090
33.9589787144560376	29.8292537950961361	3.9976145491320532
32.8863154652670175	31.0242373163468486	5.6690653490606344
31.3570356785469855	29.0530088785456151	1.7661124763948859
32.2878663562793378	28.7041467277426037	3.1340040624362242
41.7333030928940616	19.5463140765138128	8.3386277273561795
41.5353279242530533	23.8085155580577350	7.6345763067712502
37.7012954924130028	23.2324663441311330	8.9885900658361191
38.5517358398870016	19.9442282122778671	10.8195892617196048
38.9007136754791603	22.1904241319489799	10.5394212150358797
3.8680667492163510	29.4199122815297756	7.8418766457024205
38.7294029126653356	21.7585774974373365	6.5912944378619551
42.0927306727136994	21.7311649276701786	8.6122708926797849
40.0285901402721578	18.9858725875482364	11.5166872838529830
40.7019653362393115	19.2334238934323132	13.0174178870601978
37.4244074927587747	21.1774132741709558	11.1767886625242223
39.2714868124509096	23.3468510120920811	12.6429240431675876
36.7194753787768846	21.4723940447977100	8.5331867220098818
39.9832400243085146	23.8815093427960008	11.2593462864168483
37.5653994059250422	23.4166955903340472	11.7203881084930490
37.6140277131896141	23.4864064274079496	13.9741396651749223
41.9637343092227937	21.8225171329261904	7.0044769346052718
40.3543593739622253	20.4523535474222804	7.8918210796481043
2.7359879122051445	28.3640557751974001	6.0873128645616523
26.0068808565785226	27.5032783045144598	1.1154883409667204
29.3307726426118087	27.5749683319071188	1.1757941421510207
27.4088110302632408	30.1543334187899923	5.2105216624461859
30.3588583527448534	25.5941608755203411	1.2064012587199395
29.0134203089380911	30.0695265862352414	4.7275717682074374
24.4665776272877835	26.0240520249342602	3.9693410734581889
26.8628207560336350	30.3096593274664592	3.5069687507806488
4.8608884605899974	29.3718266181643877	12.0386971530206655
3.2573797047596971	29.5184709610008369	9.5989307651944582
3.7438515582248040	24.1753960246522226	7.1561532016442175
3.0858841375805381	23.6934156554982920	8.9319453165327225
1.3816322849402629	26.1985144360361879	10.0940686790971874
34.6704954982879627	29.9900250828529309	42.5763652354781641
5.5167039970048286	26.2052765981535565	12.3922373318368670
4.5258771471633263	29.7389223485619603	6.4458493795508565
6.3572590898226187	25.4865269990001835	9.8973910835244343
1.4935745300998828	29.7900767639010695	6.0033146368041557
0.4140274959771064	26.4181370334772936	11.7949735612381268
1.6677859888935935	26.1147352055642585	8.5351583825627486
1.6161784282506098	27.8795648184911151	7.5093108313889818
5.2815686974671259	28.8903743631840157	8.6474355640819329
0.2154535361461872	23.2015408800633622	11.8759554943711088
3.5002331151049888	25.4734765854042813	9.6744778754645253
3.9568337222771777	27.4731369125515634	9.1004513376725811
2.3026263843175987	26.9667262403936121	11.7519163401196991
33.7746044043550455	19.6140726317343521	11.3825106102769169
30.5537594203327458	29.6384622441065062	3.8511387642656927
34.7933110065016038	28.2200790514663957	0.8220699454339738
35.2998217979036468	20.3210341902438749	12.2553824531491955
33.5882856130959269	22.0010424993489337	7.5878096140686075
34.5148172821336843	21.5326129203524381	11.4914522505733032
36.8785985052008343	22.8228242528308556	7.0076820655267511
33.2689362604669228	19.4013371229689646	7.6463373919943285
34.5020828017601531	23.6679588459168571	10.5442349171546219
32.4202598074281454	22.1891609106179999	12.5204691605222287
36.0835405918205652	20.2310741023922773	10.3563081464771276
31.2473867552214273	22.9187659518798732	11.0451856004322586
35.3412027224277310	24.3732681660180965	11.8162103425580938
36.6416020379962291	27.6859198651560305	2.9099076871353509
34.1558563188727362	19.2148624760727031	9.7868314593729817
32.5991744895171252	20.3444229372819905	8.7836785721261688
36.3488238423174153	23.8189958239686739	8.2801859274300291
40.3214825273548030	26.5635365199650266	3.7928344360671602
41.1694407691006816	29.0119377242084546	1.8740258026557501
37.2098037721580113	30.4702628611503776	4.7316022571654344
39.9971258462993688	30.1631403866999257	2.3322041212286568
39.8105041633273160	24.2806367502065186	42.8613938435694877
24.8371408175202149	23.9869364908244123	8.6883451681769479
28.9808626646939018	19.1586122306628255	6.5917426522140383
25.2457814846444073	23.3856714467134346	6.7368966088222786
27.4909445386277049	23.1134842604142641	10.2152752137420570
35.8049456004859152	19.0536531328241558	8.6979660501212646
32.3091824249182480	29.3325092514611079	4.7748592922315858
35.6430749210867930	25.8312926853952902	5.3467114867644145
36.5963669171315544	29.2390677503917047	5.9432657364877377
36.0092603817440136	29.4165708885177004	3.8449362529758968
35.5375327489237520	27.7450531260206006	4.9650716216089066
35.9093133532571684	24.5032971820336805	6.1436409609024176
30.8128654183889061	29.1588448471376758	5.8973804205970710
33.4521368020448335	28.4649671824276247	2.0987042505315019
33.3172105610854956	27.3965289858309049	4.5391493727698284
32.2518295791718259	20.8232060741479330	6.8237173176096553
33.1030216614682544	23.7217879759378114	6.4675468904379096
31.3861959777386659	21.7722573949659939	9.4964290518097556
26.1666779107865644	29.3116832239714391	5.4534337355263744
33.3772507616696643	23.6382178932090881	8.4270271304341886
36.0196710612185669	22.0240679563241208	10.6978517220299487
32.1903757309492562	20.8283547030617555	11.0904438492631172
37.0285500475681388	19.0859030104716076	12.0470414277218882
36.1856742675529688	19.8049707156131127	6.9811690361054257
33.3220739136306037	21.3453781483568896	9.8362796433921087
36.8075499641922406	21.1683525054775998	6.2383543969758177
35.1957811763552471	27.6422023806673955	3.3591579462666652
31.7938566337458148	27.4398323371562860	5.0726127770527647
33.8414502678777893	26.4218943104038608	1.2639615813702310
31.5042503393823843	27.1704747000626945	1.1522383792655779
22.1683738378363486	27.9314119344604883	4.9613118757245349
20.2180816078965897	30.1101875102319703	12.3070430504654595
19.9416452474641375	25.9574668947013549	10.2171564977635985
17.0497883704237267	27.8001782463636253	9.5016999786569443
24.1872227924827037	25.0082844184467170	10.2666882595908220
21.3227280373944765	30.5655294165404108	6.6455393058386498
17.2459228433625888	26.8677343780720648	7.8647780313421007
14.7961952655245756	26.5059220626759817	12.2608757481353496
18.1945995308321287	24.8872430463676153	8.4746394986766944
17.9331796955844460	29.1314375095323150	5.3800509179369245
14.9237663334207973	28.7270526825579893	9.5397803853372096
16.5452361123076912	29.7230805274764300	9.8509123723583851
18.1188934780628728	26.2278531773202346	6.5859583543059586
22.5166272996169603	28.3455037152960401	8.6820980303352506
25.4584186797449341	27.9153211994029817	2.9862519204891713
17.5621418251801238	25.0922526405090807	2.2928861562535734
18.6724329060823280	29.5966787869771295	3.5789032284610296
18.2960592102115278	28.9087211322967228	2.0492264866760861
21.6139256698828319	27.2925860203150101	3.1130422685440755
20.2249085260319355	29.4111364909409723	1.8597020983293588
20.0849080478689679	27.6720586038577707	4.3197341159929374
12.7115563729282588	28.2112884900436072	5.3785740351035516
13.0259433944954850	25.6179860186069028	8.1201511473215255
13.4792759074189057	30.3870809624198337	8.2138968448453831
13.5928765372336038	28.8755774146135309	6.5902887686459346
13.4204774884776086	29.6129799091141770	10.9816393396297638
22.5435209456477814	26.6582416360620087	6.8956672145582383
15.2788684777147434	24.7390895444299623	42.8787302141329079
16.0111393282670065	26.3102083389805834	1.3339726642640228
12.5540401099147019	29.6698745205532646	4.6961584789555619
16.3304665647690115	28.4591470706521292	1.6499872995581064
13.0532792177867378	28.9347232656267259	3.1440789513061818
14.6531878549836758	29.3709548295910068	3.7442388362960517
14.6392489414732960	28.0708780243910816	2.0535345749570504
19.6010866397899974	26.8488806902259043	12.1554620196266239
21.2193956604262759	27.6669595140972540	9.4980583537608627
21.1559726658820928	28.7120867652283209	7.8378409032107523
19.8490520636724099	30.4197722249666782	7.5872728546697168
23.8142283687176821	26.0597486461352013	8.6050373922759125
16.4017006085374000	30.7730735309607226	11.2973071880542939
18.1833142327507247	29.4837393849380867	11.2655510886634183
23.0650383301405562	29.6380855848978939	7.0768012611117275
21.1264290564631558	26.4751411883454431	8.3007648047504361
22.0235720083068323	29.9323911049417646	9.7203578078639641
18.1882631085069413	27.0308360603908326	11.4037886439268465
23.6190761220001626	28.2135402552349248	5.7021164688983808
14.5702649539433917	29.7012534494746951	0.6013863177917750
12.9329946111450642	28.5837122545526441	1.0638827526766370
16.0789274813111369	26.3112096946903264	3.3580038462695665
15.9707688025067274	30.7094440815545440	1.2374583735371900
16.6707491974394735	29.4208518414027580	2.9878690999911370
14.0166280243218342	26.9483390219307815	5.1253078139731292
9.2690556434505460	27.3840095804354320	5.3396208742132778
9.0139937479302610	27.6331744207083112	11.2652670153278844
8.7487223111339567	27.0641191649852644	7.5237365758403314
11.5937720550652017	27.1971333862225073	8.1784278015468157
7.5831695744151526	26.1414224071956021	8.9712282503764094
10.1529128361164283	29.6453193491225093	11.0068612260046521
6.7533745875214173	25.7714764828201730	7.3368979514520980
12.7892119324216651	28.4383544097260845	10.0679644030711835
12.1749871613099891	29.4324734455742494	12.0546849411513772
8.4218540032302087	28.8038832089797445	8.2848675958740188
11.0991578846270684	25.2945996792220456	7.6797980676387336
6.9895882916789143	29.1296934197213666	12.3401312905201408
9.9340568121458688	27.5788579558622580	9.3358498792275224
6.1524523440263188	28.8389582836597853	7.1966317272994180
6.4466004089383153	27.8264257069530636	9.2773568979368886
7.0459397967756692	27.1624939760581334	10.9038385202938279
10.5531576663513800	29.1115111248551308	8.9346733128638824
9.0675616529851322	28.5006995138023171	12.6782655406654321
29.0837895872833272	25.9772244539604458	2.0449885653443260
27.4635638457774220	28.4343056616763086	2.3346921329285339
28.1194088657625194	26.3381579567136548	3.8774357561841035
29.4275249729517512	25.8398834456407691	42.8209945536787799
27.5581432164527946	26.9544196387508528	2.4973202841194935
29.0346565780858370	24.6572113321895507	4.5489601450134378
28.3476839839393833	28.6908878461808570	3.7322321495686288
26.8796204370006535	27.0898200987922415	4.9725717703522800
24.0038392350262839	27.2713511132930826	2.4476191327542907
18.0114628533749510	28.3088081703937036	7.3508296478906328
15.2103580008420707	30.4612857977037912	13.2075029437381701
17.5652327965633077	24.8740782189476128	10.7011765892290054
12.4524580738080637	24.5064249907121265	10.0873754860127143
14.4340398190104509	25.1967799524487113	6.5318860384789792
16.1902100073655433	27.8220923630146508	10.9162273475399427
15.3112529075362875	26.1825340653594623	7.5548217141267964
23.0211888647823386	29.5661957572525473	0.2369602680212019
24.3470262031115610	29.1142790806256819	1.4406138029442417
22.7065971832223354	26.5899213628017534	1.7679165806451478
19.6110425676041125	29.2654571456215358	6.4841045393669123
19.0812441412767697	24.5404487174846686	6.3238509272852008
7.5975514485555804	30.5870285469903500	9.0841100550920313
25.1503142847791104	30.7771342404893105	4.8773025233732294
21.0576933862139732	27.5329249313168098	1.1168898510938947
24.6185738175195858	26.4742971803306624	5.8385074669380232
22.9207164381835433	27.7387004161886779	0.1326488890519921
24.2126388929121887	25.7365041225563616	0.7254280556862125
20.9644920874941434	29.6466270450991445	0.3807781414014293
20.2866714529422509	26.1198419647102469	1.4879173949714357
23.4518335036494108	28.3616333375983984	3.4004731830480361
19.4124219654972805	25.4907657631016740	4.8281716917245934
7.5265932537266487	30.2423547919961173	6.3885693871865605
10.4816887361588282	24.7836647104099370	11.2102233743042792
15.8671567470709078	40.6504390043174411	9.8679480109765159
16.8227100923185553	41.6464279692805732	8.3586597074668418
15.5981886580265385	42.3702962765886539	12.4412872531380234
11.8143895224662305	39.9607378144145642	9.9996661740293735
35.1434765117123149	18.4365683510293756	41.7647832267348917
35.3285177558566517	14.1837613546666184	2.9907697623840561
30.9474170435204812	17.1720908575049123	4.1889430468761013
32.9048964181525605	16.8274302304738086	3.5002184001328911
12.7422614226706052	0.4803969800726510	9.8167658642520443
12.3411068592087023	42.5018799070739277	6.7386734824031089
13.6273044539851913	38.7845948537135996	9.6918626635441303
16.6344174153352995	37.8891837549899080	12.9029474004507225
13.9573077199068170	42.5678731500120051	8.0570047696563254
18.1200988175462108	40.0251000183132888	7.6249050885911620
14.3484251427366640	39.1170741007067519	7.7374198978011393
18.9331560824201262	38.2664162541053798	7.9022706992156566
18.7164398529107316	40.9185708368100691	12.0322057913965921
15.1460016077385546	40.7696943993012368	7.7674127999660687
16.5900283285223544	40.9541291797980520	11.8777012888564553
15.1974093391868692	37.9376532670391526	11.2924449785695664
41.5326384524878804	18.2888009855527649	1.7104228629961844
37.9555733694159727	17.5127451033630379	3.6548897352087453
40.9384236176238332	18.1382043021242332	5.0577988479829150
39.9891140800454679	14.0275200742909405	3.7557872282874634
8.8322141928546394	37.7804912439287790	8.9731534080092015
12.1780595583027562	38.0721721608231221	10.7994313216434819
20.0549055398470628	42.7539636777007814	12.4714528727358474
33.8268985088324214	15.3551866022428758	4.0769422950496397
32.7254145826886642	15.5838086720788400	1.6987730437676294
35.1177361891759503	16.3928318046113759	6.0909023909405491
29.9615126004397290	17.7840882859015501	6.2508282871567049
31.7069353630790864	13.5771707782866340	5.7482482755978612
34.5033802296224081	12.3390094173539335	1.1234178884883279
30.2450344885823377	12.4958673172721042	4.7290524455534362
37.5212703711528022	12.5137554777650966	5.9765950699922268
31.7557208014477901	12.9547947388104951	3.5782030686736830
33.4805796750097997	13.7330957071262461	2.6912735391439329
35.6793069035781372	17.4883712226669026	0.5268428162753575
34.5574449307575122	14.2765938845902962	6.1473066860216221
8.2060325901491407	41.2976148953645819	7.2445062623959631
31.2018609221023340	15.4568582893629447	42.9753339083649806
33.1927612692187708	13.1249096478200755	0.5697396071482977
36.6828203386943414	14.0726168107875971	5.3157483731021422
32.6963544100835861	16.9137271375547229	1.1363687511611020
36.5867694902185434	18.4380809759039579	2.0690561069428246
31.2659588541067990	17.6564375605733375	2.6420119663990578
32.2252446740725844	14.9330070994758319	3.5979288904697193
34.8133976553664155	17.0924094044513204	4.7349125113912542
33.9036635948763418	18.5234452158199545	5.8779410391367373
17.8360719748015590	37.4786688198344606	9.4118069320650353
14.1243365905623115	42.3471927967439541	6.4057940784124678
14.9545956706092849	37.8045961920046310	9.6455252754841112
3.3918919134429761	20.7564173563832597	0.9747661511504553
2.9030740790959508	39.7984841440140116	7.5688776027818809
0.8095894959092216	36.5011944879244155	6.4860108239672876
2.3790646925260059	40.7409892964865890	6.1298268682924890
0.8755660542344709	40.4212320595196530	8.9359600543341937
0.4622533077673617	38.7129859761332753	10.6703333798066780
2.1455516687638654	37.7160951292042839	12.2888429259426388
3.7296603749161745	39.3500541714255405	9.2015541329311610
4.2334692495438215	42.5727098522308580	12.5198374110314976
0.4212915123071967	41.6259404299627320	6.9257795368933337
1.0101881921577818	41.3819432483605709	12.3266429256768077
4.5020316748863349	19.1820595036828863	1.8981338688810849
3.0088620041993912	22.3149591065771880	5.3745595155449077
42.8774895647833887	39.2898046559696468	12.6930050120424855
5.3473453727940461	19.0785209802901328	5.9975456947347654
2.5971606400956904	18.9826543758763400	1.1043562199099224
5.0777975496886381	22.5526380428378452	4.5948002861811936
4.1585134221599782	23.2475094311325314	3.5399393104657193
2.0224705710368260	38.2618392456449499	10.4603856002259157
3.6245552129037018	37.8119238783704503	7.6951071355787146
5.1967536268677330	21.1713392845411867	6.2106428459520293
3.6827868048568240	19.4057346269781696	6.0688769210196387
38.2063463734326447	30.1354989498672126	8.8967141185229206
38.5633479931382581	38.0180834232584814	11.6403326068171094
42.0393233717020962	32.9675443570858633	11.9886948830923945
10.0767901076922097	21.6780912446604574	4.5280157789005191
42.5762776457592480	18.1277768354062445	5.4333536135135212
10.6788739996805617	36.9302240094468885	9.4773667722776143
12.1306596935678712	38.3292242263306804	12.9981178441700695
9.1443724197868885	42.6077788638012436	8.8949325373901029
7.6401201583711789	42.7889056634743952	8.9748430362723557
8.9362061267402684	37.5604666609783209	6.7449679675159109
5.3920228535584247	39.4794663782687962	10.2218918779196368
9.2987811978491930	39.3335863474013721	7.5287356958009575
12.3926390292179054	1.0667632417203947	12.1440731408494340
40.7741300517257272	15.1563662995296387	5.0155185904733699
38.5587913679154255	15.9832309479457777	5.0187630167846038
39.7753709956755870	13.8221327700876859	42.9673014311531105
41.3747732049477506	16.5793031154940387	0.2265538163238826
34.8722016650163908	15.8172832000720209	1.4470891504664338
38.1565752307443731	14.6589679560230906	1.2847952140833689
37.5113324737781966	15.3214269122792199	3.4808615933020981
38.8241596148449943	13.5874530960437454	6.3364011267626239
9.3984736009599850	37.8977157007704832	10.7591847339095246
10.3988108662292369	37.5226983659343887	7.5626176999287358
8.8587218989112486	39.6068851639488244	6.1195267387867816
9.9901711172671472	40.1445945819847623	10.7721290196744111
5.5801732673711477	37.6852110182211746	7.2774693907521577
1.8398985938164292	38.8450459509219499	9.0366103060922125
1.8347449527398065	39.8998547859539201	12.5426065045961472
1.6111239853631805	40.7360106245135682	7.5517260927072467
19.3843401291260697	16.1304892729602685	0.6196093613277235
22.5874087752390160	17.1610958397701872	0.5074630616975669
23.1234638988055359	11.8880532889571491	1.8025653399220833
23.3832103975863959	14.6828095680132815	3.9501822461991716
21.1522685630727487	16.3904499628523759	1.8457427913372384
21.9349884629367118	13.5117134332330000	1.7824491314066175
23.0055610264371317	15.3604009721020844	1.2993836128528848
18.2487335756572691	12.3700427982041123	2.7449169710099710
24.6574512187120760	16.5552269954073843	2.3093167192161967
20.7050799410091031	17.4790181806138634	3.4513941349043566
21.7536491503830582	16.0909865733038409	4.0537937720496453
23.8160448830583107	13.4101716724745916	1.9146819925631402
19.0680804146370448	12.9676104665557297	4.8431760379221060
22.8684841216458032	13.8414318677722310	0.4202327679686100
32.4725236511224935	38.9127875017625939	10.4155912397920112
32.5793451229703308	40.6002623123025330	9.0629707509778505
32.3146117178888730	37.3692045870021516	11.1317779982074363
33.4238906982566419	38.3467139754679849	12.5152020138028828
35.1679673828517423	39.8214795426752133	8.6934165193071955
34.4269878359097703	39.6542578940798478	7.2072421592255029
33.7259081536021768	41.2972584824522784	7.7137593883261522
25.5602044745444772	37.3374876945991971	11.5352885038296318
26.6549474000573596	41.9610039719658729	9.5922893797462478
29.4950953981642279	39.6182251380693913	11.1174835036073656
25.7730028712914851	37.9911039372248922	8.2095287500780039
24.4714648989859924	42.5779856360660673	8.6310075428235447
37.1608850202866776	42.6882639768057786	13.9691117389126163
13.7665395990973813	15.3083209665391369	3.4276435308212525
17.0369922468968902	16.2751121851983775	0.4855864657714399
15.4928829866690609	16.0201429399627280	2.2236828702831763
16.7590022225736917	12.3083358224429755	1.9133750320399647
13.5963085844571712	17.0689762253241106	2.2914941126673716
31.3843313895248777	39.8518600082925047	7.5620320413242279
32.0831928889460229	37.3673155749093482	6.5592496731123138
34.1369128890209268	42.0355758873434482	9.3178496110341840
31.5839030283633377	37.2171737375196656	9.0678757304828110
35.6829518501152165	38.1787567563101788	6.9375923419345868
34.2513914546482710	41.9487717998251100	12.8371799462138281
32.3421414829228056	42.1143216091746879	11.9821002931029064
23.5671155229838476	37.8558644179391450	8.5080828666941191
30.8748906343934237	41.6019041121577402	8.4146572736725709
32.2196131297075539	42.4912354970328536	8.4063164426922157
30.9615923017479027	38.0319024714570944	7.6274738252513261
34.1615623370718993	40.1405429382704426	9.9467860311974068
32.0287482613983130	38.7541654966102840	5.8221084725195693
35.9637176325935854	40.9530948680429177	9.8306289873251647
36.0376196495083363	39.1158034821447558	10.5296257597511449
23.1682168092237681	16.9041607426481946	3.9148825337268067
21.3744760601080728	15.9702762540287466	6.2280352767176783
21.6599827751006266	17.4261786888951136	5.4793493971448752
19.7550779120349240	17.6779452071765562	5.2469522468383971
20.0715632650296598	17.9142086785735302	0.8264515530419805
19.8768846799669454	40.1088066372627097	8.1976821575690408
25.3926351689091412	17.4633087323031724	0.7916918482176654
21.9396912181341257	42.6387241083164739	7.9563528821849987
23.4991691314022653	37.9846441244333874	12.1644271709510079
21.7633132319797333	38.9505846183189846	8.2670624027858626
21.5234764524579418	42.3348230801341501	10.3368029493418572
18.9229507400138957	41.6430708812961754	7.7606523079016041
23.3819191109990534	39.9488850413812742	12.8457392100218151
20.1602392036125444	41.0494742220857631	11.2791645169517896
22.9363226486573630	0.5981137975742543	10.2381126724733651
21.4333226491884226	0.5869678597252532	12.0188181450699112
20.3580936994674921	37.7562339605618718	6.9117411873215051
19.4283222301364802	0.9285914564342641	10.7482805664016521
26.1988809405073262	17.9997758923961406	2.7494637241584292
23.8409326886022015	39.7245295152968154	7.8423183733797126
18.8684040420356745	40.4488387400459146	9.8476200176030844
24.4810585740394906	39.5398211323981243	11.1244664172334993
23.7335292644171325	41.1059923511285774	9.6598168997666338
19.1617786203283025	0.8774375117455948	8.7522099135226448
19.5134172216631256	38.0536066863197604	10.9357758533131797
20.8034723095652154	40.7874056004883982	9.3869783602995849
21.3527718892581468	37.7801161031220616	12.3789680880679995
32.2135598132672811	18.6970192805071385	4.2862224461309424
36.6251862328105133	15.1093201208327503	1.6133246639439458
32.6877181096259193	15.3017077570948370	5.8488256485982859
36.8912683346236250	16.0118674433750527	4.8965927208381723
25.0419834956746570	40.5753222408308858	9.1277660557900990
26.6243451550660666	39.1491639609026549	11.2400410519799063
27.9013341021157899	0.0729466538681365	7.1050817558599428
25.2443522108867420	42.5000442436473378	10.0053697484822486
29.3424334189189295	38.3637557885909786	8.6110795781516281
26.7349569187832756	39.8859008091335951	6.1184516554958819
27.6343763468991561	38.1586491423939833	7.0229369972162887
26.8830571001060008	41.8094797271734109	11.6814418221637073
29.0313631095658486	37.4631749437854396	10.5410416042709496
29.1364085791307836	42.1746454240968944	7.5858617068580312
28.0777383351991752	39.5299930127997996	9.8485464478428977
31.2611646562452421	0.9157174488383646	8.9678825196931005
28.8404921837749910	41.0718161359587270	11.5096562124364663
7.1779414481573349	19.6266595397543249	3.6802512185473040
25.1553452428952582	41.4500914947138597	12.9998229258616522
29.7603087056579128	40.0993769290636664	8.3749042909674500
29.5916261706497963	38.6788736431306006	6.7195125284364563
28.2868624351933882	12.6210313457953855	5.4466401839488761
29.3468470706044968	12.9928853226755265	2.7635114070796800
27.4376202549396773	14.7307287655154866	0.3050475805193663
25.8975872450305076	14.1247752543368890	42.9581758651352530
25.8249216507915520	12.2127851921128450	1.0796823749065727
24.2035026697251929	15.7944139339169052	42.6121904613450297
25.2272127582556998	15.4031391726813602	0.8842492228480278
29.2813525793467377	16.8582200871394612	3.4827497350376455
22.6657680924817484	32.9384747088497392	7.0735269876381937
29.2888573047650169	33.8212238936244773	8.7408038093845555
24.6405548995817476	36.6504681221998823	7.2990284504524094
29.7332735775906265	36.8210105608306861	9.1917755620062334
28.8900844261555747	31.9253884136355381	10.7042932647978652
20.8255926475933393	20.1751128296471158	0.7766134183813439
22.2127605621289455	35.0221230350835597	6.8967311254730079
24.1306533099410956	32.2722672334804699	11.4849138348890953
18.1600851371584575	34.6347101777345472	7.7530862447372089
23.9132910151223008	34.1311245273486392	11.7725285717430044
21.1343133262040972	33.6143299846565711	7.9016164993201317
23.8202214147148048	35.0393722264362992	7.9383325709605357
19.1339648182653264	32.2806815046418762	11.5161681444544204
26.5508539928968759	35.8191833149642633	12.4346548443936396
22.0776704533548767	31.1487706245130980	8.1125576308225344
19.4097348039630084	35.7579149208163685	7.3834575566885672
24.4901719691820077	32.0003630982349421	6.7048463845181674
24.5629967668135230	34.7290506663009566	10.0254989232379472
19.9341028191777703	36.0743832158410385	5.7529361814170299
23.5277833559724279	31.7765715283076702	8.6067284108715025
22.7006335304275346	31.4449111655579472	10.1385485370501716
20.7769709994244067	33.1133256356006598	10.0678698320117608
21.1789277506240197	31.8048890464297571	10.8582540969281869
28.5136518239388792	22.9957513021026365	4.3371263806108411
29.5361087123969241	23.3118664259384865	6.3522410745071314
27.3918086254204347	23.6548079817938408	0.0898905243507175
23.0533475954462581	25.0605401578224622	5.0967524884698969
26.4461549689194406	31.7336449950675430	10.0259115637344660
27.0285530585283311	31.9440269469830689	12.0212777381721008
28.4711531729296361	35.9547012403323976	12.8431352827910032
30.6278600976650601	35.2536067760865421	9.2237467850923345
28.4230732642995463	33.4349052532482673	7.2849575399286364
20.0610594952880845	23.5308735479238145	5.7041386919543466
21.2354680978397248	24.5604631753850455	4.5103814523308294
23.2704105704025572	24.6121070627493381	1.3543707343878257
22.6688640793705716	23.2132034830308775	4.0817638161489569
22.0700511011352809	21.3788095116543317	42.3513115542221144
19.9628339857300787	21.2068978897594853	2.3405982624802992
24.1789850715271548	23.9180569200524928	3.6370109002636761
24.4884821647872819	18.2810777616431039	3.2322733379715727
19.4876974849332072	22.0607273570197719	0.6867529849423584
20.3538595385719105	18.7454368121901247	42.4127825531682134
19.1539588479528291	20.3032880771284105	4.3139292008858119
22.6905545510292619	20.9978801997798783	1.0832079862694108
20.0851536415625738	24.0191356215198155	0.5268968207183359
21.1936256693054474	25.0988219871611804	6.4603310668864955
22.0367458374352410	23.0208097155819900	0.7761180658820496
24.1183515276992040	23.6893248324192527	5.6268492199824127
24.5291270682180809	23.5057805914602760	40.5265415597970886
19.3561943353909669	24.1427268881601975	1.9789303417255317
18.5511630372824747	17.6614123024794658	3.7224964824245630
22.0430091298918995	24.3883999833694425	2.4894906582526772
14.8071993221972047	34.8567394146053999	10.1001693328460380
28.1576286012773416	19.1738861109686702	42.7299173074888188
29.3814216802169312	18.7544083485091733	2.7207532151323051
27.6985550998142713	18.9313344718065188	1.6831002962938755
28.9813900680881069	20.4802401419714464	1.3571769180329354
30.0890260384510135	19.5751924046918191	0.0990001260226118
11.9212078029050907	36.9417866314146224	7.5867118696591715
16.6040515153280666	34.2385899453474636	9.1652874478725757
16.3716992290330161	36.1921207605832862	10.1672199283838189
17.5225694082683958	32.7338772783236678	8.4097808843237836
13.8518673327889204	35.3449791761801393	11.9358396424147024
13.8403644269916786	33.7375593486193068	10.8067016416208510
16.2216785987882659	31.9802034988843182	9.7978510738138951
27.7061422378594386	22.4680420689600027	1.5747150601530797
16.1818591622336179	35.7852984512636496	8.5646420081768184
17.0450181622098107	32.7832288194005272	11.6262254783443915
15.1756919983111143	33.7582257666399954	11.9153211550280815
15.2050430383100288	31.9130285825399191	11.6282243910889171
17.8434374720363849	37.1001872046844383	11.2195075071921941
17.0096157773327050	36.0693346626487070	12.1169640029704819
29.1180348179761239	21.3441755975860055	3.1035580684380828
29.1085495413961510	23.6425182506569236	0.9268399936972006
26.9104242737128132	23.7737069877244238	2.0288494743935850
25.6949894993716121	22.3841644317400608	2.8715970919707208
14.0762018241725499	36.1745289043706890	7.5891023305148355
15.1414691757736151	36.2031560949949665	13.0979728827973645
17.9699603286312346	36.1402416322547992	8.5838475767610039
23.9141874176386260	21.6801470237277378	2.9666503235603021
26.7461956130695739	24.8811617490048604	4.0027220450585039
30.4402541201424270	24.0012525744684240	2.1724100885558926
28.0499668680834091	19.1337585016404752	5.2333216053089000
21.7864109345356525	34.1054473813497481	13.7823921598748278
19.5028959443019971	34.2430543392295874	6.1908596165961063
22.4299381905727024	35.9675619681202292	8.9232437274175389
25.4489091798958214	32.6971189173741408	8.1856155190817219
22.9868103522705525	33.2176663033811224	10.6367920258734543
19.5499052740110599	33.7062372651039936	8.3184157000223546
20.8476843888504071	33.8585447025275954	6.1703322741878823
18.7560909616071569	30.4340449317713215	12.8963517859760231
27.3408942436411238	30.7315034779790572	7.1139696213473931
29.6345732948094636	21.6599526999433749	0.7119563627687284
25.4288671089898628	24.2983430491055614	0.6307639432458589
29.0730869952683726	20.7502755980612399	4.6622396872692660
27.5663734757341885	23.6441113588067715	5.8383215934354595
25.2165991028326140	24.4695764241530540	2.5180437882492233
28.5488366777340588	24.4847859333810725	2.6055156479340740
26.0733465946261411	19.7866365944566596	5.6909895873685530
30.6323232796642060	19.6557765180653199	3.3916086572613664
25.9654457016669760	19.2527294451709388	42.9826995107126351
26.6049147945120481	19.1698788339605173	3.7752984360495665
24.5278474947465348	22.1273446590925182	4.5082774447535181
32.1112565736516586	35.9859829681348131	8.0525955617953766
7.8944695744348632	25.2018357739238716	2.6613552001858252
6.6243616265565022	21.2103257793230817	4.7445766381068610
11.6201657838554624	20.6271959382819112	1.3723516424038014
10.2501677299577469	21.1640818098714512	2.9263501922001991
8.0785692636877560	21.7488321286901289	3.3486274883275389
8.5007817191454080	20.4066302756620424	4.2852605213957347
7.6576354580310664	19.5574734646065025	5.7673829502322276
6.3060754502835872	23.0229502354545126	2.7498249674730939
6.8808259026382492	22.8251139645575556	0.6913065532785896
5.7854283365534833	24.0743086233423931	0.7285362306638518
11.4848874996840848	20.6963690116186392	4.7918785058826057
32.4126848996651376	31.3586674305102306	11.0990414361199434
9.6122273203522415	19.6911101628797987	41.8773052711642180
31.3496345771236591	32.1488715287044045	6.8461508833166604
33.0477999604817967	34.5466396829513513	8.7118403356800904
35.0968702655039237	32.3799529762268108	9.2009761215074253
31.6737235366632497	32.8714889250394435	12.2197601329166723
35.5047846946498140	36.3966105737422723	8.3936784224973362
33.5894079163026902	33.4745970867460656	9.8582626215204758
34.0280972687124219	32.1013715568393394	6.3383348462804836
35.8033192235898383	32.5749492994879972	7.3174854327793648
34.9110634974851450	33.9561656603191366	11.8981648520154160
35.1103552279322528	34.2539010449881332	8.4204261666093689
32.5974026897493445	30.9336843761714491	7.4675143288861108
33.4019339041821439	33.6627774229454175	12.0413962070613376
0.1515693135154673	31.5251980659804545	9.8568462488940742
10.7071076832345007	21.8056491346641366	0.7131201639238954
7.7949079587254682	19.5637769150922729	0.2840965721715357
10.3883317105538122	20.0889598231159638	6.2796328820871024
37.9981943079551954	36.0223489200900318	11.3513186809860542
42.3833703419789245	30.7200952911148555	11.9165403406102293
41.8679783579402098	35.7046505257357936	11.4237152076677813
36.9943111396907938	32.1353190458851117	8.7430832201661399
39.0201861570637973	30.8835423216351792	10.8061297871202004
40.0267032505208178	35.3469097126598442	12.1600663549801098
40.5427907508255458	35.1254284495399105	6.1987084019978695
41.0045665599302183	31.3705481344400390	11.1733314527018646
36.2003926158212863	35.4733520680179524	11.7196420715952918
31.5119289261775393	35.2520651935147455	12.8881953168853993
0.5445070397773647	31.7434839979452370	12.9842850667334879
38.7864765899217190	33.2420881685545240	9.6864909222090727
40.4421062380793828	30.5907008526065383	8.3979161697152751
42.0413343994956747	32.2320284988033805	8.3396460784146367
42.3547425341164185	33.7268989862480240	10.3176608287833140
36.4984316877380763	32.0032608474700382	10.8444311691242810
40.0350474570385515	33.3109547549211271	11.5866260463518476
42.4339455624976196	35.0991965922646116	9.4209398599992902
42.8071516299939461	37.4095274077955793	9.7217301158893914
38.7951423462709073	34.4378707626943168	11.5306990699171887
10.7707829646574655	23.8908885086022948	4.1955375301412738
12.0780762506044912	22.0224893395908303	3.3556641714080979
31.7925435100457392	32.9693665245695939	10.0286230712887399
15.9849553143456387	24.5873641142855703	1.9153616562862781
14.3897141277499543	23.9463792567173996	4.6058921582588859
16.8692453037220638	23.1909416530833603	1.5664986829407699
16.3048897276187397	18.7300090711920504	7.0217959760130162
15.4691791020018155	19.9545647457281170	2.5535057058274764
17.6627611038235237	19.3206087612478363	5.2772604471638678
27.9576457238737071	34.1817623862129949	11.9124826912589601
26.0289707390354295	34.2403190600975549	11.1688081967611517
29.7183222347884417	35.8374411327057345	11.6841156963843478
29.1119705017518768	35.6863286991263067	7.6140373006522095
30.2320984071434857	33.4628619258424962	10.3145925066864912
28.9167522730695161	35.2750044255943251	10.1887049448598983
12.4386119554709609	19.6978818561283013	3.2095543286156318
29.5547134150344952	30.8557457488809135	7.0112217454482550
27.9843928276338758	37.2922037843497804	8.3661983449953485
27.7882793942376907	32.1043599863220805	8.7628676631153759
25.2336351831649779	34.4180256228635528	12.8189628674267535
25.2224292415806808	34.5369373761692700	6.4945393909105915
30.0332401244487173	32.5201121909629478	11.7710902050703154
26.9816596802903668	33.5497569097186741	8.7555242943145100
24.4981173604554385	36.4477660418667213	12.8868777050720897
26.7623808363888145	35.6511517859059381	10.7215261380148199
27.3704847909839231	35.4695134969956172	8.7981936806682199
29.8811303519377240	34.5113270707405277	6.4904413368223794
25.4367306220152294	34.6224577177436217	8.1331673504388213
14.0019404174215651	18.8102892572579456	3.3926048510334845
35.2064877569604064	37.4259131827386895	12.5198295733915916
32.4658595143098481	34.3212515403147549	6.6212452771034975
33.1307136153585020	31.4408409967012226	9.2681151095360406
36.6034054068727670	34.1033389947126651	10.9109122516078436
31.2691316189861510	31.7135656070531837	9.1194221122290546
34.9937716564666275	35.2756089824875332	9.6855205885787665
34.8777101420502760	30.7478659665173311	6.5946940298029171
32.9032274260914761	35.2180586824446920	11.0804874749423909
31.9241807029598483	33.0660117162386769	8.1706491765379301
33.9931327279140874	36.9557440465338161	10.2679899698554475
14.4535741242529028	20.0018394082699125	0.5828652815298432
14.0587830512189047	24.7216783732049592	0.9607230540978565
30.3206351440010522	23.8114955840907712	9.9313093755499988
13.9569425257377677	21.0808052009114064	3.5594347487389464
16.2763487550045411	23.4913648673153048	4.4334458495731459
17.3152513630101659	17.7801127776616319	5.3581399121526330
16.5623807211233718	21.0863916487136933	1.9230416491265645
12.6474625420242290	25.3973560815278212	4.3010838107251308
18.1163342065525583	23.1711138009141919	4.9930630998365793
16.8727508646168722	19.6673803527424980	0.3045493230213238
15.5887846328071813	22.5219495389466680	3.0646898826714346
17.6415637351933263	21.1719748812284756	0.6845727707231140
16.0859945466835050	25.4722040038272084	5.3887664475067831
12.5690429547967408	24.0048092476390558	3.4858470435439379
22.5201716739825990	38.9488743548217826	0.2891577169045425
20.7928543354884034	5.5905489356705731	7.9318719350540823
26.4181612172091320	8.2291099477031544	11.9660428787318303
18.9689290392342684	7.9798411336219601	7.6757065232984285
18.2360067393110263	12.3278239822404974	6.8997839053745151
22.6054837200481984	11.6004836740874975	9.9952455909754860
20.8286606657755300	8.7483046323177724	8.5540229527738028
20.8827374657050022	11.6257971505830628	10.3677283545724901
19.0781791917540708	9.0541058825735448	10.3856577743472318
25.2971888414937816	6.5618936392441132	7.5984350848082736
24.8900144631452100	11.1168431243525809	9.3650709078299510
20.2007065526570955	9.7581778631561278	11.8513318592879031
25.0111593304692157	7.7961713204565779	9.6687300012658479
21.2540833034070253	8.4878459532152597	10.3300435139437283
22.8969664095388694	8.7496010261283192	9.9669348755876488
19.9100933792252661	8.1255854915826742	11.4845591311600117
21.7543100970477532	8.7231292217569436	12.1031514489393679
24.0457012276437929	42.6376516196001987	6.5317433317070606
13.8666680965573743	7.4461075322026380	11.5863315059141474
14.0069949068821042	9.8215928468722034	10.5978379599062613
13.4007224297549890	8.4046212761338719	9.8012328219156899
17.9221130330854663	7.8119256200279805	5.7944676777423396
16.9739154017876963	9.6173473569189394	10.7392122631502449
16.2782795996422820	8.4757335042024593	11.6758141776537929
17.3647485602324352	9.1304107538905992	8.3568143668163231
27.0328562562961032	38.8398003731184431	2.4909614062179082
24.1950258912088465	38.4978629154821377	6.4898535694559794
19.9335969647816853	38.7095198474934179	42.3282679981736223
22.1519420766945849	38.8727901124429067	6.5357052997346869
23.6110070644184944	0.6391424908054539	3.2454664084565819
18.8039741923323689	0.3604277518698255	6.3158034057594064
22.2827201640585884	40.6976578096105754	1.2608662422175798
21.0335485446781334	41.3193184271256087	4.1640857002581866
19.5718147852249160	39.7753158481598987	1.1743898564407715
20.4670882339939197	39.9333755050059551	2.6160065633238605
22.7398610479084269	39.2362028008739756	2.0240036954185543
23.2743724212638483	36.7503399152046910	5.7580340239854424
18.5131571247971074	38.9246005856022492	6.1239371610592697
20.4149655421086962	41.5481015974974355	0.6757417169576996
31.3849704761284087	0.3483607520653640	7.2219225395953215
22.2670128748046565	37.3817394256338460	3.8111819859354603
24.2936834684906700	40.0744314669085568	0.5250099491291301
22.0774892266294849	41.8207816891961031	6.0277202496030231
21.0022745741358214	38.3370644469461084	2.1526529210496794
21.0530154628022395	41.2911403264532950	2.2150077149377392
19.0546877373788384	10.5701963808516233	8.2500916874890624
16.9448865906930415	10.9365747022568112	8.8151881276786739
20.2429606881754331	5.6421864639581294	10.0434183372179451
21.9891857615973798	10.3010029109910963	10.9574681577062218
19.9331311094283379	7.3592812466446960	5.7769438883264881
19.1014224322990991	5.7188559625234205	8.2363517733048237
20.7709561213225236	10.7351909441783420	9.0225263548091768
8.5934282550099610	9.4822818650417720	8.9002002726764928
28.0559878836899657	39.3840108998894110	5.2544755185482526
28.4124545316450785	41.4051947552935218	5.5353877269956264
30.6320634942055570	37.4598906290390516	3.7704930095604428
28.4494499177051736	37.3657996932883734	3.0754457928113039
27.8830437253748897	40.3114174284520459	3.1161623763689383
24.8095569983841600	38.4154498433441702	2.7006628883415305
11.3725882656336150	9.6516798716332044	7.8862767124068887
9.5437587053085764	8.5796912179139504	10.9418440561807202
7.0689269062730977	8.2289642673867487	8.7800408035866262
6.9907398537689893	11.6749379567743787	10.1185106578705284
10.8047260248333608	11.2925313165803054	8.9764711823853762
7.0148866335655953	11.9611734948904402	11.7648559969906987
27.0236678281067988	37.0276068333708750	1.7444177948451802
11.6053522520423833	9.4304152779179251	10.4766441567209707
11.9160410208293612	7.5739494618980805	10.5637005362904706
7.3158509318568887	8.2747308189630431	11.0231665658616684
6.2645053067473908	10.0308618720841149	6.4522486742962446
9.6276546247800194	10.2315401884221870	10.0359910959124239
7.9260311028037371	9.2454468835377899	6.9467292709029023
10.3598746075152093	7.6335321459542245	7.4599135272286050
10.5199927443895191	11.2989958695263724	11.0187936320623443
10.3195469477247137	8.2422291098105500	9.6325357940090708
8.4300419339413999	11.6927051295804389	8.8469366545996007
6.5541393837331245	6.6049047595408235	6.8130502166465572
10.3036597968280610	10.0378980423877557	12.0835045743990666
19.8208509417780547	7.3656466795439783	9.5923709421146537
29.2030192897776573	42.0906391813850718	3.5278713334495242
30.3355438279063918	42.4521745058048836	1.9526270423555085
29.9656771002361353	38.5295970584775773	2.6569035174459459
29.0425442645693863	37.9120161735593229	4.8442038580761846
29.3541920235888263	40.0558816012808947	4.0200124219322024
29.8681282203644543	40.1334849104795452	2.0672985214465922
16.7102871730478419	6.9859093412868765	9.3401368905965718
16.9934219998731848	7.3940744612985405	13.2320487796167221
16.0119359356830202	8.4679430277233472	6.9181512217679568
12.5809057325818348	12.6477352949795172	9.1522954710313904
15.3059304280922799	7.9549064004660304	10.3485019410372878
15.7343990175270587	9.3349111219733736	9.5680954911851277
25.9758646566535560	11.3004591200911459	7.3288004978018586
11.7708492204112076	11.3627875791490549	7.5000141796144595
13.6911355203801506	6.3276844252830458	6.0006200458974330
14.3150893077493802	8.6442306056342524	7.9788092331936493
15.8162568688282619	10.6568136188706326	11.1974386137759740
16.3777787155001668	12.3061534786899784	7.9846225622284779
13.5028207707254087	10.3229340244084078	7.0757091596716846
14.7830136907833936	7.1942317368513695	8.4633605577102173
15.5830520999585342	10.0437546466360885	7.6365330652904628
16.1492507345869853	12.4962342622272349	10.8723372506394806
25.6203189172945720	42.4350967249456019	3.4534303541895457
27.8963002161585898	40.6812597270716196	1.4486912425124299
36.2208635978221807	9.9409049890031262	7.3003585065193199
8.1629418841561190	39.1148767047333195	2.7257728652094113
7.9126487085635224	0.2478704743487732	4.0556522963905195
9.0182914024823777	37.2938271433481887	3.0469594825668973
6.6256040265194960	42.3131685033037783	2.1773521418370114
7.4731999735777617	42.5608218594712966	6.0091576587732387
9.7826378633487927	42.1498092198030960	3.4496613884658243
34.2965001434219943	6.8404995703044804	12.2940319884169575
36.9273006687836158	11.5221768287623796	8.8355271248692464
31.0741012437962247	5.7163697590961240	7.5392372372534027
32.3854476540316583	11.0658916809419949	7.1291069503820683
35.1652335077734861	11.0877696722153800	12.8271782316029412
32.9833265904832444	7.5377345582159245	11.4485892387889727
32.0235811181936896	10.3932503152290483	10.4831232903645724
34.9442399560883956	7.0933353956733551	8.4408459892588787
34.3658425523007054	6.5668373382139213	10.4075272761946103
31.0756252312584209	7.6877870764152032	7.5929587713617490
35.0045767274613624	8.0699593689500251	10.5060435493633335
33.3449517031464424	7.6617778042612459	7.1103039944388673
31.5522311780328657	6.8791658730308560	6.1756381738482045
34.2346267446184385	10.8823324356768616	10.8711269895887384
30.7768030659763312	12.1739303699880637	10.6826356422628557
33.0302825746926771	12.6586671544217086	6.9960908147994365
30.6754049548884176	9.5509923440119113	8.8570063124671474
18.9545923564080248	40.7505542754746415	42.6982795684692888
18.8573985780237940	42.3400264481451671	4.3602874038705242
11.6123545350106117	38.7238897480894835	6.1305826986381167
39.5080591595676225	7.6854503496484021	8.0248251696262773
41.7172788471553062	10.2316675312803600	13.2236279812671267
37.8962433725431467	12.1527723345395664	10.8229652560303489
39.8346666177677378	9.6914185907988468	12.7359012554365627
0.2851343978970147	6.6556964996347290	12.9673349779893066
10.2703449536281077	41.3458993766432101	1.6672688190910598
8.6822690574766455	41.5099146543959208	42.6922008207095729
11.1988144984700781	40.0415871862843531	0.7562411898562513
8.5764764885948335	37.8068194349147007	4.8791040706361049
6.8354662995903626	38.1570299554995458	3.7884900108592707
7.7074530354663331	41.7626090424148515	3.2953407571040945
10.1551634584364958	38.8905947583171283	3.1268913258491779
14.5977509965153978	39.3831489442990375	0.9523230180984041
5.9162718226679880	39.1008232123083488	5.6691721594512980
9.9110468701031351	0.2267805665433469	1.3560334574453907
11.7823217844929680	42.6215270700460778	1.0693460283819833
9.0674173021818198	39.8898035624043246	0.5810837074527713
11.3267170701199031	42.4540877767839362	5.0384369258191519
10.6039503963506689	40.5507021551923117	5.8890156330976380
11.1445402771668451	37.2816335707096087	2.6662616081719270
9.0526199284328506	41.6255763324530434	5.1167325083817774
7.4479874550356104	40.5017766220376032	1.3784649025552655
7.4383211885237657	36.9749400922219991	2.5931769978507320
4.6857261167292767	42.3276756801511524	0.8608175583386098
34.6910156162700432	8.4602981121328202	6.6365373666326706
29.4627763461775380	10.0425943052985680	7.2709856171948566
15.5184894145387346	0.2364161456675034	4.5687225963009492
12.9126055139509326	40.4191612774366078	2.2143792191040501
17.2088511887773556	0.4052316776052260	0.9962698708912254
15.4748353054577326	38.1199111778257276	1.7353697595002913
18.0256979268571840	40.8468871210851390	2.7890324162497793
27.0471576524243531	8.7319140450019432	9.6509244352650452
29.3342271756163591	6.7413653295907308	6.7332846999611986
25.8625691563764342	10.2899482716080080	11.4317550625168849
25.7833789475390986	11.2782869956874379	13.2782106449172996
30.3551899612694562	9.3805419020222942	10.8733847936416765
26.3872574473521020	8.2885934050771066	8.1005034859187113
26.1711707582505682	7.6133274240771405	6.3223220447879829
16.3967075396687285	39.3594652031895862	6.7843115146196684
29.4746915400062655	10.7605646857956589	11.6707312379988046
28.5253753005859316	6.2678168715339133	8.6603453678036360
25.2074021339575260	9.2145466145285653	10.2649745095384493
27.7235231007687801	10.3969035515191539	6.3958188380017518
28.6926648409770202	7.8376330840104300	10.3166968806986716
26.4883862947766602	10.5613522270138045	9.4303433523249609
28.1823096026082283	7.9736765153986893	7.5980818956112373
29.0954356712766788	8.9268259932247247	6.1211595291697645
25.8639611293406126	9.6205297211083316	6.1583763180384743
20.6288331790672466	41.2713369632590101	6.5720811262896248
25.9887961306159845	40.6383930640471718	2.1118232869680935
28.6015131278821961	11.8894674701402678	10.4235451485994535
14.8642856377482584	39.9104846548114551	2.5439161988603955
12.0789225291286861	37.3516869502840620	4.3474467643774348
11.7469715563913439	39.4881470576741833	4.6361760422804590
12.8284332172275057	40.4466825493972593	6.5201111995835479
18.5910584638004188	38.6733912306983427	2.0679902573584275
13.0700794184211375	41.7552002741969659	3.6367721903666905
12.8768470604800545	0.1703055188267201	2.5227068512304012
14.1503507837269193	36.6328892575266920	1.1362274145911919
16.1686185196021661	1.0100287750522576	42.8697921481294983
16.7852540633255849	39.9553146550421161	2.0224075414515186
16.9131274061755938	37.1101483816896121	2.7349245882814319
15.9769637048338726	41.3701498530854010	3.4513753830549754
18.5033073832231878	36.8762203906283546	3.9583955661205845
10.0547520727501976	6.8580475518089132	11.6348568027220072
16.7649123898099042	41.7434731734839559	42.8533806380162829
28.1531710680394944	9.4262770028320464	10.7603088309946937
28.8672847011076250	11.1427430566294738	8.3842358642289749
28.5539557080979023	9.3203590238560192	8.5075929247803135
17.2221845939130134	38.4667123941107221	41.8637546324590133
11.4539401293910483	40.5113440260450233	2.9665763113850727
13.1567361245695391	37.4937558985809005	2.0762215963442539
13.5794104172598793	39.5485064716079791	42.0820787199620483
17.2305682091263073	42.3696999850289231	2.9483826566497799
11.8270457266167011	38.8225283403159267	1.5593975606704169
17.2174278065848512	37.5712920243512229	0.6701901786940139
21.7281636962188500	4.9352667598110314	11.5638471674271290
25.5199767173246421	5.4439840715455530	12.4238163994938997
26.6357027078574120	1.5111893203012650	6.4225357170566513
26.8319460578455171	4.4740628245272180	9.1057755648049330
1.0641081342780541	1.1424563581722522	10.2160239296806026
5.3964489251327743	42.1824789864632592	6.8797904650755326
42.6011459144733848	1.0259290334607496	11.3616540783063105
3.8497583298785880	6.4407500838623761	11.7199335247991634
5.8333552229231183	5.2446742063655023	8.3421931803799705
18.8361764115096584	2.6835153296392118	9.7689294139393805
22.6192336611154481	2.5806452826708108	5.8758947752535118
22.5839656687800669	2.4166873903228390	9.6277891803390219
19.2117376631995960	4.0162097155478991	10.5062761397303834
26.6438893274524773	6.2908856352190652	10.0001060293675792
20.7405950374182737	3.9057727550488361	7.4066202202075573
21.6438342219107831	4.4766347267341908	9.5690344578826725
6.2996670270494226	6.5775278244594526	9.3319644311479042
10.8383485869812120	5.4693694137342428	6.8757309726054254
8.9878374444942875	3.1365380286305760	8.1072144491032034
9.3356454094191808	2.4649074958177910	11.3511154952524258
11.6131807276491497	3.5451592435710921	6.0141630398641004
10.3106944072036271	4.4443258482623360	11.7854798971273205
21.0787636795178486	1.7664416474896774	13.5210296395067378
21.2960002181138321	6.4721874284751948	11.0736707320212844
18.6620583723253652	4.9421824682863180	11.6816459167757554
24.4972146305488607	1.4310188166038431	9.0017700346472012
30.6355537547507915	4.0063517410028151	13.3190551383998148
28.0146856195377758	0.6878514764129371	9.2196190636047213
27.8892447172648410	2.8229675219794852	6.5868325126407123
27.1425364853775335	3.0301048966622668	8.0968579900314239
23.6487290969909445	5.6932137492587742	11.9922114499912347
26.2696746371243002	0.3772833087296562	8.3392025014388977
29.2322381199290646	1.3615748017682161	8.4101895608141835
29.5260263945846653	2.5298259705436434	11.9466202205025933
28.4416184575817539	2.8897324420052755	9.9057246230215572
27.3342406303024781	4.8186482650200251	10.5671540699826156
25.1989722703847363	5.6409614043140266	10.3696182806955939
27.2575436173465206	6.1994542905772354	7.5502675468627185
29.9361536618148669	3.8673767961727186	11.2233582414707982
21.2809679620552430	1.5916210462083586	8.0137895142355369
4.5522708394208422	1.2676553333780176	11.0442275229471267
3.8075977956179359	1.2750965432725592	8.7539956818666571
3.3060557820483325	0.3679952620739801	10.5607308060257168
5.0825289885367280	3.0327586692886208	12.3874420513600523
1.6224086244230882	2.8046888075614391	6.4217576061999724
0.6218806600481952	5.0031427567730757	6.7363968478905809
1.9897115686680449	0.2382563617868298	9.1688074165821316
0.7945131338475736	5.2796083964956173	9.0179952627425521
3.3202615917791740	42.0089887577965726	6.7344896292130443
25.3984452717074980	3.0898352005756204	7.8114009267021993
28.3995531142734805	4.6168534828782306	7.8926915238736095
25.9373722366900488	2.9314221984521796	6.0139536620357585
17.0922837497796998	2.3146086950572329	13.7297755242548636
13.1998365177666059	2.7947810118890191	10.0280388025021860
12.6920512751162100	1.4290823501639538	14.1952591982298522
15.1565615073356152	6.5275438149044973	12.1210142305954047
11.3569448135645104	1.2821688351290410	6.1251316798854551
15.1014675066230524	3.5630927135064652	10.2322570385213361
16.7599106707063115	6.0293988970783632	11.0313857129438091
14.6208850628132367	2.4323853483490572	7.6096069948325047
17.0160532955454897	4.6822665894662814	12.5510293928078465
17.8339279901862007	2.2499748664693389	8.0652173077687657
12.8758895092992756	3.2483074621485382	7.9495833094462141
13.3976157381248662	5.8240197690906781	7.8232267825160999
14.2193022628750771	1.0716522597223241	9.3425652767643381
15.9137055707088635	0.2895391004666064	10.4912308921773185
15.8814852787424190	1.5865433815491996	9.3040674295432240
16.5831752292815935	3.8070625012344110	6.6938711371776991
13.3308205082070508	1.3795068161035715	6.9163009864925726
15.4435450114767630	5.1305311237103819	10.1874557772078340
17.9360466757142767	2.8629417179655978	6.2142489932811555
14.4326914530533461	1.7282851788583173	11.1858347157151208
18.2181493315019694	3.4444845185668100	12.5616961412063901
16.9651773676626831	3.1680796766602328	9.9230899236771837
17.3415555462067665	4.7466549708500638	10.2693828401699907
14.8673759463496218	4.5072556978135143	8.2152681557497189
14.5056022898569221	2.7104401532271840	13.1309207476957681
14.1110535529696808	3.2047237032013483	6.2368459224500343
7.2852113345060809	1.9006958700709224	8.2295112846040190
23.2799455523191376	1.0983218254059228	7.4181094341686036
23.5486800529747953	5.1674880779626493	7.8018071282033032
20.5938187608509224	0.2309453187314751	8.9808825927882889
19.5484727270313563	2.0435775984707814	7.6367693983881884
22.4423110865807907	3.5613385565484412	11.2397301529386571
20.6780796701622691	2.8563016368642282	9.0080845681351462
6.3470588341565035	4.3361138997907389	11.7851321998981131
10.1241741331646313	4.4580493591969024	9.6279271079656432
12.3299705881296564	1.9868795499286946	8.8278377042288305
8.6638867356327225	1.0150052751488023	10.4559071600788318
8.0135243744072113	3.1861828579472977	6.6134960682126192
10.5824984411482355	42.7237053382500349	6.6923582415855520
29.2016504680743232	3.8994611849648830	6.5879604194143706
11.0777877945810896	0.0578651043755185	8.6363869439462384
10.8628326062029270	1.1776643957102642	10.4785482481078187
12.1657883456982923	5.1133142199569317	6.0725321874467211
6.2585144886360968	3.7768818436305787	9.8692829475573500
7.2161241887939855	5.0652805183122496	10.0179897177266461
7.5405141811553724	1.6674771337094301	5.3278716688805003
9.9605015965126942	1.2930379830028420	7.6706885200268378
15.3027082055081305	5.5040243642297684	6.9986911451907377
17.3653441142930056	1.5350507039987862	10.0674519947523038
15.2523612591190822	1.3009368300324657	13.2565890543465521
16.3279605240749532	2.4130220821310346	11.8539988216124925
41.1349758095632083	37.8664025924503136	4.0549361631398488
32.5174330831380516	42.4618607095190796	1.0774640127901727
33.4138966782614659	40.4357703580700871	4.5850186830615174
37.3605990429244343	41.3984285286456597	3.1352241698407988
37.0744140200596988	36.9930192958316653	42.7364110513069164
2.9146272856262745	6.1388592708802694	7.2706062554780377
2.1933941815941496	7.1268410648147098	12.1770461309572422
0.2346571920034443	9.8395607848602644	9.5431641634955042
5.9670125989786849	12.7658059761510589	6.5903180799926089
2.7759590759869091	6.4269235624697592	9.4125945905327200
39.7055238624781168	41.0877209157310688	1.0778768818142213
0.6672409445752546	41.5562138816062685	5.0630237760098362
37.5416273681571511	39.2029663220541309	6.2607510840364595
31.6745193947740553	39.0426427318847971	2.7272959342594056
41.8393628138812304	40.3535426048336703	4.6515496753948504
38.5458584439612011	38.6345547834847238	1.8743180672845252
41.3234944169184004	38.9564956532164857	6.0027102399536174
38.0484882520505039	37.4125539003111882	6.0402862265466295
36.1599511023920144	38.1361897285427460	1.2944396294803298
39.2658306433962494	42.7011261910206557	6.0177101623791875
37.4214062389035149	37.1433277836813431	2.5142300370334563
42.4564394454826726	3.7654989061372492	9.1944250714132423
40.3365687765971899	4.4130963870191691	11.5257913259745326
40.9171997870722706	42.7496194095952262	11.3593301505462616
38.4849107767653180	1.0449480980211185	11.7759181930630401
41.9358495769853121	5.5257959240222343	10.1341187863747404
4.1344767893270209	9.7625903762196007	9.5649993484033917
35.1111930649379431	39.2781093220192972	4.1634019546311478
32.7756822907820364	39.3105521759600762	0.8001312085881993
34.1662333037161332	38.0974004425798043	0.8792928880218887
1.2330994332811482	6.5491101276460437	8.3064557742029805
4.4783371614475520	6.1742469074146102	10.1534740712450731
2.0388693710249215	11.3895367593326107	9.1786895039394203
5.8317678080146367	9.1897168693638989	10.0671160000016560
4.8964012246794359	9.7101945898839848	8.0902974939080856
1.1665264961841288	8.0107182719594210	8.9848241377847575
4.6597121959561161	11.2521357721704547	7.6056150133044156
6.1930045238966054	6.6792572315927359	11.2580025688985064
4.4638217346609750	9.4202955262652459	11.5536533677062909
40.9359504905403710	0.6161600041255297	6.2208524172222122
0.2914612000138685	11.7681115921120991	9.2764352360864066
3.4089836334267751	13.3516502285435568	8.7958031197123638
3.4116786761239641	8.0200560497417435	10.8579026270221686
36.8195222589345690	39.3624543881915940	2.5416232618300190
37.0567008912395934	41.3214580950437451	5.7180621059230852
33.2368707266268544	39.6007073656929549	6.2074411906667271
32.1061111568353894	40.7480614980442652	1.6425335849753271
33.6906615230945832	41.6866091749759065	6.0755622854549030
34.8879930252214692	40.2175837525580135	2.7688976047590845
34.9336407209938429	38.1781092009005292	2.9814839914351894
33.9014348850184248	38.1425889994054472	5.2545673429428703
31.4016540140996447	36.7931868951421635	2.3480389348731308
36.4739928977564247	1.5075120339710804	7.1706471164177108
41.1248487364369524	2.7130822922638749	7.1735372689057915
42.1970313554235901	4.9075888884728913	11.9961351362425308
34.9852043139097475	4.6395724080509586	11.5807575550764685
35.5950993319463436	0.5270640497058813	8.4675210288017926
32.2953052796768105	5.1058418103985099	8.5201482624924747
32.0588559037710610	3.8319882219697035	10.6676246526595850
31.2349537983276200	42.8967428060723748	10.3503194681923691
37.2781804380509101	2.8533381000596405	6.8229065724293028
32.5693982347027031	3.7903756584146953	12.4189925572585196
33.3383656147178584	4.9053294224693911	10.3195379766814579
32.5160885786555269	1.4637757056365666	7.2496098676670266
33.2441581023993322	2.3307859564081688	11.7242523970362758
0.3155488547939495	2.7757228253110418	8.1410606773761405
31.2584979941378229	4.9685167846584735	9.7710819103744004
31.2840264222013040	1.8968531760221992	11.0769762489830885
3.8445214047639555	1.1971405030091060	12.5819159480569169
2.9833637456204012	4.4736347081198051	10.4875955873539315
1.6759176542553071	1.4206087550549522	8.0974137161109994
4.1825526532304949	4.5190353457942161	11.9586587305827727
4.1307222499500815	0.8517161498154677	6.8994338981593284
1.4466642278728090	0.4469089396527469	12.0085149203899082
4.2104140285441272	5.2995395885848025	8.8040650685598738
24.5875252991873907	2.1510206514805081	6.7503210214045248
30.5499885028682208	2.0372072783835575	7.1280965304209900
29.6217625493922334	0.9609429607817601	12.4928425164307271
40.3491551611994623	3.7028641743714030	9.5730642342796592
39.3455208702046590	3.0962535899120160	10.9126199478230479
40.0169386961267506	5.6437948839070415	8.8101747757916531
42.4870815650916995	42.2965021176335441	11.8703823579500529
41.1566640206118137	3.7319448250201739	13.0838557346814053
38.6821445032369979	1.9806346346913222	9.9549870272514074
38.5710510250772458	1.7067193451565243	7.0908126831861216
41.5943159635834832	3.5485837075322748	11.1152247572183764
39.4571013612448027	0.8151322978372925	13.4442545699555751
41.6222958286568172	4.3666555107097862	7.4956005150081779
38.9389881265800923	5.1499794662058092	10.4626072095716509
37.5241996216980738	42.8510270795951627	11.1486149425408971
37.0467610041818389	2.1525747153572503	11.1380289856648265
41.6566839085058689	11.9425942706339399	7.6404206211994312
0.8745983711708475	1.8851365231587236	12.5237112850636780
40.0682820845890362	39.2515893426180114	4.5206896493209472
40.8403189960605744	42.6732803750218750	2.2677686637529519
39.8279556757829596	40.5323072115154588	5.4734887916732502
37.9539777623787060	40.0000896935011738	4.3428749610811295
39.9957465609053386	37.0479114185707488	4.9423401096727808
37.3083770922692892	38.8042164085943000	0.4307726104541310
39.2436109501815622	41.1463222370628543	2.6187291642663797
40.3698162066479043	38.1366970217052028	2.5450634855783454
42.2481007127807828	2.2515365502087832	9.7426076610990719
37.3572400443884618	1.7141039856276212	8.9243389870225904
2.9412656170237232	22.2089543923371977	7.3513806536174062
5.1965380956585117	21.4999417933546120	11.4649336785205751
0.3271875917109042	23.3075350204860641	6.7067366973196165
6.3249554694400389	21.2344748971435919	8.1081325337577468
0.9616095528196307	19.3938632277776257	8.0595264793872126
2.3524495256748099	20.3599151473801960	7.9243360003802596
4.9937491238233056	20.0158762833994039	9.0106055636075055
3.5418660824588701	20.2734939741002762	12.3361124320653275
3.7464414722932746	23.4767269935216980	10.8660219851489952
5.0212859596581856	22.5266386238685214	7.2138708484890097
4.1298293382130469	22.4702909491600131	12.2498637283135015
2.2250157752132709	22.2983834325642682	12.3070335726793711
1.1982911000991141	21.3936068017232763	6.2169790847561286
6.8799721166407997	23.7521904038416558	6.1077629519625862
3.1396884708491757	18.8971081792772964	8.7763595453765788
0.7244824822788144	22.2853333154080708	9.8678835024293043
1.4610101563473770	19.6526695295130089	12.5075007722199185
5.7617791284000601	23.2922551373822557	10.6436969254436509
3.9643535351747379	20.4608242557584248	7.3334360040230129
1.6183243664627804	19.7018386621616202	6.5066418927303191
14.7550304426144461	31.6557554401118608	3.6485652366267036
18.3303074283691600	35.4671408392758423	4.8549982445650262
39.9911702047738160	16.8919480219636995	7.8913556373589380
39.4080731129014197	14.4471385435125175	9.6520151966707584
41.0034319381687595	13.8191852106693620	6.5789884460331498
41.5149218989957802	16.5092417745624296	6.5583098093361718
11.2427650388848885	31.7939451511179243	1.7611537692220045
7.7765002298262837	22.2516259239355527	9.6200854070347059
7.2554222178752505	21.5374134117686076	6.5592830080712083
6.1804842564596036	19.6808967554259908	10.5255599080112621
9.2878428728203648	22.9595246233823183	11.1365514684225051
11.8661878378197443	33.3417259840535820	3.2112539481358144
9.3873234246740953	34.6263731828808687	0.5859445864781735
7.3535331113250511	34.2380635315428350	3.7739276418896694
9.1526427293562929	30.8679310617997658	3.9701933193638661
10.8089796544148466	31.2665376208414472	4.5979062779213145
11.0393126826759413	34.5702234233167971	4.0563270936341054
11.2165571822282502	30.4386515549871923	6.0988377433297805
5.9109578898465580	31.1302872331013631	4.9919854308599536
41.9499390584305019	14.7021565572906816	12.6656169890319159
8.0139692310749577	32.3721678464099156	3.6727193486184810
9.5556726201582212	35.4653842376284345	5.8070251557351318
8.9078491553330821	35.2389252434628020	2.7299316053352296
7.9659033543280380	36.0004613788124246	42.7812565492715251
12.9043054463107971	31.0145264025069665	3.8036899218459066
10.2610361813548003	36.3954735043508180	4.3312982207287556
8.7620308142470336	35.9714291280624821	1.2482136946219904
9.1322076802112200	31.9975182420394475	1.7961753922302475
8.6059371891607199	34.2003783240032391	4.7368591508968265
12.5042976306949232	33.1121329532600868	0.6122445054435325
10.6632933617666001	33.7128880905667430	1.8910733663004335
9.9055325492749606	32.7017323878666843	3.0569539704284083
35.4646103896101010	17.8636519322813037	6.8597795945962918
16.4080391211332994	30.4895405474324832	4.5878278174069953
15.5061274104525442	34.0772618618908609	3.8358596753859553
13.6373770266213903	33.3774009381914354	6.0562683312977992
18.1465693559609385	33.0672428632432656	2.5713328044504027
14.6361170231081221	34.5553114376803023	1.6712938560332746
14.8648411515820538	35.3562392178396152	0.2503092157222234
36.0932464681511860	15.9022749328062023	7.9476626371660126
31.4706470897102832	17.3121263168384338	11.9725381646568110
37.3590529102635855	14.9892327678208144	6.6212598364534063
32.9417179765217298	15.8492735254828592	10.0739858656510979
30.8786495317092893	12.2075690902100771	7.1986573060364334
32.4774038852900375	17.9647104103851696	10.3876003533790549
17.4522820612670095	30.2109458022232005	0.2761375897496833
36.3713346055679949	13.2547362680777052	10.1204254532178037
32.6687992890814485	11.2903100240001368	11.6691613198296498
31.5677671548810572	14.0361605006642733	9.7849522720367652
34.2332054952436238	15.6941761700178120	7.3893998176605864
31.1327101479018609	19.5853126066548135	6.7794199074003743
34.2651547497787519	12.5514447563978937	10.7414891675462219
31.6749751259553811	13.9826790095785256	7.4320915369190228
35.1215872540057461	15.5832800239471574	9.2392928262477909
33.5620802241277190	11.7125666252132241	8.9078940914603724
35.9302203310524462	13.1843381075470969	6.9499986821323212
36.0676389663178298	12.6791239317725761	11.6344336427880357
33.4042660403343845	16.7515670378283943	8.8593834634883670
13.0474310450538429	31.8847680530758346	2.0855760807690205
39.8950766357571922	15.3753103273602250	6.4202154394991000
39.0907797684071241	15.5650994769500031	11.1885877670383067
37.5049248268691571	14.0820792258942458	11.8533172340810413
38.0951408252320149	16.3223396853089433	7.0003224856003872
38.7125003227725131	15.6839180928963042	12.7526850259118945
42.4278390126190601	15.3369534550087749	9.5639511687043726
39.9213005920804846	18.6691189535794138	9.3879272356181769
40.5039688091388044	14.9767590204924250	11.7135477542038569
37.3940527123309963	15.5039514104427081	8.9087749180277633
13.3969944456471328	34.6356639707575908	4.2114600004055047
17.8230053529893375	35.2144345860685206	0.5548442810434564
15.0675019372861083	35.5621532625146202	2.9928031721354400
8.9691463912958653	24.4022549738871533	7.5409575166592431
16.1547185191097888	36.1172906789749248	1.6599617676479170
12.8093432399683529	36.0291990391504129	0.3275832671490245
15.3246625708021291	33.8737934380808028	42.7759158084941831
17.5769975612689571	32.3351898474375545	0.7151930267825044
17.2713536868752584	35.2900748086363834	2.7538569365843197
17.6955227724681095	33.5618625637163390	4.2894406804628256
38.0619552744842977	13.6539467216437771	9.2035552881351990
42.6068773718098868	16.5642795478585398	10.6367120091592700
39.7308202221061890	12.4188519997421096	10.1436944574664984
41.1975831737027889	16.9983422187976991	8.9143262853759389
41.8888616770784807	13.2940313848316958	8.5789758893266654
19.9451778280917189	23.6898965838901425	7.6998302235167033
36.9522815565143858	26.7928318863836381	1.0252581017109523
37.5334317612287691	28.8470463587361792	0.8097375883825519
38.7832941884164697	27.7439780916516057	0.2092027776752221
39.6345212824105886	28.7821591565733534	3.2819289587391474
21.0996590256841010	17.2572622342939503	10.3380408140506006
22.6059085947216616	19.7989442030670624	7.4539053613438799
21.0121029981115619	18.6766942381867374	6.8885589471811599
22.7732088913232609	18.7094810200373942	10.6696395630265926
22.8148239442543748	17.7399883917007379	6.9520941909675624
19.6456255641425024	21.6941245103675016	6.4832222614538404
23.7447419140154494	19.6131355902144406	9.0710099362375978
19.6046882823334485	20.0430419041596082	7.8292718568016708
38.8626972005265543	27.0070425127661480	2.0426559957825514
22.9860817469398633	23.3693396339172885	10.6552757335660200
19.7035609583872109	20.2153313424320373	11.0588675588012624
20.8803447401396483	23.9546162275878238	10.7006180039828607
19.1531669665291950	24.1986252617702817	9.7284717230385471
19.3907447543578542	22.5002408178423501	10.9669307248042855
22.7613933806672222	24.5847080689996176	9.5768794086262954
18.3168228577614727	23.0474336801443940	8.9699813428819262
21.4413657349226341	19.4248428082167202	9.6593456070706054
5.5913586696072688	33.2853944217746829	3.9333736855963402
2.6810663356620350	32.8085650364065415	1.7620355661664373
5.6128200630265592	36.2446902793563908	4.1593295041534697
2.1577019245840527	30.2809843784615111	1.6680494319917978
38.4945550042868661	28.8099342632118685	42.0072710887854086
28.1192409019247584	22.4824829404917104	7.4470028520165377
26.7003765438079448	23.2803046709572747	8.0795735650075198
25.7349864394053860	18.4081732177556354	9.2456375828900050
25.9615636137676233	19.9111141966399892	9.7527273548065754
26.9115788359341828	21.3965622760305720	11.1688859670463643
28.2684756758241988	20.5373367673399585	7.9604400747436319
38.5606610164687993	28.9389461369678322	5.3722072949720250
39.9512466046162515	27.7775163171264516	6.2835433191822352
40.9674524384288645	25.3544645425541368	4.7158498104377360
42.9745751385058696	25.1248832463598468	1.7114852590771150
41.4077657765797085	29.8768829976859003	5.8603392920389563
41.9789286699398829	27.9366146523943222	4.5643213177642021
2.1219989358143398	33.6561793383415448	0.1109862666566010
37.1506897748318963	26.0311491336811969	2.4597138533843239
38.8788348740980396	25.7831916761906541	5.1559318236844458
24.7046256979189884	20.2958290235097927	7.3912780406267640
29.7708979344026758	23.5245083873344285	7.9650939883926801
37.7833609454013484	29.3017499670539259	2.7703321948676183
39.3534084612501260	29.0612031770193369	1.2141306662954741
40.9958840296228360	24.9960427621746000	0.6536713808183934
36.9833382896203489	26.8826882596216095	4.8905093117154399
42.8209191466930008	28.5432100743691883	6.1099868376926336
38.5399598076415089	27.5109037528187024	3.8595043789908465
41.8821864990384896	26.3329705616857517	3.1348044998839697
37.6226625184493386	24.1343541345924351	2.5092308991526826
2.3449918599706736	35.9833261208543789	1.2886482188579544
0.4684204188927285	35.2240505059094744	0.4305232819779255
3.4439046111750877	32.8099763873319787	3.8422728625362135
42.8032366112195319	36.1093717234269320	3.9256955642113165
14.3097787744495903	20.6337895827024447	8.2432509324283032
17.8515823811079102	19.6227308581426456	11.7290257636735102
16.4748513682309650	23.1043025000720554	11.2211032858175344
12.3852387460914599	21.3356630899276603	8.4767641663635214
12.9527952304527343	21.3437447910860350	6.6530526956179896
12.7934888740837813	22.1573832886156872	10.5461303159677762
14.7206617477797082	21.5619591888873146	10.9721368905766692
12.3072011281025357	18.8321850291435240	5.3394312487622013
15.6094808364935673	24.4108296061928201	11.8530637621736741
1.2430542007542649	31.9288609015466420	1.2025369301133810
10.7479415492222881	21.5101970091757870	9.1236027065020853
8.6544503756873929	21.2244855414650822	12.2369425390242803
7.9759035220043701	22.5706213475765942	7.5174760762326391
7.8673434260185395	20.9810580424344764	8.3849753236016298
10.8113143466805113	19.9813226498754375	8.6154868162628429
9.4290804882916568	23.0246518612061735	9.0615332582151051
6.4084339682551592	21.4286643169042321	9.9168403480025518
6.9129900837048828	23.9011373178498978	9.6180154752717133
7.9874040055300481	19.5122580116806930	11.6829804647032542
7.4709199137957434	19.1021800397399737	7.7885466709475386
8.5676218248944682	17.9280119697724842	7.2217430794477089
9.0100155440418543	20.5716178741510838	10.1470567638597746
16.1033521824411885	20.9811073005047071	11.5330511340092716
3.3627259575010999	36.9120314083188461	2.2662730493055729
1.2380210954959081	31.3595803190882378	3.3525598948183153
14.3485711383768404	22.7424138230000104	6.8868802281841734
17.0925617041710929	21.0817384978025046	10.2991106009846849
11.6849788911940244	22.9139740466220019	9.6080162003104519
12.8157204980843247	19.1688455798701050	8.9397346319654201
12.9714631943997318	21.9526789893024237	5.1550841320189917
15.0844057074363604	19.1980068575366793	8.5159780572436805
15.6018974024201089	23.8847301278764022	6.2117522430727528
16.3429095594641396	22.7646915670922283	7.8551321620986085
16.6124543798856372	19.9824887357428125	8.4577010743825198
16.0761216017057436	19.7379455480147357	10.2944089526100857
22.0704002305565226	30.6970021775650963	1.7404897183473120
4.4566057082782704	35.4744275611500015	1.3050124979800297
5.5171286664693575	36.9795133747042968	1.3679653218982850
4.4419490658670737	34.3756460229936422	4.9203615462703869
2.2485504935740677	34.8548162679817750	5.5181005919365909
4.5884020101806584	32.6431427290015819	5.1065671127676424
3.3618386997221870	31.1353054396006996	2.8081954491388288
1.6977766541341064	37.2490506605931557	0.4728180710012437
0.7696764714122174	33.7204246351597519	1.0440714913548554
2.5947890041589590	31.4281152108297164	4.7679893084763112
3.4333894617842380	31.4295507729882715	0.7224388661080846
0.1567923772859628	34.0896399827095493	4.7941059361734863
39.4567607925608783	33.4029624278892570	3.2427697749912001
42.4119408059652514	32.2905725990446868	5.6850700072239873
0.0144487123194995	30.5635956956701307	4.7186479297125921
0.0219799430692689	35.0455958038973563	2.6400764845497773
36.2461667673479511	36.3070624234622130	6.3253133551352452
37.8616118258447116	36.7095347242385799	4.5531980696913559
41.1227043896769331	33.7814466353596288	4.7485895944382204
42.0800192513057851	32.4928964056654124	0.7080193039891646
39.8076147565327645	35.4279612663360268	0.2416645101143080
36.5831054708464833	32.5399791005955521	4.6409714168674823
39.5509252401042488	29.5261447206312582	7.1807776076881487
41.3330059875497824	36.6070317297786829	3.1290514621006831
36.1850101198279503	34.5358703598748136	5.0887877330409266
10.7290073762867504	17.1391549400617791	8.4988017931061446
39.9321158336830564	33.7788426706734697	41.9122854796918105
38.7528743175114485	34.8331706980552553	2.0584565953490794
38.3286467826230535	34.0063739376132688	0.2928684473243104
39.7678223159413093	35.0291194930405183	4.5424645122609553
40.8013064407518229	30.7012898512583874	0.5076379146540417
40.4020977033291047	34.5169184108157481	2.6326707329184806
40.4215492763375011	32.1962715740507264	1.8910594409158112
39.3274270435739766	33.4936097561426038	5.1675797275587421
0.4146149422187378	17.9871377777887353	7.7448714031048960
1.9130791449213496	16.0970968426899397	11.4343476276721017
0.7735602416053126	15.6289385740340858	6.4444690105355003
1.8997298628667605	17.2617026516678713	9.3399093669986932
7.2500709559111494	17.0989599652117903	8.5980712238549266
35.0635001313758892	30.9406894264282712	2.9244884201161865
36.5770609797103461	30.7147924469884011	1.5590312318689159
33.4536700420892927	36.0774591284662449	2.4316076378861275
32.9738300931541062	33.2539773980954152	4.9851893354821266
34.2390864535828712	33.1481891786490621	0.8613938076138464
35.2805276051123613	31.6993522274348365	0.6848568994374502
34.3406075225982406	34.6990281885640286	1.4054993878214821
33.2718838994153288	34.7241203978549180	4.3302631187444671
33.9999534246799016	33.0339025210175024	3.0049524499472478
8.1365524215796494	15.6719677472081678	7.3467508878372776
7.1213813459332709	16.5804303115284242	10.6154107585791095
7.5720779592124625	13.6451121145931733	11.2725556612563391
2.1282999101726059	13.2806133745012502	9.6867325990563291
39.6552310194879212	31.6309591817415097	3.7426002200270267
9.7514957771847204	14.1856941505823375	7.0879954344798994
10.3353967220162062	15.9318497061332298	10.5218196408188724
7.4489781475705303	14.0937536615816299	6.8822221753134762
6.4934665834544676	15.5164762590112932	8.6224379379340714
5.5860175853528187	17.3479113095532220	6.0026552164871241
8.8882434900595833	17.3352195954716777	8.6632503051249881
8.3117813860417442	14.7155535209246064	5.5718787859621690
8.6194497725969423	17.6164268083307007	12.2202573879659528
10.5217193288346849	17.9304532340640499	7.0048586192548878
9.3428699375176656	13.0035866906558031	10.3017581955610904
5.6744068071160862	18.0105201062442788	9.3518118628701199
38.1600368748433638	6.5919907493852579	11.6846112942384543
0.7858091518392853	39.2637950381453962	2.2882217442725516
6.6128212099617709	38.5469980738493874	1.9898178963132542
5.6060243152370175	39.2134369198461386	4.0863829541052619
0.1102688163219694	37.9050935146987413	6.0255966015107845
4.5369277161067885	37.8596817302099353	3.0465652377082360
2.7251469663601910	38.9452037150511217	5.4022970458168702
0.9515078993122272	42.3298559622466470	3.2863274517783592
4.0840291587397077	39.7214247045718452	4.5631335240962869
37.3035535606941693	8.0723216678051948	7.5015633257233247
41.4913432507019095	5.9507112616063571	7.1065295903261827
41.2540495506638862	6.6365121639203863	8.6497122456099529
42.6641504057399601	7.5947043660559483	9.5972267094704478
2.6306095021293143	42.2163458726597369	4.5566876078465164
41.7830729017831075	9.9524813495882167	8.0266730065337750
39.9776612066229688	11.0477930852318948	10.9687419955541632
39.2000506692164876	9.0495386157689843	11.3744744504611379
37.8649100356426089	10.0358681142912864	7.6297230580831386
40.8828127223822833	13.2683900790894800	13.3210538114958723
1.0232083108336114	6.1546856424722431	11.6103529928442288
39.1061067554827702	7.2141356130619938	9.9263829820761131
42.7515873531906934	7.7665283819298141	7.5214716599991505
41.5429186261391123	11.2559185585929420	9.3980628684917367
9.9086843239679201	40.3494448195377586	3.7606127527272166
39.9254306185973107	10.7876732387183978	7.2470203579589647
41.1657143102334473	8.1273308074634603	7.1754200278350426
3.1507492316625303	16.7303682645950396	8.3805817659453758
1.8462010773801294	17.6465751268257414	6.6730517790418000
2.1883629259017243	14.8321607522253522	8.2820499029781054
4.8970381077258054	17.3750188042091658	11.1660513469756406
37.8271945875444899	34.1330157855269718	3.9480233679851224
39.2814266569960537	36.6338272515982766	2.9204971334968848
0.5053682044498928	14.8998466808334911	11.2465036963144964
3.9135468313631478	14.6809309027599717	10.4179367287706732
3.3021553012702252	16.9664003231890561	10.2687419009761634
4.9488419080650550	16.0312111593262649	9.6432327282826567
1.5761684619978300	16.4324891570489875	7.7103344684103403
5.2903928514793321	16.8299545274164259	7.7980251318559608
0.5345106016978219	13.7786565046523144	9.3413582458298876
33.6614184164092762	31.4600239314914454	1.8921897387618458
1.5909440168051445	15.5168187318790114	9.7201894008377252
2.4045289166765187	38.6487360149496268	3.2624562357371851
0.8229555360537182	41.1114993553339190	1.6271754730795804
2.3143377945716681	42.1552563753435692	2.3829605040867317
2.3362522805578898	37.1202843218752960	6.0597437064675681
42.6057709041026058	37.3260438136826238	2.2750691751833099
6.0815891681998142	37.1435713353762864	5.3306387634902448
3.1178251846664486	41.1026817739872854	1.5505657823920056
3.7535892120519190	37.6066693527145404	4.2950508217302668
2.3002826579646558	40.4681052531946079	3.6150747450373490
0.3379892546804046	39.8973092828473881	5.8288039980691959
27.6061716193212732	33.9978720144596096	5.1790465594045827
30.0975491988458010	13.7196928310365163	8.5560960188744772
29.6277757084722495	16.6862807105452440	8.0507687582140761
30.1127470260004984	17.8516981716834415	11.0634157660740104
28.4078077046879116	16.1906613235992545	10.9395023330467556
27.2015800905282923	17.8863172222637132	10.0517502039527127
27.3698932752947677	16.7280341515485560	12.2094219825981423
27.8943056259140896	18.7915302713098740	8.7081524069171667
29.2726211336087943	17.5836741232720293	9.7371787054578469
22.6668868302268862	37.4779993803524150	1.1267342871268029
19.6460021769998718	32.4974547683447739	1.3313278309905592
24.2488997508911126	33.9998858836303839	4.8950989955269861
20.7654306541502862	34.0090387907413074	2.5002986469790693
29.2957030727604852	15.6882958439392510	6.5665077637368281
25.7404785332256054	33.0443683715046319	4.0276836236922424
29.3115242764661730	32.9471642270113918	5.5966629774926178
27.2111116350712763	33.2805044210465795	1.0798641457307829
27.0668605023448876	31.8807297349769883	1.9322346479686570
27.2203698480582581	35.4168517992518659	2.6445758524660445
28.4494348678374784	35.9273536383936616	5.7222290014591337
19.0690469556719968	14.0751171197334113	10.5737541782576141
23.9325250154659557	16.6468756340014004	10.9633852136006666
21.4572199430533992	13.5634599713382649	10.7829494657547773
21.3567015199490946	14.4217130863902803	7.8661351847687069
23.8933611610582020	11.7049771985077289	11.0296195994186554
19.6976063812798508	15.6324003795987974	7.5462955636932465
25.4118460929774201	35.4956715476611322	2.2157449326305025
23.3190503962292510	31.3222266687934692	5.9529503590067279
18.0470685153316275	30.3513636201227115	6.4660967914840208
17.6913549826380851	30.5818200907575424	1.9346633495098928
21.3069417001924180	33.1204678226312055	0.4863579894539211
24.1932774847413761	34.5312427142313325	0.4563790897390560
19.2633026231177560	33.2180977675193887	4.5677363217857101
21.8346141475048086	32.8790087430888818	2.0453826283323835
18.8360250409203296	34.7478402820232688	3.4583860159043334
22.7322772874246439	33.6764816051572424	3.7213708937198109
23.1818487554007966	32.2016074892248909	1.3054482906527969
22.7978436463329963	35.5019232835150120	4.8859834209896231
20.0516870733198616	35.5196380618691165	0.1277156252069640
21.8518994337124646	11.9965982452420441	11.7556151177379018
18.9639513267004958	34.8630496161935497	1.8761160637230700
27.5805793531138441	15.8913478341022074	7.7842658567983598
28.7395411868073083	15.2948113273522601	9.1880588444593503
29.8844719883085226	14.2400453460784036	10.5480856007475730
25.5410233293129281	15.1553280612912200	8.4220897099734966
24.8988796154591974	13.2789975013877388	7.3932120393890326
31.2208729735036385	17.0369992077242145	9.6545322469018249
24.8002470321392572	18.5207087737626104	6.7606686936852523
29.0831735233388287	17.5773180608479045	4.8454305815728054
29.4649839251092267	13.4923021049197054	6.5942955203424507
26.9177307284941278	16.3531420066021873	9.4212921379715429
24.1096748754678281	11.9886308713505603	6.7282131895211856
17.0434354562464705	18.3621080690503931	8.9007389516908777
24.1733349883785138	30.8404125188643405	1.5099900521037648
30.6990096933273797	30.8395466002571972	5.6999902291366658
30.5825516144083451	35.4406942832229817	3.0518339605845619
29.7220578779995712	35.4147099565449963	1.2298781359986592
25.5823337521227252	33.7945160204003301	1.8783371000040512
27.5424233512832508	36.3176109391708977	4.4927158815775350
17.2284556914924671	16.7067711765741223	10.0634180749937823
13.1424902959972716	17.3064087522925263	6.4520572932110563
14.4995261066246144	16.1391585379835085	9.9424332922803007
16.9358127220989481	14.7071530841010780	10.4865058383877532
15.4708081409808411	14.3049826643049496	7.4241055853426090
17.5703716703446133	14.9617814330085892	7.7276917801521270
30.6766685787240441	32.8861979345598741	0.8765164269386529
16.0347416550237405	15.9015000167535074	8.4931761287477130
17.5647639744456363	12.9384495505432113	9.7168037995583934
12.9968384491500331	14.7342185317863787	9.0425506217172362
11.6471615242178697	13.1454227846099787	7.8875959400136164
14.9393907696523929	17.2239765697417724	7.9116183683562715
18.1811150682146945	14.4619396502271602	12.5127406339641638
15.0894671367980777	14.2653041223659329	11.7811297866407756
15.0734542459516572	12.1454836496073106	12.5966982482045076
11.8635691275909085	18.6231582381281164	7.3302216964515976
18.3952072957769808	16.3021657223975183	6.3774091825051746
16.2371080260624119	16.6133179218906832	6.2396060233698929
35.3761364787268349	36.6340705814441705	1.6972148767830739
20.0002146604421966	15.7101640902576634	5.3793693503571944
23.6569854915051110	13.5017695700761458	12.1394766224022312
19.7339541128350149	18.6390944284189111	10.6355664483146715
20.6386025164655571	16.4564007032336796	8.6428238789898124
19.2791479365251597	12.4541469012791399	9.0115694955015702
22.5899615052331022	17.6781740152127114	12.0203093126800269
19.0255647141470448	17.3587092972336663	9.1660998021336209
23.6656813945871498	13.9289217344088527	8.2539920953248878
22.5239394576161835	15.7401083454825681	11.0265228423487027
20.9986135881512759	15.1185823502533392	10.5342889252014213
21.8010196084898702	13.0122844181304416	13.1371775923190679
22.6015784652860425	16.3426763463916593	9.1333074477163905
22.4956760910731361	13.4320282916502851	7.1623865482819076
2.6368872199903750	35.7697032991751129	10.0583034648352676
29.9012601506907068	33.8154306998524916	4.3457426958351233
27.0901832064801553	33.5183533927733919	3.0656737874238815
29.1326481988267929	34.0749720195981638	0.4415881553612193
26.0782787504045963	34.7687515220093459	4.3654178984265872
28.9351620727419423	31.6635783110325626	4.2840206525922557
30.6886801152499729	30.7597374479587771	0.4649696949477342
28.6474950080911483	33.7068239140635626	2.3631893418223373
27.2212894018607656	35.0721052025624189	0.7746178048410245
28.6995637572181224	35.2481914624141197	3.4445360665302358
25.3863084762148823	32.1098987545373120	0.4050934539354330
25.5023707993849484	31.8453683767469826	2.6917999061637432
2.8205971770377594	11.0444293344605526	16.1504582593997483
12.8937659188549159	11.7962679880481023	0.0574675883558875
12.9623107561872910	10.8182885763301506	1.3468762803433603
17.8552677163065141	10.8523730263576645	1.1250512077636585
14.6776229187256479	7.5500302605554799	1.7548931432957087
16.5081510435725889	11.2210595432349560	6.5202470891467330
15.8450842767032736	10.9587135762086856	0.7437711153833283
17.0533094415506952	6.8115165260127455	4.1014357867805398
13.1222899453105466	10.0142542012196092	4.9874712637570564
2.9787827061566969	11.9413692934820048	14.8235377560708166
14.2770264841400305	10.5591495330106131	3.1949865428680919
0.1943668804432368	9.3524837556504110	15.0963528026042599
21.3213225717269346	6.5660578850949456	5.4384969501840370
40.0996520664108971	2.0249719458813487	11.9347202362155898
42.2428437171312794	2.5408448483915635	13.9983740639252829
40.4289075644178766	3.6965518863075824	14.9820085520588133
42.9948568238977771	4.7958589552768780	17.8040998253479650
41.7531027725511024	6.5036670403290815	18.8969339536361147
0.4540918923241180	7.4327942530646895	14.9972521697395820
4.1614801284159819	8.7033069682491941	15.0478712944714665
11.7892640868605163	13.5078343545298249	6.3403210499405223
16.1831688404944387	7.2880549646623569	0.0214917275935065
3.7412723111948059	9.6029520509776525	16.9711865875635688
1.4281711817601928	10.7747822579673684	15.1854444851855011
5.1801028868118690	6.7777967182480596	14.6245594202342577
4.7661984614978534	9.3338384340079266	13.3079391542190546
0.6922090400144620	11.8057910163082855	16.8382944109216908
3.1751689503182741	8.6824179177423044	12.9311067697814650
3.2239832458028550	7.4339065968839027	14.7339159439509029
38.1853441111803988	6.1201573834640639	16.5449105895667579
1.7477036649210260	7.7797985527316502	16.9355221198719796
3.7744512117428690	7.8390539380983171	18.0151466384723271
6.0749875277333976	7.7402057473462369	12.8121462451352013
2.8265672543579901	10.7432820453335793	18.3712842209930507
2.6043668679306693	9.5239684821803579	14.9582912263062138
42.9993982443466507	12.3682286089695967	15.1494718223182119
16.0647410927233132	9.5892177684175888	3.4465439649135305
16.3427123269619976	9.9796041979527192	5.4319045882774981
38.1933903787085001	2.9054585433250999	14.7326048803002418
19.0011736826798590	7.3003441295773417	2.4897017917573208
23.5825436682806249	9.9409676010755597	2.6463444751814409
23.9260329381407821	8.5491266952103206	42.7500173495672087
23.0507183769017985	6.1516403678585050	41.5902305666568282
18.7202369551844399	8.8564867359398427	1.0872229601662149
22.8740395562486434	10.3427470249404010	0.6322359032935827
39.6597223764659290	1.7030872813424498	18.3733065291243634
41.4712093367002055	0.7929661771395786	13.0759474959057531
41.5347019697176947	7.1780242613236087	17.0287298963504732
21.1257834860052363	11.1607040528055652	0.1080002997825773
41.7915854791238530	2.2530415170333109	15.9055315967923239
38.1731534308812357	0.8106256006963427	15.6889303719522815
23.6722047540739773	8.5580487626447823	4.2958507804903601
21.9953111869938773	8.6015458338397188	5.4622388156557458
20.4493003561843629	14.0450647892665810	6.1586656661911103
22.9804623731984030	12.3011483578331973	42.8618447788659580
17.6407340983921905	8.2578861136793122	3.4684935915583512
22.9824333292997842	6.4220045696881201	4.1736442621839025
41.8432233089059196	5.4237496245479342	15.9518081617048608
39.0511939261101020	2.3125814543379666	16.0898017874987111
1.7735614267656039	5.9674573585939861	14.0994240834312823
41.2141120573161217	4.1574900583359780	16.6936985110764731
40.2307841300461604	5.7675807616619155	15.8864152772343825
36.8259157384941105	2.2821214074901284	16.0480876564043271
39.1086233898424496	4.6540655758171496	12.4946954828947856
37.1402367391510353	3.8059221287846019	17.6875134078726539
36.4200461038910532	3.2826619798996637	13.1357760576853106
15.9355000843863479	6.6643489072584767	3.2551906389017193
24.3410373337827757	6.6350398738951251	1.1160923880843256
23.3191607052412060	7.6085680534939959	2.9431752066638843
22.7585074360190660	5.3816952237920450	2.8569905031556839
20.8507124383550781	7.9541047593293550	0.6857031236573136
20.7199086133361021	9.3260066605840155	1.4076277408795048
23.0545934811566688	12.6880010050164884	3.3674482899118687
21.3278967849419274	7.3829276944777389	2.5511421475314204
19.5144848108917017	10.7307993990795651	1.1694485814569124
13.3320820113783274	6.4280231341793952	13.5125974630249637
17.2082164852272221	9.4489435975557026	14.9827294069352188
14.7166911243550178	8.1535878720462840	15.9428290681847979
15.8442678352347954	7.6085994235162993	18.5076668265904161
13.1613787303817276	6.4969257766934412	16.7474521129233906
14.4626461677378444	9.9929670744180434	16.7925848139747877
15.0909692437616609	7.9536243015501640	12.9644002045514615
16.6189876354302939	8.8036662355260713	16.6714780775892137
15.9912552977981282	8.4578411038952179	14.5656456566507355
12.8850713274098929	11.5719999308912858	13.3492298167172301
18.2720522785631765	7.7186328365904924	14.2222649550184030
17.0566182851472306	8.8058408916152633	18.2686439167359929
15.0762239791665547	11.5159761766026136	16.8765250756375949
16.3908165384172761	10.8404641300905951	16.0590614027491903
13.7373916938474316	10.8692856868551679	12.1743829104743213
9.9990183366369365	4.5653935900536240	1.4361954637550804
10.5756646454817922	8.0597278489238811	2.9487673828603369
11.6185995606986250	10.3986079969702416	13.0464720565550074
8.8573123544478296	9.0958923339377655	16.1287016469230409
6.0749698515646378	12.2430591281205867	3.6161436646142029
3.1160202562640635	9.9920948345552958	1.2137474250673079
5.3940535265839600	10.7292046824247134	3.1156260101617446
1.2030410790677273	10.5488042666704018	0.6661204892173629
1.2218056849423566	8.0808924315627166	5.6252355725545877
1.5441105538088138	12.3921766754325180	1.3080667001490798
4.8163645679293552	7.0986022743870780	3.8058598080825679
1.5130274519549329	5.8487667782859196	0.1893258839827762
5.4342101113095493	8.5551371545685591	3.2414881807788141
4.5146227619367103	11.8464114576662300	0.6994092851423021
11.1511376669022209	12.0684930128344181	12.8764153148163665
2.2258930857146786	9.3775629272222325	3.2895730919274322
4.2677368914750824	6.8058333817434251	2.3266896230471765
15.5966208602550704	9.6839810861847031	17.9855956079085573
17.0090002452329756	6.8814206266557099	17.6781445908621855
18.0307385746685007	11.3513181676562986	14.6401864213681403
16.8588403821838391	11.5382133589396876	12.7498644025359216
15.7615752902448349	9.9861059502614928	12.9634372974558332
16.1398138738146386	5.6526426630767315	16.9903200595603820
12.2718768803366842	8.8373844600922418	0.9190310273388629
8.9033605901399309	9.3244489153768928	2.6332155349522619
7.5692622234321583	10.5025040297452712	2.9611757144029167
10.9150076550428832	9.2872313366548660	1.6891350953011117
6.4954515083533106	8.5772386809161762	1.2879029167106917
7.5298724106539243	9.0702293342168225	4.8240207095049010
6.3725476428853689	7.0359591690827887	2.4477946916892099
7.5006628138375202	8.3747229693517848	3.2304874584913050
9.9969808096240538	6.2381307533327890	5.8210455563527654
9.5741391042920050	10.3907425736936752	7.6434443978696756
6.6162483735071467	6.5373122848777490	0.7190306148819038
14.4709103679175843	11.2907239296139199	5.4062892516708780
18.2575842777141872	9.5665236859002292	2.6911939462269370
13.0789240101928144	9.1879780992587605	2.3983358140665514
17.0744868993352661	9.2318667123932308	42.5882001434110080
15.8184300610359827	12.6621979276179708	6.5152965564826335
14.6665316867491917	9.5839509303416914	1.6482315446897382
16.1507879650413742	8.1420236938558777	5.0230808835027370
13.2897772866791932	7.8880432226982045	4.4157039205859689
10.3531330755934317	9.6987733209271152	14.4611978658454330
12.9759577285495418	7.9015460680342979	15.3918323465577771
8.2772711781067780	10.8792162135026782	11.6813039568674224
8.1912277740528481	7.5500475993743885	12.2148246418462936
6.0878695093239434	10.6281081269679305	11.6576563801877704
7.5042729303982760	8.9999016532979415	17.8119564135317674
6.1697942035844981	8.5881562014930495	14.4541659299452814
4.0298525800075176	7.2505978210247735	16.5693948356817167
10.2471006000618239	7.0855229366056820	13.2899769115465194
23.8422851722391869	9.9064962196013955	5.7110749494303281
7.0708827590055083	9.8460815967900501	15.8694402815292648
11.5657553665423798	6.8874577145498028	15.2281013283974769
8.8893207809957442	12.4880318585145886	12.8174183117056693
11.4812978086715205	11.2788465857952023	14.9978907812706215
11.3445779816644094	10.4830764166435610	0.0331874357031534
6.5952260232167514	12.0427630148684575	1.8863713513930531
8.0575498552093840	9.8696440498312423	1.0001952861244059
8.2784991156924068	7.9528942828453211	1.0666369979000310
40.4118117050403924	6.4748658387497136	1.7043532986431786
22.6898362688262019	2.6601272257722801	14.6714425078825226
20.4348139330517924	2.1300221319134311	15.1728525127807750
23.7097007978919763	3.9664908329073838	12.2557253496518701
21.9839958161571865	5.6506025132047997	13.2448640702385081
21.0060500800082650	3.7867460179334693	15.0369827607711599
21.7203940565849507	2.5752223487269008	16.4448082352380816
20.4474939502710100	5.5281016246446324	18.3657796055476865
39.8999987990354583	11.8923782132583504	3.9713623305205714
38.6245378375172734	12.4112008762907422	4.7271468102331031
22.6523423371963304	4.8592219100145693	14.6738294089049983
36.7487865664085405	6.2361421703150777	6.0997925256088328
0.7370676926317419	11.6122666729016117	5.2692043879321417
36.0314275943545113	12.7120554601608067	1.9410442087050417
42.5950319007227733	6.7243635341303216	1.9821194484589495
41.6739148734944038	12.9547419326254154	4.5398346340626983
37.6399601224101588	11.0823450461031960	4.2327184076952360
41.2722040799722905	12.1937041523532397	42.8794304265268806
38.2335831313815220	10.0450974799027559	1.1658872568770560
22.5269340733637939	4.5102317314179841	16.2844211499354117
28.7778835919044020	6.0554680238422698	16.5113113049544005
26.0929244440526737	4.0992909738816463	17.4136498697899711
33.5360546768774697	9.5252513234028022	1.3738302495835204
37.0335702597704568	5.0779633533500510	1.1709489907653470
31.6955376734298149	6.6925978840510805	1.8619633463308483
29.6609845544084081	11.1346650919887509	3.1006888894803870
32.3571539244098005	5.8404435242592925	0.5601798249462262
35.5116905623338042	10.9562873787098596	2.7210588234230477
23.9769439289643245	4.0671074470014412	17.9998191941405246
0.4271573526491769	12.4467110549342781	3.2048380565232626
21.2315543409034611	3.8635419969840781	17.4348823781057582
19.1733607129758994	2.5703374741961276	14.3597314584437044
20.8583180343291481	1.5198797754202773	17.4312120291611237
18.8177727657058647	5.3216738876945122	18.0113694625854315
23.6397335275757747	3.1665733667704101	16.0337248310432088
22.9583374714072797	2.1135528273575042	12.6863190814274720
21.5170630679608692	3.6507070364150835	13.2540552859072083
20.6722213931778995	0.2972528945221425	15.8284617143259005
15.9784276269672443	1.7835298219388425	15.2542236130067028
39.0808251862179077	10.0385534942553427	4.6541380643016312
14.7836528922680301	0.1984560918766057	16.9538645787758995
13.0595905361495372	0.3001698730509571	16.0728407304386955
17.6587807189854900	5.4782098945566355	13.7733802988778251
13.4675432598926523	42.7588604275029880	18.4297548321461200
14.4801130435715653	42.2725574606694039	15.4023011202992617
15.7022466470444240	6.0569227830419212	13.9169594463418065
18.0971694266620347	5.9159663052011977	16.8536532819513241
17.3906120374322377	3.9474155531855928	16.7153551984995836
41.1463045211775693	6.6019265435341623	4.9905774980120077
17.6603972124610067	2.1124571741808320	15.6801730915635211
12.2991325971757171	42.8341425628623398	17.4012430484752336
38.3583607471368211	7.2179200116234297	6.5010914394884072
37.7695285595596673	11.9409749968893646	0.7138954434939496
37.7717438418753488	9.1743188861230962	5.9206125708824056
41.6380861812102125	11.3658663348543101	3.2253707470448081
0.3108623639649897	9.2926913136732203	4.2157246564321298
0.9490679261996091	7.6488767066605199	3.6691170642112692
16.0497307633174273	1.6829249201584524	17.9001085502045534
37.9197199953318105	8.3718910784160609	4.4764923267978771
38.8026148858865625	6.0004806605102692	5.1265936366441993
41.0578485897539522	8.8714192406331343	4.5908516313891026
39.5583951322264937	8.4963786686234748	5.9015635084957232
42.1810384812808508	11.1795814958306821	1.5975271470479013
38.5976339585844883	8.5267679422216354	1.1764544165393660
40.3431285150557457	11.0079714644269853	1.4426666787553799
36.8017539951627768	6.6294529851088120	4.5758401962065500
27.2980342725814893	6.3909584831101842	11.9643551304533791
14.7154773487861945	6.3288693460470693	18.5009786227214583
17.8091051500230719	2.2302792488112262	17.7986253553818834
15.7230483034813364	3.3633892012187818	16.8740686837090657
16.6945484720207311	0.1097795167629318	15.1196005456842180
13.2208816746562885	5.8940676088958748	18.8141732291199659
12.9576184597764907	4.2263671529514966	13.0007771141867483
14.0442513642134692	4.8220152122430715	14.0263530319194274
41.7290033953901442	7.2547993691378965	3.3653777904058368
28.1129775184096289	7.7376241325099429	5.1407337754685294
34.5132569566229606	4.7362218198339008	15.7294165290714556
30.5076881895552674	5.7209445098315284	14.8464690737595255
32.1847690857050566	2.8860046392444967	15.8652233547878563
36.2661709175471074	7.0696821379087700	16.4769712429677178
37.0675466080560767	4.5718877560012734	14.4464436860741401
34.1641310910401828	3.7894773042824377	13.1705566845503750
32.4975115906587178	2.6193144673967494	13.7290387424380000
29.9053276804223600	12.2035692471890318	1.1166235622120797
31.1942283681501031	9.2004857859884837	42.8797391928789295
32.6087134784521950	4.7366606866153207	16.8495049104474290
26.3705657188616094	11.4650608428265688	5.3080249253744647
24.6552807814151080	6.6867934179882935	3.4560943633603443
30.5831877112808606	10.2698702728097899	1.6816046682948329
25.2081494579705563	10.3170072149554173	2.0555416996432210
27.0327003663017713	6.1437309059489476	5.1367731002798154
24.6248340064443703	8.1880078498620072	1.6974925788379691
25.4702556385173686	8.8468345321274615	0.4148762947626634
28.6396243950759875	9.4595862700083870	4.3859993990870878
34.2465807667496378	2.0940602073144419	18.8824124879210977
22.0581545567640553	9.0630063229158413	42.3070294971117278
17.9317036683864330	11.6904325931684276	4.9712031087143398
19.8872186563110702	6.4888774856857800	1.4606152627015700
25.0957207867672949	10.3731897022346420	4.2583792892340071
37.2155861204013831	1.4336290854037892	12.7460487760660097
31.0402997117066377	4.3095858536079659	17.3976224176033831
33.2959839375605497	5.9015481128263119	18.4631689566775066
35.6685175415229310	4.9711283810300468	17.1829895218877375
25.0040687922620961	11.6822979616050944	3.0317544699028187
33.0540476022984180	1.2187200605730741	15.2705774708863036
33.3453333801673679	0.9730917975982802	17.4589756668239673
34.7901846034014568	1.4442836514238226	16.6938180127988396
32.1362443729031142	4.6720542977427382	13.8233213492790341
35.7520208492668132	5.9875574975011983	14.9035042489837721
34.2601768123894956	4.0730006071525455	17.8502777629621683
35.2018476664409619	0.8010651834358316	18.7788133306021834
33.5788436585724952	6.1624898326424953	15.6207153849700102
24.6321570251717930	0.6698080259058093	17.4648091155097482
30.9850635256070781	10.3560965041611475	6.0990743724849104
31.5229108501992457	8.8884707581049955	2.2864282096530486
37.5969702051001562	7.0114546596097966	1.8668099946263221
35.0638274562470968	7.2779553397189893	4.8454561472536959
32.2818477484614164	11.4258387839224191	4.4250332966018853
32.1774567095286130	10.6798595156357319	2.8916902710027399
32.5098092362078361	10.2374296866436563	5.4133422823914348
36.1789168592552031	7.5549658476736372	3.1503652067261130
29.2284161350780849	3.1996427953294946	18.3562465747135697
33.0603632043288655	7.6359874688059062	2.6639534585191940
26.6269425717369863	5.4513458376280415	15.7500750930954538
27.5641520225381633	2.2365637403958019	17.1039052196042789
28.9757159652341088	1.2194270043212061	17.9947724273491829
27.8395378526162212	1.7197598939545637	13.2727225221547176
26.4180228537733690	6.3484546376592119	13.4784675490678847
24.1933758579587419	5.5352162193387677	13.7068803692533212
25.3987850658509693	42.2324365680018801	15.1389096913036791
25.5840699976871697	2.4095906398269111	16.5090306755138201
25.6732267764041744	2.5597988381436840	18.1629336583921379
27.9546447547937795	11.0933865706779038	4.2277970086163856
24.0821389181885479	3.4720761996553273	14.1559502328514455
28.0502389941931654	1.0772771739806828	15.3223062706272426
29.7611033980200901	42.8110473769026072	15.9549474109088401
26.0679163190025847	6.1849825529697808	17.4906322578710309
29.6191577067304657	42.9867319608427749	14.3623646168172989
27.8678579355674003	6.3344910903423646	15.0430118884877615
27.9215259090135142	0.0690099370948957	16.8496487087192683
3.1527222127893295	8.5567207939204479	5.2625415772401523
32.1429798347878872	8.8423375319747066	7.0187598101229360
32.3932295824342518	8.1198873042509625	1.0559406359891257
33.7445528271787794	10.0668475725853117	3.4100338048877226
35.8992634494786174	7.5577698338600561	0.9581641366126011
35.8666086262292083	10.0750591802517970	4.0779764660335838
34.3917057046624777	9.7944682855408178	42.1866476333214990
36.5045832536351043	12.3346514705717407	3.8341607408406713
33.9929105777159677	9.9055895863844956	6.6763972618056222
11.0474033794572826	12.1735932630933892	17.1209836522847851
11.2321874510401791	5.0754986325328932	4.6667849388569129
14.4943523434897088	0.1063646794904625	2.2651406093502446
15.5474195346147397	6.1791606357248172	1.3371733669005712
16.0701461650314705	2.5622831613569006	0.8133424144754847
18.4383805431349188	2.8827021316885793	0.1997790044090333
18.1001234587805868	3.3109477403859695	4.2993832258222637
14.8790311195881166	6.5232984657142943	4.9545713885840383
13.2527348350636256	3.5455371091631696	4.0602852531072795
13.9018383045399361	4.8862246719243334	0.9758908633044604
13.1208117065987437	1.2879693868624957	0.7522782366619799
10.5814541468273635	19.0334637169371703	14.7034709155056582
6.7303536195659799	12.0643739429240124	13.3758869173644594
6.5799498205407465	15.5765207148464810	14.9689846146228458
9.9851218547476943	15.3986041921872463	12.8332401381958174
12.2291874630693691	15.0419779846376720	14.8169938332643039
5.8825961489466145	12.0757821232493381	16.9233949539715560
8.7951221092149030	15.9185342743465323	16.9783148314229884
8.1476918956364948	14.4232957657783754	17.1312700221815355
16.5669894675061045	13.6963888693285103	11.7664033725484103
17.3281056678279732	15.9837103728662360	15.5960132579818627
14.2010093772464039	17.1434949682504296	17.4444857119163750
18.0992574884844899	13.0008215779007337	13.3599739381975127
15.7551730241488048	14.5878759397199822	16.0505076070507080
13.9854141242216237	14.1797619288931571	15.1778540458182167
12.3389112231392968	17.9970318127066911	14.2450612972108566
12.7984963370345390	16.3935431771563991	15.8121160035351433
15.3002705886026824	17.8823753556573628	16.5545948956887123
16.0176001406494244	16.0601971392638774	11.3657245296515015
5.7202940210794626	14.0384597288950665	11.5937228107832446
14.0395633782550799	15.2485202272551916	16.8459587902764021
12.4337800334135924	13.8532926159534178	12.7989191884892701
15.0184774902231304	14.1750643427033882	17.5756426117882896
16.6702766202937838	16.2284156820862790	18.9757096133857317
16.7499838894684459	17.6660290027260700	14.9029061327161827
16.2474877694200650	2.5061759846674350	4.9192326161730922
12.7112109929431156	3.5550938206948448	2.1938506456866596
18.7365475907503374	2.6367405374806019	2.2874145671020640
0.8975490989867471	14.7184340823363069	17.7794878536416192
3.7676615717009430	11.9724531439960504	17.1176805940237955
1.4371260980042955	17.5284190865001896	12.9878177993770976
4.4214367215204939	15.8696609718862049	17.5474287025639448
6.6633253596798374	17.6472426115237120	16.1366605573912061
1.3070770208610039	16.4729957904232442	15.0858232849592984
4.8881130829886672	14.7093647631327276	14.9754072207888989
6.2898346928593734	13.3823747255270291	15.0956930176764068
5.1673427495825939	16.8947112606126701	15.0754681188212292
0.8895846983427557	14.4883607014561075	16.0847795953691524
2.2351862809861553	14.6141014606470989	12.6036347012410488
4.5776239794605313	12.7148146945411114	15.5026015256668384
2.2867864716487487	17.6849897510210603	14.7205858056779206
3.4299279620620684	13.7052879442890028	13.9770184351764382
2.5937618443127146	16.6121139575479333	16.8145652271189299
3.4853846160668125	14.0442230071516381	17.7869166974743003
2.5992965281644724	17.7140021317910055	11.8028052773392584
3.6706460397700225	16.4479509304961162	15.5387253997676567
1.4653021941723310	13.4212733390099377	14.1865024191309033
10.0647913866665579	20.2231281633775097	15.6494479971922207
8.7704470391160800	12.6019179634494485	17.5386807564003071
10.7516288955115886	16.9392393458128545	11.9591111612025447
7.0156620663589955	18.0979797482963676	11.8120981494206649
11.8124144427405895	15.9945066181836921	17.3948241325111965
10.6208781246335011	13.0288078137187995	11.8088942669416799
9.0964163059830945	15.0779706968278404	14.9986273809095429
8.0967190414984600	17.9359585891224285	17.4545027118551168
6.9288630968108436	14.1498959907121922	13.3718846189660514
18.9803491317150339	12.3698038113514119	16.2391749719692058
12.8820893313481601	14.6877793921328461	18.6292492322260408
16.3744581716062463	4.7834758683404441	0.6767137186958769
12.8710419387097037	0.2327374499847973	4.9784260058686813
14.4881264865684010	1.3092839910186924	5.4021031749038650
12.5209050214503304	2.2632774866626937	4.8772883301359995
18.0029357070837257	6.2642948425390079	0.6211863445821539
14.7103660356003410	3.3184508561143335	2.4476053995768750
1.9437866051904871	13.0768078783765542	17.3549846476515732
24.3329555093647123	16.5762401924751757	12.5864853592667831
4.7443446749555367	5.4412766805357462	3.2641181358412221
3.8348936910162599	2.0724362781248313	4.9478214015458306
0.6670847968673905	4.9548210325036210	2.0196643715640299
3.4315779638838229	5.4796419020618936	3.8676667495806503
19.8440126042062914	13.7146559734919258	14.2291888587374906
18.2525096651311323	16.7011499816993521	13.6930090946283194
26.0394374729910183	17.4752203001158328	11.6301709657127113
20.8868893421039914	15.7810487230701977	13.7070622602422283
20.1093069531427311	15.6498111574063170	15.5618922253314658
5.2730062378416989	4.6980409044925029	6.9065127407423050
21.3920612609222509	15.4344030910362928	16.5368712224004710
18.6909902383346882	14.0576821996086068	16.0017189894395209
17.9297224823589794	15.5529904846636473	17.1999404586326285
19.8461681637616003	18.6856275895654314	15.7952836078383818
22.6047784582314115	13.7544129543392746	16.2482373118761707
24.6038990482966184	18.2305098953745883	12.0690066711258215
22.8283092884989003	16.3675215190351331	13.2371545952831937
17.5098862471696535	17.4918957940220956	17.5571433154843781
1.6990441470359261	3.6514057449707447	3.2959094357989733
29.2798517021945663	13.5782828784116436	15.6530917887255914
29.8508705039300750	15.4284351299354281	12.5685974591906042
30.4747454556678115	15.7820941765167291	14.2180329433357855
29.9729847076381759	17.5527191143669583	13.4186944907108732
3.6215220023585273	2.4235452146054484	6.8745883001887380
3.5161345886076840	3.4338767563482353	3.9687734400216752
0.9558741494612398	1.0379810725355723	2.3652249163219912
1.4278064814801623	3.5341225353405892	4.9825262961943633
0.7050929010078233	2.0468323301535154	4.2473645152960176
18.0393683233103452	15.8876257181276692	11.7459833067342139
3.2485287313445697	1.1001757904667298	3.4338765855597608
2.3722082778428426	4.4172746977460955	6.3907445874318487
3.9463560968218094	1.3836122478283979	42.7165303023975014
0.2559200032334955	2.3628780630185049	0.8452126587505553
0.6211598595203087	4.6268401256015910	0.2634019299499804
1.6764418881886236	3.7244970878150276	1.1352843711268590
2.1345090870793428	1.8021938212862025	0.5497877710497551
4.7528251662439160	4.2653244511582757	4.9360051716916367
6.7239042967468308	4.9754718576332735	6.1215554148762168
7.6115712833117657	3.4348439371011983	4.9777323786018801
10.2843459093158867	5.9808145703097733	2.2292507094879501
12.0278721824834562	2.0720619199541033	2.8739921789127392
8.0355609853358292	5.6630587786403224	1.8688548219776051
8.4960846759390698	1.9638164565484781	2.8829482452495983
7.0996079565183541	4.3715568238724352	0.8719029287476495
10.8708607288641836	0.3769307472555283	42.8376167823166725
9.4904269801832299	1.9334493418096206	6.2514085850364198
8.0313310919375098	4.0717231026250875	2.9753221122953049
5.6995142779860837	3.0764589898174903	5.4643220877598377
14.2538668175027041	15.1365403404189696	13.5379822652558346
15.2772564823594781	16.3668833362110249	14.9610507285939462
15.9699021395541880	14.4491996340582958	14.5276146086920637
13.5476632489214008	16.9127138752313044	13.7255388301321890
13.9724639747954562	15.8950369319033875	11.8176402995858645
16.1690697631332370	16.0848085994834769	17.3192839466108488
15.3677271099540853	12.9031103558764713	15.7498552093505886
16.8572436243466690	12.9818661542844840	16.3222857928546077
19.3647691696756361	15.1338146596698753	13.3666882211694116
20.0833751037753885	17.6202187331442133	13.8616770283802619
20.7331597610960365	14.0234740889615725	12.4829432859138105
20.7003728562223621	16.2398644495787714	12.1300964546503387
23.3327116501132963	12.1158810228681570	17.6969019400730758
22.6417975412298844	15.2068443596769569	14.8024256178849054
21.3158733541131049	17.5297548496773885	15.5809313342109270
21.9850985278608988	11.8090322379360213	14.4239753239568866
19.9351159854646127	14.8017416552770840	17.6932112849471572
0.6105509358900978	15.0102138022769118	14.1089429390268251
20.4397152447039332	12.6704397615688418	15.7819475786396843
23.7338588173645277	12.2622877389919882	15.7238600453817163
23.2871016400746278	13.3550923232095293	14.2644412144094392
11.3142756414966783	42.8444548760863668	2.9688487412074531
11.7031272413690104	4.8195178072668927	0.8070458057647604
8.1223333911988362	5.0865501570923506	5.1420425713253097
11.3613935901186434	1.7421231296259982	0.9912296738261106
9.8173447554428712	0.6798560256761712	3.6557741564378778
34.6900994634797968	2.1441039162977549	1.8215990540817091
28.6858424353839148	7.9914625759530713	15.9985792890270062
24.8635089919052348	9.3510736932658602	14.2010538124088317
25.3556289196658362	8.3664512675579115	15.3820127350585132
29.8557854150535391	7.1686318364907269	15.2176294969190753
28.2444629390249098	11.8057988202935142	17.9957221563833265
34.2145157583582815	0.4292700231897010	7.4750295305968901
35.1274801943029118	4.3988469075622572	2.4033931379191134
32.3464639799959883	6.0913692747213588	4.1511783861041680
34.9878855636008765	2.1330660873220570	6.6846834317604067
30.1817602384636388	11.2025423601582386	17.2563990823388842
36.7078547154407744	0.5692659886179733	4.9985582120130099
38.4082797616118441	0.1649035293510271	3.8170260135442344
37.5131569035716055	42.8758355007095986	6.2003076613382948
42.0777962300679533	0.8192876081488479	3.5017838280208919
42.4421627334704183	5.5766508785901792	5.6765888657783012
38.0486968614897165	1.4670586069433740	5.5903613488385799
39.8723215905184674	5.3435538822238762	6.1371269388269756
39.9485904182309071	1.5147520924095388	1.0453457905172792
29.3808734525939386	9.5872962213900657	16.4281107761287046
34.6871147887326146	3.1688778016974286	4.6712758412021786
35.8742860520966218	3.3774722924877425	1.3576734193738433
36.5555652495846743	3.7648777516604333	4.3989342338881645
24.6296539831492538	10.0772444768006153	15.7051796392850562
28.2344013291102911	8.1708891619680326	13.9961967389330937
28.1165842434048017	8.1444476817342846	17.5575371203058026
25.2519247346977593	13.4428744176124813	11.9229579625292494
24.5939711623752224	7.7234340973544438	18.7458779033264555
29.7748156854264820	11.4033431809276635	15.2319996785861722
37.9660835502997998	4.7960643329620440	4.7466936033444567
24.8132850300883447	6.9584731829241289	14.1861339774897619
29.2016709684921452	9.4209822056655739	12.5683162215408277
26.1913994271872070	7.2624260681773123	18.8201560967581472
34.3667242940220135	6.2344354126134496	3.2285001660335499
36.2409042546162752	4.9788527438609442	41.9234860634622635
31.5812999745663099	4.5599605579633558	1.3389446675398384
30.4497523210150121	10.1882866149700231	18.5233744059433185
27.1877165119248048	9.9020952191965375	18.1243650843314121
3.7911184573669803	8.9773166915817164	2.9939857402052970
20.2483654204129593	7.3784315735868153	14.7700650370258959
23.3163508234607733	10.2610948385822081	17.2791407231617917
21.1703778632308897	10.8199572681791860	12.7870058006143061
37.6968526995197379	1.7476677343013307	1.3746346540964116
38.9828431211974973	6.5878124386679691	0.4607421646941773
42.9389424036371210	5.9443253751591980	3.7407948899155832
40.6106130039623849	0.3474118872962213	4.2592834018302748
42.7695931417704927	3.8996392448376875	3.3839540602961216
5.2845170492577891	8.4507341454346374	0.1899561862716854
22.6559930504738993	8.5324901651791123	17.9818090889962967
1.8441797428305331	8.0302260718654139	7.1210210298202412
4.2022202523720038	9.5530724420737538	4.4634845183905503
6.8874569762597604	7.1240541688648440	5.1444597917916370
5.2802786782206601	8.1139383326792291	5.4920644192837313
42.8074955213416004	9.8052027496872931	5.6444722470825903
18.1903357447636260	8.8178151213941955	11.9965828336109492
14.2991481001103011	6.8311227189777455	15.0005137372623363
14.0240528409669682	10.1900785983508566	15.2222064979114293
20.0160069936235629	11.0683818646083925	14.8413657094379765
38.5467892996444235	3.6147334049524220	5.6499451901012625
37.4946243563936719	4.4090457810739467	2.3971276995661399
38.2919784296547121	5.6775374439578794	3.1310726889968077
39.0176408744644334	4.8264250721430857	0.8309873558835348
36.6050495471691875	0.6655466576337820	0.9846312269183466
38.5759863931253122	0.6815128915552646	2.2630522502981356
40.3450071132024135	1.2922092205243392	2.8831849297319465
23.3073279834217963	6.4419530843501480	15.5751431673727438
31.9377787020456267	2.9352007169833887	1.4329629890432980
23.4592845269496060	8.3626892375369266	15.5175650716663629
19.7079617730839516	9.1006487469010953	13.5688084830536315
20.9871347670851058	6.9288029039105821	12.9105773527449426
21.6547184247651181	7.1364200064253192	19.0728776024311166
19.4119681588787358	10.2854571348658883	17.6487323242348424
21.6544083360177275	6.8114697319124415	15.2625406364980485
24.4619077652871759	7.5184870823273444	17.1533097938674324
20.3724370706025191	6.7158329569161488	17.0159707858530460
37.1883760999809923	8.3687772144082953	15.5650912778319768
22.4491813916940863	5.4150850719624364	6.1794264212499792
40.5800754096791891	9.1374560237701132	16.5966857882182808
38.1281667298678641	6.1846522324387578	13.3482882214759258
38.2309295986031046	9.1105905267146650	13.5937834901423553
0.0876833477126102	10.8923310638603201	13.7083292595419781
38.6955396581780349	9.2665464412029053	17.0806634958950525
40.0655446333300347	9.3140071013417831	14.5672067079796310
41.9389595551396823	8.6649109589212223	15.9134021538312442
41.6328415459745571	9.0251945918342660	14.3894681970723717
21.6098768962859467	4.2536605089780091	4.5420684504489426
37.1840388953969168	7.2733018973904322	17.9976810972480301
42.6026662333306945	9.0312031037014311	17.3982440630845474
38.6599431603999832	8.6730027878325959	15.0176757251264945
30.7135526085043544	12.2605626443519817	13.5988326321843740
34.0421417712180130	10.7859527695055064	16.3928056340157617
36.9969974038044782	7.5047175910982302	13.7112589194671859
33.2853931077962386	5.4444067632103943	12.1894320182144806
32.8556543264848528	9.5566021821608214	12.7381946262957584
18.4708895651057610	4.4049913892365202	5.6370157153391185
21.2199076246890392	2.7792469592174465	4.1596133045720345
22.0242028815127071	3.8330394189462544	2.4579005718430960
24.2909869925580431	4.2961559974733738	6.2694768863057941
20.1456123225559267	1.8059042222036736	1.2781653375163016
18.7463224824374599	0.4000204614480112	1.4793967165686808
22.0386521462917315	1.6832792309193476	2.3941141852802836
19.9030659330887474	1.1074233527839554	4.8388171966647020
23.3868760427651097	3.9174890836233094	3.7812335844155531
32.0202691772068562	9.0633361243784947	14.5460769671289079
21.7291401644400111	0.0756082704918930	2.5982933346408932
17.1064476129461127	4.6277915869300168	4.0537993597649429
20.3575821916875448	5.2758779030244281	6.2915975271342832
19.3618376055023838	4.1747428990383888	3.8772048785701010
23.6173262076900592	4.5584013370342307	1.1385753960735217
20.1056591621376057	3.2653129312985865	0.3480795610092717
20.0661560957893172	3.2291042691686695	5.3738677571545876
23.2137685097722368	0.8024834034908087	1.1927657827200615
31.7390667159613962	6.8147044024238062	15.8583235861721654
25.0717020930988816	0.8966372364205349	2.5513043747804134
24.6133392595786518	5.0164077365129618	42.6011466560264651
28.7816550501282826	42.7950597278798455	0.6764511436886078
27.6686893648143908	2.8907417335293628	4.9548437848358535
24.7107304647480746	5.1917168643593516	4.2107920843979496
33.0527400716407413	7.6601917975254192	13.0490628926070080
32.3611680021046340	9.6007991939910386	16.6764921834651147
32.6708752811521492	8.0424280985203715	18.5242293783844687
31.5940044491890717	6.4261979321306626	17.7893039988109365
27.4413883171811754	2.8368242207200689	2.8008240867198362
34.8734118983799561	7.1375566251615874	14.2181576099076565
30.8632512770713099	12.5465115724457323	15.4742423595965022
34.0963808186831443	11.6905047253651162	14.5420879793446911
32.5197973543802803	1.2792526110178275	1.7639063339776844
31.3570644006340942	4.1672800475199798	3.8970174733798535
32.9671977359707782	5.3560742491902662	2.7734128340065425
33.8402096609232643	42.5874924994442097	4.3667168894640254
33.8433473560775724	1.4336679344918366	5.6115632706148917
26.8595281059893516	4.4518596470966258	3.7753960952476344
31.1187643109584791	10.0794854258863555	12.9302053451291208
34.1033225198684349	9.8243267464034947	14.3918996253390663
30.9399436549727831	8.3208956111469625	16.3185848692330886
35.2754679604902535	9.0423039216461998	16.2728502937694230
31.0601455017855805	10.5144116582091254	15.3460913081271748
32.6269088875904671	7.6423052426977014	16.9724918320472540
29.9133274327832730	9.2682920245875682	14.5577852703792807
27.1471891027939769	0.9291592458704113	1.5799295332415317
11.0763175494988229	9.0347385737491699	15.6438725050758105
30.6264835613865287	2.7136792129215763	2.4721901507873474
25.5263350498007888	5.7353762706903151	5.8725167270477208
29.3562175530588405	3.0993985515417228	3.7565203469245421
30.0413494822359688	3.4053932290657913	0.5553460457754600
28.8266606071645803	2.1155072297043924	1.3411418278636504
29.5131865543829690	0.9797194594309645	2.1899391100749170
25.4132761190798462	3.6276584308142792	2.6628558753765836
27.2999430406718879	4.5029842676448188	5.5506090668357437
18.3083051732081081	13.5039408846123017	0.7434071788739423
14.5973385309651373	12.2180597140325009	1.6855670991873564
14.8287389400275966	16.0937245123166193	6.7106601552567833
13.3663538876026688	16.9088449954871507	4.3447649332080784
14.4684287380966712	12.4061336317192925	3.8560724460372175
17.6965428006559939	16.2305803348339381	2.0485789801945651
14.4132570401419056	14.0237352130123210	2.7457950484650304
13.4303697978458505	13.9620020829756086	5.0094473483309665
15.3803410935072176	12.8283023228020809	42.4179965173808142
11.4427589487908818	5.3422260802006694	16.7219707537523199
5.8950748695569324	14.0384370064525559	3.1569129716942665
3.7201122801124420	13.7907605787079834	2.9578530388050237
3.9622180525357509	0.2765626349845973	16.1799249342409190
7.8257211577976671	5.0465044409917379	16.7069090202167878
7.4179887709351240	42.4131760661332038	12.5582455355747946
5.4983178509816328	1.5214867541840018	16.6341755363223918
9.2783763258130989	1.2052849513365189	15.3473028533007643
6.2675490542067944	13.9276875925398969	5.0396647896458466
39.0924432950875200	41.8220110519307084	11.6377094142402413
38.6020941469605532	38.6877215089365833	7.9151343400974863
36.2667883616636217	39.9343588290096321	6.4587514956323000
38.3374339140288427	40.3612779513040749	8.7562073448893045
3.7703025307686886	11.9658677792325303	3.8139539056034151
3.8320926618559192	14.1764919947660939	0.7304041482593803
10.9317199654677957	6.0560853158431387	18.7189470947718490
6.2657426823307221	6.4105185499349728	17.3518880333638670
4.4785031528308252	0.3907165178038319	14.6286052367512855
1.0795618163052425	15.4202091215046782	2.5688294655392272
42.7514984389239743	14.0540091180997315	5.1598711197153015
6.3612691962244687	15.3711328539590060	6.4969001399916273
7.5505297113883998	12.8564182570350081	5.3576188065071770
12.8062593559064712	15.4308831397656210	5.4212494932016142
6.7691468125327487	18.4091398202686314	1.8876338374604451
4.2363036480345881	15.2288356781813388	2.4502106766116607
42.2078360515385214	14.5992428382296335	3.5498155156957076
8.7831037264899869	2.7329531488763070	14.5381106878098230
6.9214566341506982	0.9470693602795255	17.2627085204581583
5.9642822873237389	0.0024912670346975	13.3739654670154717
11.7265279737153190	3.1911839626746810	17.0302739762203323
37.3968199496186102	40.7553853074899166	12.6572809356328833
41.4898594709839514	39.0286106301697231	10.1511174811960423
37.7535322447832726	38.1887125806193808	9.5149285237836470
41.5773446033872744	36.8709411564691436	5.4279103302706657
39.4064050648197082	38.6630624065844799	9.8400263412324041
5.5124401662577576	4.5225377365406034	14.1491304582311361
7.8339065375848209	14.4704967313373700	4.1235652324083780
8.0062377896372041	18.1751056249331953	3.8363677452025002
10.8639157425916082	1.1590573769263515	16.7756508510211191
3.5847780879566393	17.2660564626685122	1.8023341694334161
0.4765207744554696	16.5678081535196533	3.4236733287320322
8.5757812384200740	16.6733745810444240	4.2822539433757463
15.1618951444193453	17.6862145956806067	3.4770273873224880
41.6895134865450885	0.1199918299906748	10.0087890515039284
37.5992357499539409	42.9810091306127902	9.2704712784551102
12.9410230535192632	18.9729597382316371	1.5221771937260293
12.5656102923014199	14.4898210193132169	1.7691501203478055
10.6929543277569508	15.0838781429184934	1.2107825015600286
7.3565158981821188	17.6704141294587913	5.8204536189727696
7.1416565913508459	16.1577894587412878	4.9778686819306719
7.7692896369531006	1.3876313970924534	15.9089092829102654
6.6540518391173080	3.9017130527150412	15.7550518157477146
12.4894903258727297	1.8555729839018669	16.2183614247913859
12.2132723408612271	16.1169268008773301	2.4151588491698033
5.2448038795874696	2.6745562595213430	14.3056935586830409
3.3690568601484641	2.6855116218652189	15.4358405656240780
2.5706310049771299	1.5826574530068807	16.2315114253750110
2.5860205368587703	5.0398497757151768	12.3648323938764921
14.7910203574414769	18.3169378568573151	1.9414791577661024
2.9591795074989942	13.8920007419460649	4.6913628789556068
7.1833226030893451	1.3748363418938887	13.9082176367504395
7.4717878595313616	4.0456520206020441	13.7376499570892694
4.4036676980920682	13.1960347210030697	6.2495721227448628
3.8347915436717175	5.6739778238202172	13.7790759972058527
3.3762692749230045	42.3541281779839665	14.0125589279589668
1.9797536432234475	5.1894059772796037	17.8288859629475596
2.7848096214798130	3.0411658974807869	17.7147148889087696
1.9859053289200808	1.1641540843613818	14.1492653753516464
5.8726369633648199	0.9583543816214992	15.0892471615883803
42.9945299647316972	1.0429372928541458	14.1524067873817643
3.6408252311606200	17.4998557108221959	6.1423344296328359
2.0569888105617995	12.1890828201901549	3.5448097438162796
1.5222939974091028	17.6607721753803837	4.9627446981973131
14.8150411487468681	15.2195194000880036	5.3489358655612556
9.9811786911505020	4.7588867973706499	17.0509815767870272
13.9474182879635968	14.6029503647914929	42.8337446307032010
42.7141738771166501	40.2282741911131083	10.7012462048114436
1.2751049201589144	15.4602023396607855	4.7053769545135218
1.6853163452566728	17.2695733402024842	1.5637682989638728
3.3362821571202357	16.2143640504484310	0.2820455634472003
3.0720806620381267	14.4787443897206938	6.7497290860516594
38.6687703882202314	41.1519666668013073	7.1231636663630411
40.1399584179895257	39.9509703727866352	7.3776174687587099
39.3451541114123202	0.3610056872730107	10.2636176887061534
40.0106826254357415	39.2506787486648392	11.5904009052564287
36.6484452637104994	37.6391567741226538	11.3355855801164065
36.6469808011578095	39.5287901318696271	8.2317799519674253
8.4280079358979787	2.1545414515887109	18.1579003447073433
41.1283050841693196	41.1646502818582078	10.8090358250355667
41.4246660357577241	40.5819927122973922	13.0267198238624129
36.8382557865572409	41.0608876943024725	7.7117397120486375
6.2931851488141142	4.5249536299786417	17.8581553461100135
10.4155163484019546	3.2093865487811493	15.8798436604979738
10.8705558329832765	1.7555039045537171	15.1572486141257770
37.7565334348698514	39.6043686381404285	10.2176148366562973
41.5711687173093623	38.6505194880446368	8.1791211530173058
7.7186195374446624	3.4013468797677384	11.6139915981878090
9.5330355467028500	3.9867771472731794	13.1097287180477693
37.6323379348186648	41.1355724427642855	10.5740959577314761
11.0911596826886409	5.7679840076375379	13.2969243741074692
36.7672556107704409	31.3929925954569811	38.5989860805215841
29.3253672231131297	14.9018777072677970	36.2875295511852016
26.0185206032435765	13.1704141397589911	35.2671774756205991
35.3628328891229415	36.8525235136848579	41.6256201553197229
26.1702197883899323	15.9765086663130411	29.8972464732614327
33.2261247341374286	30.5834435580131654	38.6042958996384087
34.1980216462463602	34.1183063902960555	39.4213722549513506
35.4692929384949593	30.8423941195767988	42.8232649789723823
33.5202089099941389	36.3458306699703400	39.8085238076044092
34.2540521416651984	32.3898605867971341	38.1936963040896273
32.8387540457179625	34.7183248943977105	40.6621494726615396
26.8853323490825709	18.3164186755312954	33.2941236727764291
39.4692452773505096	32.6951222051518400	4.2432680578608997
0.8425915610204218	14.9490543909853528	31.6722638485291874
24.7259275657220527	0.2131331606388004	3.5065238437680852
25.5091645023939400	14.6891379962682382	31.6703735010330085
39.7403253885848784	10.7525650125872723	36.4578201680475402
37.2494089968148359	11.8045196568786519	42.6236110189575754
28.8645279208813719	16.4283390681023747	34.9649308340874398
32.4699770654374689	32.4772560302514606	36.3585433302257499
37.3727874534557429	35.9568014687969537	37.0478085616862174
32.8959756788462130	34.1762852693893322	38.0054073302171602
33.5260373827850842	35.9872831989170763	41.8563146264754522
31.3727938243428248	33.7308566209364855	41.0405857820381073
40.2562328272427834	11.4764656748522622	33.3906728606033880
29.1639748452763321	0.9376051487717554	0.9886241110115904
26.5856764381360797	3.5281286552572881	5.1375904378431558
26.2201538168553121	0.8601483016134421	2.3101708597113113
39.0661101663986372	12.6079148947287702	39.0625873973930382
41.1666931243416556	6.8622221443112279	37.9170536369732005
31.4189345569730989	34.2022453536607145	39.2925550625330260
35.5153696046253700	35.4232380681345944	39.9876608065510197
25.1862530026217009	17.6422624888456809	31.7543782692623253
35.5030660346565696	32.7221890895396257	42.8543327612154883
34.2338549101899190	31.8278018495443433	2.8650662344759157
37.1550750962996190	36.6951366077860186	5.5847364143736877
26.2737964548595961	32.3699282283370948	40.6940129433929982
40.7513224252500450	12.0955797919658945	35.4153604326676401
41.1069387672904654	14.0586111820673327	36.1975158195653108
36.6077381149342571	12.4066161439436780	32.0830788872489663
39.9093178390335197	15.3782761857494403	32.3906288532485007
39.9021969393273110	17.4387778638003503	32.4445903114443297
38.6294683952441105	11.1048204789771727	41.1849290490699573
21.3151852031749307	42.0658368491439276	3.1121401666663382
20.4761833896002088	2.1239390685279629	4.9178746552875285
23.8019491953050348	7.3642696824149656	4.1229618712986325
30.1012374459199989	17.9173911889579891	35.4213863035647307
29.9742458835070202	12.6753763810140043	31.9101867316158447
26.4004005452196715	17.2437046951436521	37.6205472181138703
0.2257402731756771	6.8419876822177264	38.3143008782284724
38.9928413061785335	14.7470749295933494	36.1577885195598796
32.1128237385090998	12.9557381541540941	32.5815080782315931
25.9343910263820234	12.5419455977243040	31.6465040381677234
26.3776666029479330	14.5995696416983627	33.7249657573380759
27.8897128852889509	13.1787764346521303	36.5957698149575847
41.8525033312976760	14.6109555227301158	31.1206717236897887
36.7455702811418448	14.0161640471285942	31.3031040344186344
28.9760922719868219	17.6909548550143398	32.8002869678157865
26.0603810249788488	16.7638396227151318	34.3354271532318833
26.8672410752481632	14.1878474806131489	30.5651272573715005
42.5358782451424489	7.0220406972283227	41.0861595134499069
27.1392513642677535	15.4300126534155968	31.8575835516415609
41.8658079095855342	15.9210491321537724	36.2412757984420821
40.1293741898040892	16.0269737003507338	34.0971892002004680
34.6334099724628715	17.2684862707025495	32.2028322823661668
38.1129420289284653	6.1780342080869364	42.7846995043585991
41.5031525120766176	12.0241290115376742	37.0931755119675302
37.9741866744003644	10.9658529176084159	37.3519607147371602
42.5120647886816485	35.1770907175096710	42.5634387491904107
39.5389103544183413	9.3795403996942657	41.2658989986220988
41.5630327905819712	14.9425345741848012	32.9895023044636915
32.8777611214655749	16.6654189258680496	36.2396899796898069
30.4941026777034949	19.3095616779106329	32.0043262352106836
28.9887367420257114	18.0558657721924725	3.6373364575184666
32.5894888927401922	12.5307830061690222	34.5075227637459250
30.7107169885553262	15.3301236107221523	34.9944473103574509
32.1379185670885761	14.4727957396250275	36.0460315537154727
35.9085722171441759	16.6386557651280533	33.6047275379114438
27.8526849799943257	15.9452770725291852	38.7430315606725486
41.0189044662380979	16.2472705836892253	30.9656375525894916
42.5130659370280028	13.0520237594294404	32.3852634174153309
27.3532277951714171	14.2148002182919946	42.2348964002812082
21.6497535390708720	2.7338672249223057	2.8453868141521701
25.5115373719802641	17.4035327470066399	1.9924908011169875
29.7872314548593238	16.7356866112338274	6.8625267483435168
28.6624617880127097	18.2403393634868749	5.8127465825026121
26.3991134163196790	14.9434971971256854	0.8082977134234542
29.1814032014553391	13.0160260256146820	1.6155292109745261
28.8419192886628188	16.4241855964949472	4.5060095531911157
29.2718440026921982	13.2167949509521723	41.5698945702583984
29.7662825129022721	13.4832188035269507	37.4942847628760489
30.5978701263076331	14.4172252899673499	42.8995647897804204
23.7244439506218221	5.5943854083703215	3.5929715263084367
23.9451424311233190	3.4755878306964738	0.7813038688443332
32.3543415227502038	35.8783194859347816	37.7414301648999881
34.7555416584738381	34.2019924021329800	41.3553587046462496
24.6996731936918792	16.5373915469910422	0.4725858354570658
33.4599882268290756	11.9647805281520156	31.4259476088957186
32.0703010311194348	15.0692425810744162	31.5218725669811128
31.2990840541455064	13.1192921892708334	4.6988173231459509
42.2176501689479267	33.3821783028914680	5.0606721007267454
38.1220741178627520	13.2068821598491848	37.1144255038567721
24.0211394131046276	17.2055796393635738	3.1390089707772830
37.2058766457315002	32.1230254155333057	42.4179423699143356
40.4970820341711928	34.7831800760542578	42.4240491726031479
38.4683422610826966	34.0223410576295393	2.9266236363616849
40.3009072326959199	34.1105713820096597	5.6216198917840359
38.7086458645286342	34.4519233995286385	4.7341710747316679
39.6815252122470952	35.4957912734300223	2.5359343284676181
18.0873662007487326	13.2060291884488805	1.8651526861142163
40.5338511022946051	34.3776941456024971	3.8430567499072019
42.4942082992772825	36.1442306450849884	2.7171536840190682
41.2163929993716209	13.0821996569134544	33.6772879705884165
40.2443782621889454	33.3328226610818277	2.3158654882742162
7.4925594099524515	12.2812935316377470	1.0110816430333969
37.6730209100732196	11.3288785995594896	39.3451423224000649
42.8917743343133466	5.4357936049326945	39.9317860284293928
30.3120784077352674	17.5775395725990720	5.1013625167544259
36.6461992469142714	16.9922537592783911	35.5376778599297580
31.0012912363664057	13.8097646083742784	39.2443441352338027
26.2716806289422493	15.3333513445590643	37.7255011381597214
29.3180665420757762	17.0017835053073476	39.7611634428604717
30.2010352723173696	15.8701643487667088	38.1540415344633104
22.9039425685969604	15.7443618407199395	4.0864914563175816
32.6971822005631836	16.7196637124081668	32.2210616035888648
34.0323784565106209	15.2778750499184248	36.2424608013984866
35.6633582774228231	15.1352839145776024	35.0754884078665370
8.3684873915714952	10.2784379383842523	2.0664772689238826
30.6484623412292088	18.5737067537495051	33.6459780195010936
31.8842046169664144	17.0268404319801796	34.4489693763044613
30.0860155173836432	16.2319554698628146	31.6526923703225549
32.5548153138652694	15.4432386927356511	33.7024472738744478
34.1041700746005958	15.4092991986447423	32.7232709116708804
31.7477476174373514	13.0487048876279363	37.5492876516998280
33.9041427243862543	13.4394201137384357	33.4775503068991611
35.1322970308204816	13.9349847191434986	36.9780899433820025
6.0541378170490461	38.7650399955653313	3.0289475817586422
18.7945917037689512	3.2437449986193330	3.2918511820570191
1.7214373353984227	13.7762632565982557	41.1962992905381071
0.1996557070643871	14.7423232646087943	35.7957583550836560
6.8035695752266028	12.5408875843448460	38.8716405598054635
0.3561666286671132	12.5167815481199867	40.6372188840096769
1.9025759111532776	12.4271091493452328	37.5871622727717352
7.6020239623671699	0.4785831976565916	5.2212658049335365
8.6718305396735555	42.0468663250923598	3.9867488876663550
7.4988159219105119	39.3349350393730290	1.7452672499125372
6.6643725816738311	38.8817797544990427	4.7416220295881208
10.3715534524999295	41.2131293426110119	2.9072417764046223
12.3865746578071114	16.7674078061682685	34.1796007579904071
10.0149813192627413	39.6640851481268868	6.5925118375279030
10.7766606196043035	41.7932260393962309	5.9544383738534732
10.9633391949397403	39.6149573332339031	3.6926705133033635
12.0981000251736539	37.9938177774868890	2.3754915988814131
12.0947105311707421	42.2546526894039118	2.1689558679211558
11.4881340941688084	38.9283959635358059	0.4117888795919304
9.1670529688582008	39.5809436296741168	3.1647743245596489
8.9087575773991503	18.1559490971177127	33.1374978063031307
5.6819219519218400	12.4441767756351993	37.2265617910533066
3.6392743334508415	11.7419146389526539	37.3733094629646700
42.3604574079193981	12.6310325965840473	38.8837144826130228
16.9250594360284801	12.6523317105608779	31.3653018526943654
15.6555556894750971	16.4617913104485574	33.4444570528426297
15.5402376505206092	14.9500274641047586	36.0533366177735886
14.8400148747667195	13.6775200326115627	31.4054576659813662
17.2268223897270580	18.3391063324336656	34.8406181540645363
17.3968335405207064	12.8149521554450221	33.6336958835059008
14.1899347703057401	11.4666290067484287	36.5802972223569185
16.1485275631532161	16.7487025396197033	35.3395416484733857
14.7406953565656256	11.9814269984367652	33.3304671195314626
13.4916523046654202	15.5135477151267569	36.3313221604205197
14.9432310555084307	14.8897932978095007	32.7911197218919170
13.0271396469537137	14.1973304117191930	31.7261348984835294
2.8581913942351411	15.4065826856884289	41.0943850875683125
14.0937243509506747	13.6841544462224363	36.8432224706628730
17.1082565687268193	13.6785257301285306	35.5302405601220457
13.9567067726555365	16.8584620588065839	32.9477319122496368
14.3366578484179019	16.0133383479375873	34.6288371915960198
22.3030250352254420	4.3973137944854779	3.5513450703235527
20.1787026499812079	6.1839554370448804	5.4998041356505389
13.7272768997329511	13.4054950520287228	33.3751617157939293
15.9170785614859760	15.6494069436903356	31.0944817625277707
17.9358262854254278	16.2088642350470309	34.4993045165101222
12.1356115687884021	17.4294221352953436	32.1342348514685554
1.5564142997956327	39.7546478467510056	41.6245271197509723
8.7777580682848271	15.0943579876605725	32.6262487187128087
7.2066743656687047	16.6740710161689556	36.1892363291601029
5.6817002692476093	15.0729197550233724	36.7294321807244870
10.1336556195258272	16.3803178453641785	34.7358179995201013
10.4238938313540963	42.8356019958673855	4.2772202889353368
7.3161247850889977	41.2723891408798593	2.2823426566823519
7.9184631843697977	37.9956440344267179	3.1667964804094426
10.0589633091259731	37.8166388968577110	2.6275698929897451
9.7106398864475274	40.6242170514717600	4.9202948503885731
11.8071826704533347	40.0402890307233079	1.8280820372644737
12.2960340212802031	42.4418327957018562	4.2495378868622078
5.4870348766601547	11.8524986413231250	33.1440933911888678
0.8196563417371756	37.9607466882636260	41.0466965579200789
3.9533759252671286	40.2126491815149407	37.7326312522757377
2.5937122106141368	41.2069930862874045	37.1083771980384611
4.7905748494484328	42.3168686143298132	41.3869743534041490
5.4229529670571086	41.3926568204947429	37.9787721642180287
42.4026763250659755	39.1661023205441836	40.8420899114055729
6.1113879410952352	41.3154470156809097	40.0771724029625034
5.8154562384867381	16.2268121734638662	35.0983891490721120
1.7543487216779459	13.0789756646318232	34.7717110921900030
4.9900246876174394	14.5182700292130278	30.8786958506361913
2.0255553133567812	11.4523327926309832	33.9490904480752960
10.9008113032782799	11.0293206979674103	32.4363339286962713
0.7709974030518202	15.4336306305926634	41.6742239420649980
7.0747098571937892	14.6615479056841878	5.8105557066207973
12.4575629135963695	14.2762191643352310	5.6728520141120518
2.9102675688807742	41.3928742801892753	41.6211973491131673
2.0302922505458336	37.6548782585009292	42.3835136889782973
0.6874406337945442	39.5881583660546923	39.5465634015504506
8.0206496445152435	14.6159196471770620	30.8596908690998966
10.6757195420665170	11.6038486549574653	35.6248497681119360
10.0116983401365438	16.2708673089087519	31.5184639503394060
11.7612484156569135	15.3220737451847171	35.4003999439199646
8.8196596036515924	14.6895947455986935	34.6370665005447620
16.7033469262241283	14.7111796678437727	34.0394384788436213
8.0446290374809788	16.5138856727214822	34.4153259042424295
10.2845853092228996	13.7006890221731528	35.5291253326820353
10.9896476003190564	14.7073989982681699	32.1381158686574082
10.4126299352041922	18.1949790517512398	35.6581976394670193
8.4021422855000338	13.1354335516689087	33.1494523077605763
9.2512052374119236	16.6350946517527021	36.5352288099609979
10.5318700398852787	18.0944588160644066	31.8396819618557814
9.9568559630062996	14.5344199467932285	30.7278379273084923
11.7145471909344323	16.2879278979682596	30.7799710610798947
11.4663026076035610	12.9842640676883967	31.7343574998676772
23.1551799429816612	14.5219931176986243	34.6580330988701562
30.5984005836323973	35.2202816545010009	38.1106608633068689
42.5120766508336629	34.0463139724962858	37.5707746839441583
38.2824396877760478	32.7233533074623963	40.7139731036387573
8.2185883190049207	15.5511876450778903	4.6312678294808993
8.3344120558408292	13.6741977693081207	4.9125125562626648
6.6476305400340534	14.4845449084629365	3.9768014852964910
4.4628909283249030	37.4389866273555825	1.8349923546324145
4.4368422815498167	38.6861286471705981	3.9813985189398373
1.6793087355805010	0.1361443427728174	2.7081257770578784
20.2799425652243315	13.2831186743816669	34.9081653075336718
21.4719509881579889	14.3033923408690864	29.9179545284285879
42.0280766578715941	35.9422706146444497	37.8762988636953750
21.5364679469752573	17.5928788356661663	35.8543993699341641
20.3544544176900040	16.2926655092841806	34.9905441447146046
22.4487071051930265	14.9296287326219268	32.7540730825714803
23.0360802868582759	14.5560374649305597	31.0668277062524680
21.9953642078636271	16.1737893506944417	30.7459992568564644
25.1328247260400346	16.8466662444840942	36.0691753229760081
20.9260530830564910	14.0136389717862979	31.8388583225044037
23.8614292922236153	13.0478666231489537	32.1288498024359725
23.9904157805926594	16.8101528380679746	30.6880733979976128
20.4264313889824294	14.3459910666537365	36.6158660955608966
19.6482189275868819	16.6913561445269742	32.8510670496110535
1.7462255445136932	39.5854812324326488	2.9534458700915001
24.4733476469587004	3.7848743025514304	3.3497878583791052
22.1538057524739322	3.2023238992849379	4.9644684150150278
22.4228107867782995	0.8622189724342266	3.2309227319488252
22.2989926690140798	5.9472904737493781	5.0849757080402478
20.4728699587823328	3.8669102815184941	4.2809722447802621
24.2944272743456580	5.4857100802743082	0.7182153244516782
3.9333549988541461	41.3375768549725251	0.6668047024887931
6.5431241050124829	37.3352930346556846	1.8663755348543478
3.0127869729433541	37.7915634859831187	5.2466666926732737
1.5243727702578960	41.7372605294386574	4.1869614600452874
2.8681877764261809	39.7345930405375469	4.4621789435777437
23.0984406954247596	18.2017090729472706	33.0732552614327560
3.0269412054944227	41.2340317802947922	2.8004057405581322
3.9974748260692312	37.6163271800965830	42.6830039036503308
3.1223475289535716	37.7050274641280581	3.1674927999224614
20.5343298751328120	4.0405006062432900	6.1918743121353685
19.1338270468325717	2.5612659524594510	1.1733004397331870
19.1526730882918770	0.2243991321947974	5.1437271018699535
22.0124344812819608	0.7778983992664239	1.4933243147608297
22.6542427928622452	4.6947426834741366	1.8442821925148076
19.7333266911117278	0.9020309607402436	1.9238301477221023
41.5284853187618168	37.1396818101531991	39.4025132430418665
40.5170441754975670	30.2763823747719449	38.5199342675439169
38.9384105616504357	33.4042615506588447	42.4400853329112095
37.1861080329729603	33.8132894091028362	0.4943119554978756
41.8080548112019912	33.2198819807765915	42.7679701858795056
39.4502345017816367	36.4856251757304477	37.2259289170130145
40.0780446571581379	36.3004365811990937	41.1166417882906430
41.9654205423658198	31.8619095167759845	40.9774508580554837
39.8874975714307851	31.8361957536420412	37.7507343793894989
38.3687732153705596	30.4540680143306091	38.0447213097086845
38.7042191309229011	33.9095420364289950	37.2180391548254619
39.0049253814045969	34.8047181189907278	0.8829962655329022
40.4413270567727068	33.9878607174391547	40.7865903983665348
1.7762156770054343	16.8712916453818309	38.6530640628319304
39.3698047221640053	33.2839407777259026	38.9463890728250419
40.4180250009683348	34.6835976190285393	38.0769686690936950
41.5234881232961115	33.3444089440425984	39.4457632335797115
38.4350028153790291	35.2937684299955592	38.3684861365396799
38.8748860408868993	31.2395212086869947	39.5805803425743434
41.5957353494824673	35.3882573497850998	40.3617106195227606
40.8756613233831132	30.5788370008369128	42.3091619004124837
14.2472977449789280	17.8885932120240447	34.6949256355865785
18.2173332821699212	15.1143881405709397	32.5984563682975192
15.4037695444825751	13.2524058213263629	34.9108404437601223
0.3003325252534734	41.8076366397071197	2.4518742796873099
24.0953483349186470	17.7419173810293458	34.5241917811662091
20.3741583791607255	14.8788704511569811	33.5273225030664364
21.6452704589771443	17.9989827893160701	29.7758766406343724
18.6825526707141165	15.7861315387882790	31.0058102325075033
20.6430704688340363	16.0907377661963054	29.4817311142859033
19.4712175281775295	18.8606163784886505	32.1218953236033400
19.1706142513257092	19.9614036786920650	33.9961163456019122
24.0096849431815365	16.6473742524973645	32.8145675671921424
22.4442312501121677	16.4033414990591595	34.3198005161858362
19.7142774336024402	18.3596712156864399	35.1369516155872219
18.6095072834914674	14.4746997230980785	34.4530553541730740
23.9625060827452749	1.0207880673730572	2.0851407317519168
1.9598443299510562	41.4996689116514048	1.4026680519958619
2.7407330977270039	41.1373434281280694	7.3693105896141899
11.5986461246932482	15.1795412426900445	2.0139071586633488
6.3484538842504277	16.4024172971583262	5.8761273250846466
24.0770902971037088	12.4499276441911118	2.6809098862930911
18.0423284349794208	16.8606075514035965	2.9995535189419607
2.0862137362950954	12.0389544756743696	39.8359263181830059
3.5978585080756971	17.0135800569933160	42.3875615106415609
3.5633282785128912	13.6765978413837956	41.9256909039524004
5.3949081466084401	17.7867704528985691	41.3574453949547873
15.1678951874569563	37.3455530949518248	41.3393801089673758
36.5653289170315006	24.5715494436475055	32.4541043734200230
36.2839201596067440	24.7363336902535629	35.6287367919359852
31.6214526857316081	23.4620894670251872	34.8234025910505665
38.6504191132230730	19.8338724004464062	34.6437913610317949
34.0232211906485915	19.6397614090363462	36.6646978090086080
30.6434232635032373	21.9519518083036544	33.6642020627268295
32.0058855640308053	20.3050657125451117	33.0853931234332919
32.3196536758271407	18.7647414194182147	35.5635364199370301
18.4796527958570920	32.5289716276601126	1.5404458141530375
15.1412400992387255	34.3132171872427847	2.7248416441312022
14.3731670268434222	34.2152458492279337	0.5418535918808377
17.2723594538863345	35.6405017069979664	1.5138219691559411
30.8213829817809106	20.5120587049789300	35.0214303354462615
18.0048991644524108	32.6450717912544803	40.9788127268951001
12.1174738056008398	35.2656922368591665	42.6809837888343679
15.4602091902527778	30.6636779675072972	41.5465466563190162
13.5335025265694657	31.3043422095361805	42.0301092184749336
31.4722202245226832	42.2044662805173942	1.6502769228738632
34.6916991372458909	3.7144446374338265	1.4375293878311661
32.2380368147382228	4.9438360491489197	3.6912883387776687
31.5912275834181244	2.0084291370591996	2.0895164426558885
34.2153210031641066	5.1937484981664532	2.6157352386521162
33.6072888800408904	1.7130368018687943	1.9511127698073081
31.4948670315432189	4.9960427491140997	0.1976251500597251
14.6071678066424813	33.5393989901129501	39.6243379709903110
34.7003534185596649	25.4165726882739023	33.0203847363286229
33.4764913727423021	22.4224099376089043	31.2319352674617612
35.9030324759929158	19.1342322459592467	35.3727927081525877
37.2230114995641941	21.7177663391913605	32.0313870349761487
33.9151971620591937	19.1260048281206032	32.5436575085037347
36.3377160927704352	22.7965555062726644	36.4967887708109657
35.3704546631614392	21.9192327234506479	31.9482014859578491
33.1786549761197378	24.2500079983256782	34.2873994760866196
16.3141320806267487	36.0470282575803296	40.7210281504062479
16.2536736143764564	36.7977263396611320	38.1646310713932806
16.6786349921691226	32.5275057164220414	38.5073874836558758
30.5037654831256795	3.4204100160829265	3.4972883889524051
12.3947731458014374	33.4385363333188295	42.4323490131256378
14.4740094165269948	35.3497664919804961	40.0469648292031124
17.4971372511196748	30.5266434412952066	38.2874360999482306
34.3771574629255099	23.4767637558355560	35.5745571859032665
36.5254830566712982	19.9710884341070027	33.2578775314194104
32.7605924631823697	24.0703287562803148	32.4977458701593989
32.5594462730053991	22.3249093069747815	33.2143493748426337
34.7188774997615610	23.5706794687124841	33.2507580321240326
35.3936996607256233	22.1532254196878249	34.1566131253016678
36.5283682566444980	19.9866024792758132	31.4341933069210349
37.0939000520451287	18.4009914322280714	34.1404130205845888
25.9404692156153907	24.3422161651662421	31.5609693561869733
29.3049912478482923	19.6408192371227344	36.1568275126310184
25.7699693949220361	22.9880679781482478	33.9885869940480845
30.8257707660552640	21.8295775394990414	36.9840381025291620
26.2428375041606863	23.5515209503297100	36.4373069546232244
28.8465812137459388	20.8019760373752831	34.3228546014443410
28.5884506392186175	20.9992793771296427	31.9639132425278696
24.8809162137461541	18.8042678750566985	33.0963843807460592
26.8383419758975883	21.6763049648504094	34.2176287382634428
29.8521914474291314	24.1552891868657085	34.4765071627136450
28.7324138341322879	19.4561492990796623	32.9115013968053347
30.1133261311190772	22.2112386608206513	35.3763268953123955
28.7053591581663348	21.6125676060165048	36.7855747486849580
26.3311857133082867	18.4217081427298339	35.4997886509082505
28.2425420861018033	18.5723065076383840	34.7773625384294505
30.9979410394264541	18.8419764231016238	37.0201310032844262
27.1602908300264509	23.7712902146435070	33.0151759044217883
22.8161994888835267	36.6977908107903090	4.6075017972174619
24.9821814330912702	34.0841115080850372	42.6276659848807782
23.2134976474345009	34.4629643887176300	4.4628219852034920
20.6515256866068384	33.1227720839742759	1.5516610472246348
22.4515747880418175	33.1720788629923078	0.9781897038785153
23.0752070569504362	36.3677278655786154	1.1739121021385790
24.6189461192787000	33.0095836502907005	4.3591298015986135
20.6614564401136747	33.5202354821890864	40.9898013802856767
32.9653754863699291	1.4976400616919272	41.7837112911911035
36.3314588113847563	4.3343628822899802	1.9807730811962663
35.8616061950717295	2.2124760977319613	1.6188687729525124
32.6442520070643667	3.8105642674546072	1.0377632782546702
32.4113115207178240	0.6176829228813566	0.7189421973854571
35.4579058294557043	3.7099181782110371	3.9581695742093568
33.3520215865136151	5.2131630863765714	0.1223651006054174
36.5083901586944535	5.1929649327315177	0.0727664953954503
34.0224165847396023	0.6717590275191251	4.7261732789846791
32.1313317099883236	5.5378826258845590	1.8564157607877179
29.6206042113335570	42.9324050162407715	2.7795087365549898
32.0800963392837843	20.4608254277238721	36.4228612948570643
21.0850890970689342	32.1614463980083585	38.6758690091033515
20.4435236115902121	30.1663318725263423	42.3677251445941891
21.6744547743131122	33.6110956325399712	37.2229261668115612
19.8643667857826074	35.2029295452118660	41.9490775256718038
23.0941341666816449	34.8590250064226339	42.9398760207354542
23.9657363878874357	33.4471554210497786	37.6353985578596806
21.3237139502701289	35.6699022928715266	37.8990547351842793
18.1279071580644313	35.7491706096772504	3.5967564187964465
21.1865990178975458	35.9474630984308590	0.4549176990274132
27.6699897365312140	20.1861344522231718	35.6263562280416082
27.6708961456269833	23.7828575265292130	34.7661308124968187
35.0664788444011322	10.9908095221992177	39.7382711093705581
37.7925679319108099	4.6278317577999823	3.5480964488184048
34.7090133102936278	12.0710080376411568	38.2021126626958250
33.8948607730964824	12.8486445812231143	41.3382675828364015
33.3940894847301522	15.7242358051344038	41.7450562608329250
32.0864925095543541	17.5694459957992066	41.5330319781855124
32.4572037975899548	14.1511559306390264	40.8771169799515519
31.3304490226826786	15.9560842868132831	41.8823880566107576
32.0295719709922082	15.9320778267384195	0.7482122859175960
31.0133986443315699	7.5073509041250537	40.5594752723155807
36.1351977021199957	7.1913375900233616	42.8750964009688857
33.8259206594032804	9.9177164151954127	38.9861894922611754
31.2114156349022629	11.7128146477505837	38.6811465483089805
40.4437112087923296	1.6598012969977245	42.9752166297070488
34.3000834288296090	6.6888708345027359	41.8881385940756488
31.2340824575402074	16.6424340136317319	39.8906278936733756
36.5536218363470056	14.4548276492645655	40.4833917469618214
35.0491358735111902	15.9954840420317588	40.3692238822844089
42.6033983955206352	23.0248302262957480	31.1143617735516713
41.4691636869050839	17.5372661381196728	37.0489646270958133
41.1377893173289451	21.2667781637458759	30.7244724756637169
38.3301092259707659	18.9104278666210597	32.7022643578403134
39.3673401112407788	21.1499258993372123	36.4504547716589684
37.9935714806570530	23.1559534559089713	33.3087678450004887
39.2755392872886233	22.2304168489755405	31.9912303879178168
3.9228363527804877	25.8614017553403173	31.1879873707635582
0.8381017252123394	29.7406762264787083	32.9898121462504506
0.6953851029984818	30.0019532002296963	36.5841645763451453
2.7659997639059108	26.7421339531022682	36.7659962194481409
2.3173188611377413	29.7409571636487371	34.8385515105858730
1.5248198105382587	28.3944782699814056	36.2069350706659137
5.7527828189273222	26.8136366298799231	36.1401288926345785
4.7494736134713191	27.8184070776834531	34.2318748309600878
5.9120479143496514	28.6937055545693802	31.2383908755765596
5.4079340097818696	30.2970215739272426	31.9374167985071615
0.3321908657617117	27.9463744293621303	30.8559044049700901
2.6283906111129771	28.5822091977084973	33.1102768246190493
37.5624416020611349	21.0720387157149425	35.7071885986931008
2.9440953156535890	24.5857263048332726	33.8543073894982385
42.5735386468723220	28.4316799236497744	34.3854567042006281
3.5811032562245186	28.5939544403715331	36.0953478492190669
4.1804018446783369	26.1245553619993913	33.2961990480545040
1.3467474128425596	24.6872602367857255	35.5212498686006413
10.2598499018086926	32.5276602508298822	1.7971035592723523
10.0540393422290624	31.7167381215861326	3.7782453712763129
10.3096132516913297	35.2745185971151400	4.7818473839677971
6.1831455132690607	34.2836853625405382	3.6507825862360139
8.7080818340541608	32.6852900480698949	2.7184335920861722
39.7091050278959656	5.7773648046174371	1.0408686809992027
12.9448834871156517	36.5115220528176323	1.4239115973867322
18.0641079418009234	30.9392283640521768	36.2984081327956218
19.0286566966624520	35.1632143652117435	0.7246474488794621
12.7617482447721340	34.2107914844706755	38.8979216023857717
17.9706519611098194	34.5039759053438786	40.8499152284625850
15.9488802199265454	34.9204836054681351	42.9603315801028174
16.9339297592052240	37.4368840502779179	42.4649782385888770
13.1373359048453544	32.3363518461341215	40.3948282022858294
13.6663666151269272	34.0845723077122500	41.2957942866873751
17.5616642344315288	35.5940434577683575	37.2088526239014072
17.7511173290152406	33.0576133002529531	42.7417558523617132
18.4797190670568590	32.8190687877728777	3.7013862350704549
12.5958464490639379	36.1348491636668214	38.9839658884309443
13.9795035263445193	36.1320805083112049	0.0008515629842548
13.9033312341710040	33.8854724625281918	5.0287958339367611
14.1120421530629709	35.4949686295396205	3.7296128393035266
12.7629401556783542	31.9760585479998518	0.8729031699740715
16.6531535453881965	34.0516836466424095	4.0879446547129712
12.2426295546065482	34.2653606227866661	3.9231521914682217
13.6984313354032334	31.6531589008625716	3.1070795420365704
18.0789021236569312	34.2789584483079821	2.5230520162088244
14.9652704780239514	35.7685693176319219	1.5296287464303062
15.7185291516228673	33.2861473345882430	41.8149525754824793
16.2249553710749801	36.0557621097566781	2.9327352645064231
33.4875110708004584	12.9780818514400291	36.6179630286098927
38.4555843043118699	23.9534491354773991	31.5778635197347626
40.0217574863153018	24.0916562477416107	32.8252463632196694
41.4747802957370553	20.6050018401352233	33.0714080855248085
42.3543112523131526	22.6672600155536195	33.1132913624937686
40.6292418568420146	22.5265430701953271	33.7160502432759017
40.5846476220031676	22.9551502300336061	35.9539474684582814
39.9278173613576683	22.8044087114792049	30.3946346689067752
38.9537065365327919	18.3945480913399173	31.0781745251577419
32.7550836409609190	12.8983763652888168	39.4091910227133226
34.1497996234508463	17.6295888544718586	41.4587910289843364
32.5570392214148470	13.8732267610595255	42.8929161700343400
18.6443366101095371	34.3181404589354813	4.6202652664389738
37.3369448793789260	13.4655107642477052	38.9186806237200429
39.4038838015667778	25.4565732879203530	31.1038522097595909
39.0414158999285874	22.7758532656768011	35.0390060320947754
42.5228158351110324	18.7743322810300839	33.6389887941421932
40.9055927018682937	18.4237872377985354	31.0987712724145879
37.5986641177441214	18.8318281261967542	36.1863689721669175
41.0434758158562474	24.0988052175132310	34.5655016734775131
1.1374709784025743	16.6387200151660295	4.4167046785833159
18.9113646006558120	30.8672088230365134	40.9939844790855901
13.1488115628983611	32.4994504444430916	38.2013920631865673
13.2930956542413750	33.9146921108874722	36.9679336202026079
11.1826627825823692	21.2281315568318547	34.8110315041474720
29.8716043742822848	33.1789463645404652	0.0561821599044107
30.7053774645320452	35.3965039633802050	41.1987207796845922
27.9785318934525087	33.7304163308350482	0.2397031338407659
28.5528209534083395	32.3470044831996759	41.8503346836597103
6.9280552902867951	20.4690748976207963	31.6172087007319256
8.0416503716568393	24.5414500110313973	36.4527212440311459
10.0359295996904816	23.1724497459714058	32.4766416872407078
5.1340822732506401	17.9034997149340960	31.7780407259201105
8.5570064052181465	18.1579251784136311	35.1616361518585023
9.3813373723392495	19.5927337148918816	32.1185447199025376
6.8418689168020386	18.3651909450744348	30.5111307697890695
9.6359258177784000	25.4684980422949003	35.0649100526868693
29.6205565173323961	34.5627123863749688	39.6480354512246222
8.1703187134009472	22.1343648960284760	31.9307823303242344
24.7645670583020205	34.6568499234267762	1.5484084547322170
26.5465715969039877	31.2474833477431631	2.7993076868165949
27.7437329011126081	33.8861139562090656	37.8295736771111919
26.0468413994660573	36.6579240434344769	35.8347366660923825
28.1292905062718148	36.4913440350848646	41.4316362704848302
26.9400955603001400	35.2671433416441573	42.6037249895129193
28.5120068675586218	30.1920608767442786	41.1802764630508307
30.5554121530216847	37.5228993361756338	37.6171577787230191
30.2947759554888449	36.7706037264126167	39.2605314389147111
25.6554002532067962	34.0583902036802471	39.3279165388628584
26.7250389547326392	33.6931228655576831	4.3317794135661138
27.6308663139617998	35.2473994244981697	5.0765992146145074
26.6129612227800969	34.2859306091468312	1.4751051631070793
29.3786248922489612	35.2779470077507611	0.0581152194355700
29.8034837248913078	31.0193661834020453	4.8439808726572942
28.0126396632704555	36.2656682307203369	3.3832200927749709
29.1436362914680522	32.8477877939772469	4.3557302708152905
26.3680016274034301	32.3708426008381238	1.0341942828757473
24.4605620919703597	31.3242490841970316	2.5659606530863517
25.6523582736834328	36.4803654624027658	1.5364812068465536
27.7777231718581561	32.8558249903998814	2.1572407704412391
28.2798164372813723	33.4583472880520034	6.0663720401859491
25.0495840069842046	36.0337375016538886	42.5099388877848554
29.3164604406440930	35.5788881952555158	6.4332615566078815
8.6228711039741643	22.7562349675025892	33.8803850036603578
7.0305086559784353	23.5275266526556592	35.1307836267771378
6.3760725527201529	18.1398085226856480	35.2867479820947665
9.7491575409937123	21.4601835248718515	33.3019127111127418
7.7702440929876877	21.6548167513301415	35.3621846737619592
9.7893256139995017	19.6908583379462279	34.2844397986149119
29.1535994026086520	2.6623447737045227	0.3021572858025801
28.1643704854973898	2.9501909164216986	3.7808385733291456
29.2747397236752498	34.8802700229943881	36.8443909860434857
27.6034474695848928	33.8060804295097981	39.9540921221175438
5.8164776632972668	21.9881893402351736	35.8148627089263485
4.2211666771012153	22.6064673290378479	31.3060194365983016
1.3321169173896652	22.9218487811805822	31.4151302747380257
28.7578113661072372	36.3015173415752770	38.2945734756093117
26.7974809991490837	36.2641750352854828	37.4976490700268670
25.1685923049342115	31.9600828931345262	42.1960300597481108
39.8878115141524319	7.5015478999831808	35.8369790210784629
2.7447934292025504	24.5388410550313409	36.8734140366195007
0.8079175083796463	24.3632900077372447	37.6589205029052607
6.1376237038261898	23.0808961126043677	32.2637000753491634
1.6143683928934585	22.0132702615545170	34.5754421185300913
6.5695383183320706	19.5175209547943993	33.6934680615178266
3.3234738743285051	19.2983899832866683	36.1330072080878537
0.0317029622822206	18.8945682043753855	31.7845946900429261
3.8162282303245285	25.6958229606893127	35.4077482054351123
30.9957105412246783	36.3552112518691928	3.6783146909235960
36.3887622486328937	31.8558196877084576	1.2387241122740797
34.1418179388105187	33.6434084171953955	1.9725401484334117
36.7963103777454279	33.7042471497468128	4.4795432633652501
34.1051413302091504	31.9538355050130320	0.9236098862406085
30.4804779472687422	35.9920459501037371	1.9544908422706855
32.8967661819932005	34.3596362399796078	5.4918764297559575
33.4609612447319762	35.5370325364785202	3.4911865007708047
32.5320586713514146	36.6951434327884343	1.9656290719352607
0.0328669480231198	20.5305516839158031	34.3120505067905484
28.7014224113089504	34.5216456756207180	41.5049568479280424
27.0162300601939513	35.4400061143549863	39.1346324577215796
34.3454247578454144	34.2251783229120363	0.2631592939551219
33.2052319657346544	32.2143407632361658	5.4981428374014456
33.4814396216325108	33.5602345549028698	3.9452808733003608
31.0061003982086802	31.7825296344790935	0.9903553693189766
34.4775576618402724	35.8505527651237585	1.7260498872775025
30.1266363243789925	33.8568241335074589	5.5259005519029225
4.3543952977520570	24.2803583462548680	32.5948353723949324
4.9206989912473125	19.7395310420348906	31.2793158895063925
1.5675682685184427	19.3639167890599211	35.7068381922599443
24.5212620439088091	31.1330837016815387	5.8109625870936634
2.8600933344017525	22.5951401299939043	32.8585617069477749
3.9746068707587572	22.7366637081280061	36.5402662309639652
0.6383214208820982	24.7322699661301826	30.3647479818503676
4.1402910518487301	21.1272656754462922	35.0978177358530985
42.4608196965270182	21.0461886088971113	38.5027040019503275
2.5997890809821635	21.2899216915662421	36.3206386726538071
2.7278144551000478	21.2509994658405326	31.5219766820598153
1.1020951752368806	21.7836429209264857	32.8330555505532899
4.5289367196049994	21.5468498697878843	32.9967342615788795
3.5873178548311500	19.0477218543558138	32.8227578452924007
2.7846192200898980	20.6645727683728850	33.7064218046934485
20.8797102621809678	23.4615132235655999	34.7573512254631325
24.7171814025119048	24.2413584007683127	33.0238557273919042
24.8611165305943160	22.4641776541246116	35.5767757934739777
21.5214244366066261	21.7874711190563133	31.5550841061727247
25.4117225908465905	22.2910692212791730	32.0920449732003448
23.3989653957745531	19.8064768719998447	34.1548368211593427
19.0187773821058279	23.2213667113815312	33.5931292938279782
17.7357123235000316	22.4546576761662706	31.8011040281636639
22.6624857906608064	22.6459407962108692	35.2709834050369864
21.2288708305138947	22.1388216487759948	36.3768178881062951
21.3981274747877670	23.9929254620020593	37.0427461019357267
20.1261139644752767	21.3235944443693626	32.9302143876115281
20.1083740959930637	20.5362498693951139	30.9387251817612388
23.3748631905850388	30.8727399732451850	41.9013257172241609
24.5395189974472494	20.9725527282613839	30.3012454954320383
23.7467905735652351	34.6193772184872373	39.3425778704304676
21.3119555678483508	34.2019815816002151	39.2384592655611755
23.3459595003354679	32.9282331760897975	42.2803077486573216
21.4314756301220513	34.0023489507828387	42.6831288719192372
22.8265797539924726	31.7969228261971182	38.0407015763154277
22.3802095538747530	34.5589096413544610	40.8392004055410283
19.5815999214209029	35.2814837138742305	39.9627471161639960
24.5165493062660040	33.0608917314109547	40.7220320141610586
21.9306545036730398	36.2230068706550199	41.7568055361507859
17.7896138346776027	35.8391902185982048	39.3009295832389327
39.8276540125241638	7.9579369968928670	39.0133746678600559
24.2178620789777845	31.8630468633082238	0.7455217916901973
23.4343061680614255	32.4919098948885505	6.2996663322848603
25.2456304432137664	34.6147763754617657	5.2760651758790322
19.8153277526197726	34.6782564149745625	2.7254764778598921
22.3276480370373775	31.8026861999153070	2.1052646763216325
22.8356606160601139	35.6487411132938590	6.0890372403526634
19.9903069261522717	33.2824975819083946	5.4958859085732579
18.6856908392964982	35.0388434128355541	6.6489769095687734
20.4946793971711401	35.0074744675651246	5.8139809492153729
21.8227432124957588	33.6687553020860477	2.9596951795952053
39.8883391411298405	11.2457181535306230	39.9037189964200962
19.6474229308800830	32.1077410261775569	42.3017742799123511
42.3184742634545046	11.1099233422647572	40.2688624875941272
39.1708392772595460	9.9194044170192477	38.3635350895679323
40.7394599541682965	9.5234134271339101	39.5135155961377720
23.7850324033405371	21.5669906693811839	34.2374486399661535
22.1489847712766270	21.2216247931598438	33.4869808758714527
19.7562459221962605	21.8366943408525316	34.9501627122383596
19.3203064819910288	31.2386183019097246	39.1002444481758218
21.6050287763094815	31.9321513390003311	42.2339089579348084
19.3622468824536469	33.3112385379909668	39.4186795876517451
20.7463622325800223	31.4891617321993493	40.7029651442515217
21.8032124765588513	29.8340201288403435	41.1156965079744268
29.7645187155609854	34.7255144683841834	3.5754639148016136
18.3495171381490820	19.6827556976663018	35.9654243864000591
15.5630959174219381	18.3609398865363929	33.3936045776555304
13.8779306542978702	19.6812450626773554	34.2036823540888548
13.2327605620207915	21.5949722134267184	33.9535698161191775
13.7193938047064119	21.8177891781563282	36.1028967883249265
14.1186143185998407	21.2119218132643219	32.4385742578215215
15.9994430805911723	24.8906515467610383	35.6350861576366711
28.3234654192504429	36.9834646196966474	5.1287359956579426
26.1078023602716343	35.2782790225682845	3.2184984247899258
25.8771036155057672	33.0481911132922335	2.8098116189976685
29.3912860816790449	34.2827102935821983	1.6153981622821305
17.5116171235912432	21.8112999069983111	33.4763204666232213
27.9101528596193873	34.4531296986118676	3.0000853506486025
41.1337112295871066	10.3271604241041643	41.5166468905093424
40.7495277805640583	8.7374676246572669	37.3536552705086962
30.8430805515438458	3.5613299895165040	1.4359809499471050
27.6338520536857963	1.9256932928909076	5.7397607914191067
24.7201312612326021	4.9733011958379567	5.3920083409074380
27.4258907132459484	5.1842424014574000	4.5074083689656668
26.5861810068324900	3.6970466706201903	2.8627028328072246
29.5255123871436602	2.1806746775300088	2.3400102995030432
27.6127542485649435	2.1066529887504490	1.4897020670801018
26.1331266867706553	30.1756608623039142	4.5405310528451492
6.1957885063640887	12.9908328171044776	2.6235271921641719
18.5435242858261553	20.5576182006927404	32.0576103575392963
19.5311100734746219	23.1662701179242028	36.4347974055865294
23.0852059043706994	23.5235634806142109	38.4217085341952824
22.3980214499525232	20.7151679093411474	35.4151019492914685
24.9893510391055571	20.1494982361439412	35.4819387747065420
9.4140344201324542	11.9788425863219761	0.0851341610810960
11.4755072562957174	17.4591734649011734	7.5970301614928868
7.5445526274210231	17.2837045162377159	4.6526594657316762
10.5715936855770352	16.2005543207243683	0.7076285262506543
10.3794023075300892	14.0165585959359706	0.7662760200948893
8.9947356258789508	17.5215410018073499	3.5801612842044457
36.5517346609035769	36.9156027583694097	1.6984918034084269
6.5707881642536918	12.7018406313254939	4.6588747375183939
26.0718722055559020	12.9715079534696596	0.2373534550793638
27.8335122730093083	13.4963459628831846	40.5719096140996598
29.0803156746768536	14.2986529079911229	39.2990466748867888
28.2297738254160500	15.3987046726848860	40.6684988156058580
27.1276759062940123	14.1338130638301838	38.8045498170093808
25.9286728082642526	13.1778514061831036	37.2912450567147786
40.9577417407152922	8.3171965468450235	42.5553546689381719
42.0239280233586214	7.9675555228805752	39.1701562964262635
41.0841827626994132	8.1912187600350101	40.7330644522968939
15.7183888071167228	19.5717144478884393	34.7876349611766145
25.1279263533307393	3.3588891916015160	30.4207644125756325
38.3234975582148039	42.0674592158559122	3.2511646020229361
39.6914130564421583	36.6185088628912041	0.1165552188730733
0.3533211869289039	40.0074415597301538	1.4358488192757060
37.5547955798395847	38.3454601591513153	2.5200281168393373
40.2975357261817990	0.0105447139047641	5.4000115630839325
42.5681369478404363	38.9632722931334570	5.9280377232288846
39.1479906382578946	40.0315719778880066	4.5928297910631546
39.3751240445835364	41.3790293015074013	42.9488110078325320
0.1886328996468329	42.2360276821228524	5.9395105586497161
0.4897462203906001	38.1055695433913755	2.3527662709684711
27.4910930648265008	4.8068822000212759	33.5385380523892707
40.0326482975412645	41.8408896890774571	1.9785068535729728
25.1561188792436425	0.0463653139139129	29.7504998605181861
29.2242512955105767	1.1386390139157438	36.9691659148378733
25.2106442534478461	1.0786603204186354	31.9683704909038582
26.7227136655533251	2.9994015083585603	34.0421130325835080
25.9594078178611873	42.6198722045760405	32.7923237283317306
30.1802864179505228	4.5308936710014089	36.0043821120408651
30.4271480129751204	2.5561614454471888	36.0059407772344571
25.9684021314548694	6.1565930967657954	33.8632636234839168
28.3991481298487791	4.0620978579364442	32.0496640272442548
28.2116998454327046	2.5151386145236012	33.1400931317610983
26.7600232093565857	0.8634455188286527	34.0818412369221377
29.9284859493414643	42.0826722026402180	34.1779823203754631
28.5599793819195789	38.4649754532472556	42.5379479568956000
26.9839940892911123	41.3478941675547276	40.1584255542221271
28.2955097045235249	40.2782164224232773	39.3144739339617146
5.3934650186581719	6.4053391687094070	2.8402990011056186
7.1636466924782978	5.9825013275089223	5.5769275880772620
0.5364811242838168	5.6236130680487344	1.0325012884841682
33.6243436960598672	3.9901064571397611	31.8487625408472432
32.0870668283806495	1.8583119547332851	36.7362372675476081
31.3708445825144260	1.3917444640896639	32.3406533282380977
37.5696552964513657	1.0364118791148920	30.2222532703052131
33.0725205932091910	42.8912866370736054	35.8586822056542474
28.9024348292087865	42.2525628333100016	31.9578673179553547
31.9296471454422246	1.8616179634792946	34.6051427828800371
29.9450867836378478	2.7597732423213226	31.5316624543730768
35.7966655955414623	0.5068858466342974	36.4979325616663530
34.1766369776273891	1.4904524378779831	36.6337135684182584
41.4324572935431661	37.5891662973685641	2.4096140376648618
42.9637435238809928	40.5697338750345295	4.8931576786515638
37.4161995060637764	0.6530091005353371	1.9082513479520051
38.3096893789338537	41.9506998365524808	6.2520256640498815
37.3721412673631903	40.1824147323208720	5.3861115441635290
38.0815543769438563	36.5599875927126448	3.3522543292658105
1.3109317253592516	2.3544247457835139	5.2736055189663755
15.7592298181115229	12.9451279980463685	36.8795357333671845
12.9000795478160608	16.7177520892751588	40.6472880516693920
18.9509158055206122	15.6984157910668447	36.3149943602970424
16.1420260395826283	13.2070104257334666	38.8832201129105641
14.3907761145766653	13.5566448988101094	42.3438411323569639
42.2248023524150398	1.8790021230752705	0.4582370757666461
2.5218227141850731	5.6407973108124221	6.2587289362159257
5.6275088692842026	4.2979824895718561	5.8113615433559973
2.4847079288692679	2.9462838109191267	0.7206658895868822
2.3892129681420542	3.8834718269786590	4.2527636452340838
0.6585980090731510	3.2466430601700549	3.8149208911285384
13.9534385942786141	17.8344487755410164	39.3725399357987769
2.8383402198290204	41.7499037451885613	5.6504912075782290
4.2234789285704988	4.4640244783986720	3.8613159124729273
20.2979427119175888	1.8458462825591988	33.1327895498405312
21.5016767587088822	0.0197641648719758	33.3831551290011390
22.0984950313841360	2.0408631303730811	33.6433960525579963
23.1457808698908849	4.1256112778793561	33.3934047105034892
17.9516554501069336	0.1315128556341277	31.3179313450245118
21.4910673674454387	3.6211657632039911	32.2240169155999610
24.0176804205795094	6.4892591640142276	33.1091131314907869
19.1194161069763915	1.5548911932353011	31.3617600165116812
24.7643147234671872	4.6766783835795849	31.8178853406391795
2.7328642286866556	1.3421847499221431	42.5588352172909481
24.8616127002100278	2.9484259206350845	33.1136533132040825
28.1560676271319856	42.4261561070701916	34.1380347065694636
30.1188568532632424	0.6411531768567277	31.0655428378919893
24.7083747073450830	0.7547444533609153	33.6522353173399580
40.5509027027891733	38.8089780119000025	3.5392270320871821
36.6318077071139285	39.3244926262861298	1.2864110016005517
41.6945913897169831	39.6902852484759805	42.7762411739167163
3.2067733205852451	0.0942844899244643	4.0055102605301300
3.4171955646498198	2.2200026467608565	3.8086973334956098
6.7438773737226940	2.5856677930565097	5.1666508061201064
42.9334105402256725	5.0039279215038350	2.9776459259841084
26.7183482075559375	39.4614896948802070	40.1519404650682503
1.5466921870026193	4.1825470989886444	2.2536630120560415
3.7393547196198695	1.5590725041068492	6.0110957013354369
22.8504904156674016	5.1568524245937946	31.7911958992221351
20.6844302038148840	3.3762674190216559	34.1701245100475148
18.1747569666817448	0.1333081630139236	34.8349071538443980
22.5145143321853958	4.2290848883042438	35.4261792103220188
23.9564029307900306	5.6069220535384252	35.4377350619843980
19.7588564364503370	0.7062305091238357	35.7085854506451241
3.9375388233199908	3.9396125289859194	42.5073582866673263
16.2850254151845206	13.4759896356623265	41.9584198499581333
21.9366866053116460	15.4551977970667096	38.2839316705150523
7.2623887795885631	6.5972406348103503	1.7602698472322640
9.2422445834112708	5.4402646149461242	5.3911132690293515
10.3363629765450344	1.1432815661744951	0.7043136736152869
8.7081037487110216	1.1228108008447995	3.6806481257415293
7.7024523364806150	1.4393119899292846	42.0964627556177362
7.5028350549440672	4.5748318357920281	1.9977810203178463
11.1352354616174480	5.7720816712603282	5.6445837293975929
6.9026825598375563	5.4420241765417563	0.2873109340424356
11.6503769641277515	2.3751507151502338	5.7442374435622066
18.2276206453281269	13.0955736421414812	42.6286139316293955
23.9063792026072583	16.7163184068721371	41.8007921487300038
19.0822669813427304	42.4222901103551493	37.2845451914763260
18.9168549722447956	16.4507098517999104	42.0688472876111135
23.1133249001759928	16.6432819146180435	39.5873565890554957
22.8950943735017987	13.3233528107740025	42.2047497001891472
42.0666160935614002	1.2931991632334574	32.6950690986986743
37.4866554334091973	2.8489377448088908	33.6190880383419923
38.3885014171428338	2.3177456009513442	31.6826882956881626
40.1765862905524571	4.2933965314107700	31.5069696703062441
39.0840917423293988	3.7270891786635847	34.7234092399206915
41.3778676139719153	42.7466583875441657	31.6944536989873313
42.7195325474095924	3.1299617809311071	33.7641511941363675
40.3737251400955586	1.8828681447599680	31.4950719181930729
22.4832341660236530	39.3551750425768816	42.0653697072427946
33.7656485345727333	37.3860466412514683	42.9987648530938458
33.4657365154727700	41.6109643287334805	4.8933132337346210
37.3746542217363924	40.2306550595547705	3.2847354762899128
19.1293198138178155	37.3996154238963356	39.6457969015098399
20.3937944989430981	40.7733524872780109	40.6049823835343346
21.7091042935073588	39.4419275089853656	39.4578606942401962
19.0848897540260189	38.6145406655002787	37.9295442753240337
20.2309408991263879	42.8253548754421516	40.7166309816812202
19.4667232311438525	38.8087853900157427	41.2257298007495692
18.8428842797921519	37.5397841100788625	35.8670244827647693
24.8541723077526235	37.4759835371784149	37.0602321901874845
0.1030602919624968	0.7610625573792005	36.0421547215044669
18.3525600112510858	42.5713317243394727	41.4236599845288254
25.0080697879108769	35.1907370591645403	37.6703872177391048
37.9871691942295513	5.9158450763054153	33.5845819867919033
42.0095507414744205	4.8331450630767767	32.6316682825876896
41.8178920495214541	2.9236457626233636	31.8797062902478210
38.8730356993567767	1.2328111266820909	33.0752813996008044
20.9144658544816799	37.5859755774781377	38.9357893289823522
22.3229658439413576	40.3326561212934678	37.6465095699781216
21.0944856321524874	41.3871626326350182	39.0310564642997306
24.4590666894407320	40.7364423886674913	38.4913740592071605
31.2556677736745350	2.9282114748725281	33.2903270220214864
40.7585174296506594	0.8805679727364971	1.7620770670679162
39.1241264810099665	40.2702273805308764	1.7692393402510824
38.4198109255112712	38.4168569245534712	0.6593261595089814
41.9701667575394453	36.9313447274695861	4.2374193729279739
40.2341142840993484	36.9382538030277416	3.7004192122392219
31.4400390740559210	3.8095895434258962	37.4012515732480040
37.3733761893169216	42.7870407509474759	33.1561825409372375
32.2804519601630489	0.3519551300332047	30.8239260137933080
34.9337671587442671	5.4871019583976572	35.7002484104033257
34.2622958948621772	1.3274739184259048	34.7682417626045819
31.8997727902373249	3.5422277992321676	35.3843625533729309
38.8298686142219935	37.1699084810513511	5.1356911689331204
34.7075131053887773	3.1689051117933240	35.2337267855884662
35.3544126030258354	2.7283919673669490	33.4244591707793930
34.2463254443306866	42.3425047401885664	31.0462706069622527
34.8076418614943037	42.6438492447782593	35.0016818281708240
35.9475988333794305	4.7771166751179335	34.1969069147871139
28.0523703159048310	40.4426006124251742	41.5053031084910273
28.9600550385541951	42.1671947575642747	42.2794304117213571
24.4937658703462873	0.0089295194160357	41.8878404345432429
27.2516028746482810	37.2775505519557200	39.6114710331629212
28.8186546660108647	38.3147808858068402	38.1762329538043588
25.0154861611323049	40.8761534922156358	40.5269669897038440
14.2655199206785444	13.1954591714368910	4.7118665159049593
42.6367195537253352	4.4868697817908068	35.1804364476771738
39.7644972335944686	3.0959616894538624	32.8168694656106155
41.0265861498246380	3.9339558276254420	34.3035940254280618
37.6434551767072989	3.1214270396177053	35.8152750388411505
40.5154565283965482	5.5979153826243504	35.1154915834764836
38.1825212740567466	4.6199914810989569	32.0411324285581500
19.2163998264687770	12.6015205384369775	40.9554196501048295
13.7839515593069137	15.1241578354957191	4.6806892430326377
15.2195214037444906	18.8285309338980618	2.9990100783409761
14.8816331760406353	17.0992201628726015	2.3663333770787389
13.5383885006362359	18.2999537717689975	2.3212009244762770
23.5084030003868918	3.3821187200677008	31.5977596094083992
14.0225492197266934	15.8391308513777105	39.4404274187962116
13.8630887268562706	14.7271168159493104	40.8538532128348848
14.7717079919270393	16.6831959270918411	37.9003776410263242
18.8379215854161188	15.9188666598876107	40.1790962783884780
1.8796710597329280	4.6584162950431223	0.2528923995298199
1.1358949077550518	1.6619585000664723	1.3223867879111666
27.0671569141653663	42.3780944171925142	41.9850465247351963
40.8553678433809324	37.9576065663299929	5.2779142109611437
40.8796482692276157	39.9078616818358043	5.2141079476971424
39.3610462601706956	37.6539454783241112	2.0475089981837988
9.4144483400215382	3.8988136697727005	8.8942771726150660
24.9449006371529975	14.8314712286809964	42.7572704274096083
22.8319249423003434	14.4079737077297398	36.7528310295784379
21.4285779355641850	12.5578279538115307	40.7884891985769258
24.5101745190015308	16.2947664456282020	37.8416460018986101
19.8675886228525975	13.6006352214423938	38.3324829435712715
20.2544928880992785	17.5253183274969935	42.6829653634746435
24.2819765442556914	15.3279114087444270	40.4641958904138193
21.8781007497833571	17.4515161942961150	37.9985836805607633
18.3628167353048184	18.8721821128253033	37.8161828627865262
7.8406368065097505	2.8188897453922195	7.7467611358937676
9.7162953443112379	1.5608264313227653	10.6169425178269741
15.3126197173338525	16.3012153631813348	5.5472686628427468
7.2106298406383651	0.8772967893315236	8.7591808196028609
5.0414564545201177	5.7198736899360147	36.9820935714428956
7.3642650114134849	0.0134565114511861	32.2860423810147168
4.0267659010979413	3.2788452233767655	29.8299001962294490
3.0697005136000475	5.7941306666793304	35.9579336743816427
5.0322844582995669	5.9838605223502617	35.1428108751087365
3.2396536356884851	2.7025598833716589	32.5902180704963982
4.6304849852412104	1.9736916381916054	31.3837922879496780
0.7283735302236312	2.6121282201635352	35.5529544808397304
1.1571227753751010	4.8915857771911178	33.1926127715756465
2.4414339273447401	3.7322441399292656	30.8696177742610125
33.7740704916775343	37.8113184977744794	40.9677619842091332
8.3284885625842229	1.0745976574461742	33.4750990493691560
8.6329222912475920	4.1027188619664612	32.6754327694624322
7.2310799667893884	5.5205173527256513	31.6441140942403116
6.4827345828293952	4.4683196986327092	35.5975031970701536
10.6049570325528144	6.0287119998308212	32.9038513866070232
18.2087555170417197	16.0376585624722026	0.9426959864893308
16.5275651977054210	16.0893295342354499	1.6152437431452236
14.5865841963411143	12.8306147266264894	2.7229753203150571
32.1032386991247520	37.9407563660900635	38.5220268051444990
34.8357215393827317	39.3791463452652124	41.3887779830064986
34.3821593068215350	40.3337751218069585	38.5193734681200866
5.5835140623460342	42.5605788357381982	32.2141923773216874
32.9547622192165264	41.8384677038823227	38.0645420302435440
36.1663761920725761	41.9824672477293461	41.6093925593732195
34.7365524868367075	38.1853867943585996	37.6106190459400338
3.6305540491977473	5.8783931920455492	2.7363413612464074
6.6397231007734074	1.7434083221936361	33.5844820280173337
8.6389540404809715	3.9383617493631902	34.8675798179898990
4.5551891199388832	3.0606158716152052	5.0552910818778551
12.8765242702511493	16.6384328974234634	5.4278846457171346
13.2559737292524229	14.3889761487039838	2.7540098150504861
12.6980571269426363	16.6306056608858626	1.3821274989491203
40.5120435919726773	39.9374069730177155	40.7603982176108488
10.4003145335325176	4.8549397866800996	10.6878062407606453
11.4808016934526833	4.4274680415052572	6.8700677091688407
6.1833384561215574	5.4847152293395665	7.1451938683670999
38.0632727683164447	36.7688983219340244	42.1480249887247780
38.6766604738147137	41.6637997041521260	38.1279355936491982
36.4566213772565746	41.6256522217304550	37.3438143289508417
39.0109512062795716	39.8440344305731529	37.2806481890782280
0.7205558234770445	41.1194224762529217	40.7070703312979489
37.4400812861442986	40.2576552034598478	38.4771457502185044
42.0440375608464336	38.2611486022054592	37.4694356871148599
38.9618482916313056	41.1962864689537085	41.2295844156540099
6.5567182533598212	4.6204286914897486	9.0931046500100443
37.4328225304606619	0.1320298337002015	37.8127462572422814
41.3882916517836534	0.0721983363221558	42.8095536317205898
37.0466726187485023	40.4241014757174142	40.6280509161367149
40.1189352462679594	42.9386638345705691	41.4069243996180347
36.1833255242407219	42.7922412462950987	0.2376750161995706
0.3122288840095756	38.7788754463819458	42.7801321099770107
39.6399335385949456	40.5276624822508680	39.2090057275273267
23.1209747593636692	15.0518662676829660	0.0905593706695736
18.7610401799137421	13.3194590454908024	36.6331312325734118
21.6673562052092912	14.5505835787900235	41.7918141360157165
25.0684745810588332	18.5860672814243415	36.9446774725718186
21.6351769431674050	13.7901274648958143	0.6353766025714239
4.6363567092671980	4.1199472892668467	35.6667145560831571
1.4323521833452904	5.5368711054797162	34.8829904643126980
2.8626139250479485	3.9439434453414237	34.2060878452842516
5.1970914003782323	4.4560222271597523	33.8627260553301710
4.2678119217424930	5.9480559752023243	33.1646100686610055
1.2718644958156922	4.4431131722126587	36.5634701599329262
4.1097460173258726	4.3538744683748218	31.8903956873305354
17.7585219503463598	14.6772685909495024	41.3761445257820171
18.6017614767572468	14.0418964237901154	39.8066277422585841
26.3244152444176294	14.8586028537948547	40.4322096193101288
23.3592984408872049	17.6213064552249037	36.9232381031944499
6.8457328073874946	1.9661577160929653	31.7335113857454587
21.1489579218889325	18.5261011122148176	39.8264724729399333
36.8702516689646203	42.5316744683229402	39.9081812093488466
41.6893806164341356	41.1854324305812014	41.5506178092864573
42.0333601577923517	36.9734282880546203	41.2826227024120129
41.4503145427235040	39.0745938178314987	39.2245770375523861
5.1350902303417669	0.7940442133639367	34.9325053546353459
3.9777512826841859	0.9573945274983714	33.3360869007025897
5.7527845372296991	3.3340952821023162	32.2337874486055469
3.7364592338918938	2.4476755780340604	34.7812965266340370
9.5306056840138140	3.5025417484966153	11.9750328899838934
16.2018010130947090	1.4132809041530219	32.7609438506129393
1.5837020998010907	6.1195396820159331	9.4519081446912558
3.2861514127847498	5.9775739193313262	8.3760105243682474
42.0745247445742621	3.7356826195892996	12.2755974548297235
2.8588979250036926	3.3072715303225673	6.5836648445806762
1.2475230153066883	2.3631043640370430	7.4987262332390934
16.9445914258087491	41.1646456169970136	35.6742206478678767
12.3637071834533394	5.0636040257215669	33.9422575139800884
15.6353758948555761	2.4785231804395993	34.2617722545038106
17.2208716404656421	3.3997407034024159	33.3595631587748755
12.6449844021332272	2.9539382508019938	35.2366367731138226
17.5422895859918597	4.1130075621157696	31.1016871316915200
13.7892227429170262	11.7685907282830158	0.8910111820383354
14.4010646730584106	0.7031416870745298	34.7164174557535787
16.1016658155307972	2.8535441144266036	36.1503961445388882
12.3644114835805343	1.0909192254833371	32.1191734852555300
17.3432368771973451	3.8182933020137528	35.2565863173463043
13.3518154754948046	3.5083831110320833	36.8230838329271251
15.9801493216691366	4.5518261428136038	34.2202410869275582
16.1764527733956207	0.3990202913517923	35.0480287598597684
13.0978243046278617	42.6774415775634068	33.3663612072616829
14.2760647439964750	0.5582883403509941	30.1751959461919768
17.3303795304256205	2.3427984190297098	31.5639229855383654
13.1171082050028662	1.5068354981759391	36.9541015883641037
30.7734016496338505	42.6651114464688632	41.1383656708471790
19.1943138044376695	2.5796328783399991	34.9440460968744020
20.7884403210381450	3.3356442622629063	36.3076080102728369
22.6243927696628617	2.3082799147643809	35.7265564675736016
4.4027683818939289	0.3591187315292801	0.2387155983148964
0.4670918584098012	3.5618186802389533	0.8075565277620839
32.0194180705519500	36.9336873553478782	41.4359909648503262
35.2698119228793274	37.5116186874602633	39.8881266612905776
29.8997359936634446	37.3702894358291147	41.4411013216542727
34.8902595746861692	40.8325143110058022	42.6370838851422036
35.8116319034481023	39.6444084445798097	37.1983457114867164
33.1150777860619101	39.8902500683799630	40.7062902787898011
16.8599479762709485	0.5094954311777280	36.7904138723716159
36.4907240178597689	37.9700146428165723	0.0930835327635539
33.8669913762962835	38.6134339826631319	39.3449379091933693
34.8463863175291593	41.3250015113914984	40.4263044018482987
36.4277832136215594	37.7465606771185875	38.1420147862723766
30.9622874338775347	41.8447710975995548	39.2371296733011192
32.2592075216940160	37.6500427720130304	36.5570261063289621
32.7346375850030000	39.7299494187459956	37.8316592682584911
33.8831203547291864	36.2096402019970824	36.7134541322472785
15.1349583355631427	14.5738421539485010	38.3243185364458654
16.8483505878799917	16.2239516434412145	37.2338356233910801
14.8869809631804522	15.1548599285136412	2.8433611091013242
5.2276307647643261	6.0285058221036936	9.1632900341367609
0.6380122465189478	5.7434757769803833	5.7249277925877262
2.7225728561019191	0.8264968067440862	8.4006323202338482
4.2335946404245242	1.7629224955826737	7.7314932801288689
14.8448322355077256	16.4796102332363859	41.0014303160238498
14.2610592027512801	15.8309172509405993	42.7951615014101421
14.9073328578276687	13.1336571485349154	40.2055276012455707
16.2916936538618131	16.7619173201221727	42.4967274664554751
18.4151201711894750	15.0348989227330136	38.0925978729573202
15.9320153484472886	14.7668833632871053	40.2151479538192191
16.4257761672388796	17.9247669909408849	38.4176045422910875
2.1363758369285102	0.4450426575073634	10.3561412483591795
13.1127660953441243	16.3677771062117756	3.2234144975205594
23.3103124285972605	14.4525194294831234	38.9985037748312848
12.6534947846388430	18.4279719821989190	6.3980791666738570
13.0905430651177888	14.7747251861033000	0.7077026595752675
14.1203056948022994	17.8089602423523772	4.0952865942143921
17.3732543686482472	16.7813720260269399	5.9963208163438484
11.9424484853521502	4.1612057208809698	29.7110312664703855
8.6152651684575563	1.3231704934558828	31.4607828563389873
9.0849207311863349	2.7591934787211310	36.7050178459685839
7.6215578526504340	1.9784044896022350	35.4575021824425960
14.4751275763952147	3.6536106225931770	35.2520237872143483
18.3953786915648116	1.0215749234154319	33.0050307206318791
14.5233511062541378	5.6425942164905907	34.4743449204963142
13.0462838517561419	5.1504151136124303	35.6247511349714046
12.3545137011973463	1.1508350119284403	34.0937577205355069
17.7210979732558478	1.7708048696523915	35.7246755406512690
13.6609106705616838	2.3902662464615108	33.5344146248942678
15.0508930796869915	5.4374992367417256	32.4859573370204018
15.6002363878977075	4.6939113590119259	36.2642988207721686
15.7320427781143195	1.4745383588987264	30.8144349163606641
15.8638101167564312	3.2854317119771892	32.1224951394632399
14.1056590271403959	0.7629780091862597	32.0316066458395028
31.0444690289961791	38.0176022128162714	6.3847480103820278
3.0738066582743522	4.1668174278180174	11.6172023204017467
4.8038001913877535	4.6078842692076565	7.9918709346356831
1.2487000852351897	4.0125696759913421	6.1278855584371170
6.7969956375200526	6.1372471149236958	10.3662400924729248
0.2519682343629273	2.8198274684376878	9.3622365300013382
0.7641952754332338	1.3547306775463481	11.4115661229827587
42.7989675796637670	4.8722899873405945	9.5514997307904768
1.0632409710340773	5.4274244567761007	7.8238585006637384
3.8370799485504707	5.1003057618399890	9.9777686631567359
5.0065664453096748	6.4179975010799835	11.2574069981889657
8.0764485719080987	41.1252373265058111	40.1428269651587257
6.9304592882285743	40.0952470137856452	38.9977732039790013
8.9994967385857940	38.7343604390479044	40.7490803269993052
11.3337689066292135	39.7948712537961526	38.4028170863039904
12.3294883064567244	39.5136751019125541	39.9083811910179378
9.3157871341976684	41.0509135041722359	41.7252584359362189
7.1172963385334107	37.6142743493190252	40.8825672487376508
12.4417953507830337	39.9055851104380039	42.0186650117863820
11.2207517026743968	40.9271357530142126	40.5534930977467880
12.9735341748647066	38.0106006107479075	38.6875837713110755
6.8532713982049920	36.3285331343005495	42.4529414722029159
7.4055885007050613	39.7342555090735416	41.0973315232259537
9.4601932115916636	36.6624436123979578	38.1146152534996929
11.1153148215258231	38.7055200496994587	41.2011566923185839
7.2918079388943537	41.9256237083452916	38.5379596529375945
10.7074816822072023	37.9054989807426352	39.6246874225423440
8.4758386813973825	42.6675385929521980	42.8566086576307583
6.2929922166835057	37.9000750765693084	38.2807839235314162
18.3084302133385286	4.6147060311021724	4.4336641776749017
15.5685927918920139	1.4822839883055829	4.7522780983057729
21.2965102951203065	16.5455539352323804	3.0412010707695289
23.2513618704519089	13.5415306746960518	4.1457637527147950
22.9354045918873410	14.2578373412408066	1.8537929258218857
22.3602667644606434	17.5476020322712216	4.5100205118505121
32.8027100239989267	6.8132509695467380	37.3038849943761335
36.3975965162667165	6.5866372354765081	36.6821691952854820
33.2644669476335650	8.8059454218324067	37.1452791892419896
34.9455494955593835	7.2897564508173520	32.1086211818449314
32.6428764696008784	9.5921165731261606	31.7421129970530558
31.7081619973728621	10.6333680979269243	34.8694653164484123
31.2454936931047271	6.4439345266049841	31.7083727954213295
34.1447815455818215	9.4045436912923375	35.6312184381982604
31.5844424155132195	11.5097530871369411	31.3986430199648758
32.0587654592598597	8.5191583503832380	35.7402259773666913
36.2782925005771943	10.2368962743552654	32.7600428416057738
31.5708450225097330	8.0985584119535421	30.8280606473570629
21.0975362911898863	16.1910781349754416	5.0574292367658824
32.7890930086654606	11.1001496492049796	33.3667880017811527
33.6085387765129653	11.3310198868172183	35.4498073446373851
35.3827048963332444	8.4738277752527136	37.5302954545643459
34.1060601644751245	8.4196068071890284	30.4372083017663400
30.9354932542827719	10.0142890416203638	30.6508655218746249
31.1194866206439400	10.1134975267659541	32.8815899640266949
33.8878054520096725	7.4306936047976109	35.8271562319691768
5.3936274979189500	38.7095599179219363	40.9760883593160159
8.0582058825067282	39.4874666515023165	37.4592073041812625
8.1953481774171273	40.6683208075428482	0.4348467104250450
26.6649486896908989	7.8585849714800302	34.4171672615442077
26.7877887312948779	12.3636554673984911	33.7052197450347464
26.1698844842424343	10.8671713943632025	32.7278724997628316
29.1751849885288088	9.6755775457013904	32.8344929097308977
24.8997234505415719	7.3013940018536445	35.1002866546628383
27.5993300820217549	9.9664317235955817	36.5064364911356805
25.1437184383496763	9.1181261067564918	35.6335957961985983
25.3931528560344617	5.8815208358148601	36.8113880372546305
25.7780096201509679	7.3181664015306582	32.3354249486406644
9.1499616502282102	14.9128103141770527	38.9044944121729799
7.3827318554462629	14.9577998965592087	41.4514263409981893
10.2586761642366753	16.9621687410759954	42.0115840189047276
31.0171494674203103	11.6593818264988336	36.6451641414288076
26.6606603201758361	8.0461862804187323	36.2865791247062575
29.8061195337583769	7.8765739747306300	32.6185557738543892
28.4489276026351412	7.7139026268065729	35.9808285447403691
28.9641762552198685	12.7919327752890926	33.6307855475011976
29.8431374148660709	11.3431681502881805	34.9071614942077773
23.0975558864461910	39.8669550227694813	0.9106036104227896
23.1366202170921866	0.4170596193052004	0.0443179456419841
21.1064146533859827	41.3903085171130343	5.4045570132792387
21.6887404128596621	40.1737266975363170	2.2099254324728412
21.9780722902907257	38.4608138870026721	1.3963304163002090
25.1379970323378465	40.4821226196384316	1.2747633929615223
18.2146584121407322	38.0395569811577730	1.1282587035348879
11.0107110824105465	16.8432535058084909	40.3914998218881820
6.3286457989426914	13.4642680272001254	42.7969515885872198
11.7273207976174891	16.9357881933184942	36.5205660197168953
5.7644339833836771	14.4345747155055637	38.9979897587797524
8.4219187672257956	16.6351623771710493	42.6617739531799529
7.3404804667427115	18.1664245743230275	41.7305068107453607
10.6937402220695432	15.9435787790414345	37.9099377479102202
20.0192324207225774	40.8338185295724898	1.5967474890195337
21.4222527676875139	37.8300349277329033	3.1435115670265819
20.3073413161350942	40.5363804303697890	3.6216300223439690
18.2020744347187673	41.7988424166610741	3.5465820793946112
30.9090724517697915	11.9469471720944576	33.4890622276993568
21.1926149841173768	0.2553525140897561	42.3082542972352798
18.0202479812523215	39.7661853021643239	2.1897557141906328
27.6745931265732921	6.2518074982328047	35.0915101896464492
25.2787770722530780	11.0942704691606568	34.6875451674589712
29.3953746577198558	6.3324750381828459	36.7058491923173449
27.9870257214261251	8.2584724373045582	31.8853084656190191
26.6260749831393646	11.7781216988773174	36.3888570744667774
28.0136584528606356	11.6554398911932573	32.2785718527194447
25.1472438079988549	9.6981275058196612	31.2766576922425656
30.2463306946963471	9.0118551998445575	34.3032069991434412
36.6014354705394709	6.4252441009160544	34.6719871573479850
3.7215243399167535	17.3049728496123976	38.2347153460267748
5.4199367563376173	16.9931503609756902	37.6227251599483026
0.2249606987354996	16.7307560963917048	37.1178799088885754
20.4095244513754999	15.2660324860170462	6.4809129539250883
24.5782602212393364	15.4170908782124059	1.9384842041844268
22.2768491453218189	12.5455186017512688	2.4326111847228580
15.6629842758344093	39.3333177488983168	1.7691707654725852
40.3930674841195554	9.1333727310386994	32.7600790142494276
38.2640014038246221	9.4921949530935645	32.4309516807318516
39.0766605735244212	6.1035970879542472	30.3970883914541368
11.5095378090586653	31.9908471123908633	39.2460091270892306
4.5357128835395937	13.1766005411609779	0.4255326860272574
37.2136938503106904	10.7074948146727529	31.0200368249797442
19.8048344481620830	13.8716326779710304	5.1732092189611603
19.7391057743769274	17.7744017815590780	4.0376790169992534
20.1246699250012249	16.8716795246689664	1.4234812206392118
22.2374409715776196	16.3300086323530209	1.2743624739965214
23.4263449146992535	12.7589372217332411	0.9170133600628794
19.2952108739904205	16.6379380291102663	5.6637897910519888
22.1098273135934349	16.8629126510859031	6.5309108687224366
25.5556398277947778	18.5426903058182475	3.6547825387752226
15.2416395039860841	7.1974872072685088	0.7284984439194612
13.3023365442698296	1.3547087781540486	4.9880932438022798
0.9169438456599187	41.9859994797479530	36.5691988931180774
3.2487931994234942	13.0023230477859499	33.5785907406321940
1.7402502434205835	14.9480409195893991	33.5927992101283621
1.4508286547254405	19.0429414943934781	33.6437073367120547
4.8867785550953009	16.1005557382481648	33.2510078127782833
4.5200970599706114	17.5117054684867881	36.0867112607013638
42.8158393006601301	17.7394721643220628	35.3093827753692793
2.2284121224889750	16.1224665964713729	31.6440467420031375
3.3932156687153592	15.8384945901454497	37.2412815502145023
4.7832766687680977	14.1952533659390845	32.7569591925678409
2.7152958806424552	37.0591460613358521	40.7776709142533278
3.5724381477591001	38.6430040927969145	40.0089238672742766
11.9145993325372359	0.8971967865935766	2.8792004830769180
4.2385427643216671	42.5729900482590224	37.1962568934123823
1.3259254632537423	40.9955839472128147	38.5850627224859295
4.4016538866455912	40.0353946508042000	41.7665896035258370
6.0821745938691505	39.6315123014421857	37.3405636603415587
3.6639329659085522	42.0539613977057627	38.9602498892608367
2.4323594916797946	37.1724989625731652	38.7210630977426362
13.8265527445715026	42.5071571231178424	3.0460574729740890
12.8903823758591294	4.2520180968824191	1.2146038075451133
16.7154111088302919	1.5220415600483095	0.8781942258522443
4.1932110015560928	13.7554887220327196	36.6702338056926749
10.0666959936711837	41.9243779211405609	36.4572401035229205
11.9356723186693543	0.2783660343385357	5.8251793296454224
14.3274505156514174	37.7342996808016835	1.7269645420737156
13.9332453652377932	39.9865270384983944	1.7704246065997538
17.7250326031311758	0.0489961581795136	2.0572488371294684
16.4016243203497929	37.3685135063806086	1.6306676356908434
12.6117697118164394	40.6780111906336757	3.3509212967737905
16.6627696025715544	5.6877739017043245	3.7439416999737931
13.6444963995141570	0.6877310737561895	1.6637991496306042
16.8054908661318620	5.9598029266213688	0.6445590115690928
12.3276590463943343	2.7617783104036175	3.7957218744918086
13.6868847803249647	3.6639345695846353	2.9167215726076234
16.3650519092972750	42.7356190507113567	0.3951127771260407
10.6156200780545920	42.2925606408802963	0.9805401313913413
10.0754077577112504	40.3557119399704973	0.9957145604240694
32.7910132522242534	7.5082174568696862	32.3366378779201469
36.2205759580946207	8.0022858122074805	31.0689950284920826
35.7694077943163862	8.0188138433453116	35.5965739082266026
32.5016196653604013	5.5345194645249540	33.1592216227882375
34.4326671461132960	9.9971191877973098	32.6983261414500035
35.1586830406518089	11.6526947380479928	33.8170628292281847
34.6873573102903805	6.2451467810055217	37.4009917662499021
30.7363723556168758	13.3138813175693631	34.7489811524626404
35.4146169847137315	10.8523021665524624	31.1228032928561689
41.5957908983337106	10.2117103221247874	36.2274783987160944
16.6931483770395559	2.7595226206868424	6.0370467072081277
15.0552658342700507	2.8809229396273488	1.4182873910711125
13.7243051931387221	5.5884706631212131	42.9970609818168725
16.8873936196204930	3.3968943600338348	4.2380284471968466
13.8002716610434089	3.3996464352414377	5.1142913070786626
12.0368708233387860	2.5442046521621808	1.7570825468491231
37.9851787614748204	7.6198006209846376	35.1237923757258983
40.6398033710750397	7.5354344096419874	34.0421793090977545
41.6325360342666144	8.4567634878509867	35.3558561601061072
38.8292697623849961	9.1554018719995014	36.4784763804400995
42.2010434486153656	8.2707215365290754	33.0399875292964609
19.9369161414992462	38.9769580289521826	2.0240189520192762
41.9830294445032095	11.1599129155664833	32.7128442706931963
38.5189343000361575	5.6747506514968489	35.5487379291151058
36.7466293424669459	6.0892616010834102	31.9710083920202308
39.5466750677736698	9.1315038356381280	34.7593584989385320
0.2670782933914111	6.4969050119907070	33.0483585423514015
39.0373839875434570	9.9758795924103918	30.6233792769581790
17.7831902001798134	37.6288464097703255	3.3643754800187713
15.2583972785096975	40.4356372923799654	3.5093843501249973
16.8076031113696338	41.0908384759487859	2.5693969296939527
16.1854824673287183	42.5377245971700049	3.7299840485196820
9.2208543087005772	8.2603242679404385	37.0406041769611036
6.9225502804270818	8.2351209739188729	33.7617367592531821
12.4517320051169520	8.4459230418708700	30.5267529197828793
10.1660165807439000	10.1051992805717603	30.4055230542226944
10.9981330785607945	7.3256830056208413	36.7422553317581304
12.2642537664794364	8.6007607672016313	35.3353344278687587
10.7884075942992439	7.3155866100881584	31.6877884023263583
9.0449661771675895	5.7600206333175334	31.3066509025934643
9.5544760057293932	6.9249484767027623	35.4498806937225481
8.0516198169667508	10.3624142676228086	31.0757214897587914
7.6130726528229706	7.1972196510362103	32.2107380326080630
10.7582884692789058	7.7337706652455580	33.9410624134976260
7.1114571714034476	11.5297996952894035	32.4431549136148831
8.1491366605978328	8.5579503501661041	35.5057803071449882
5.8083258598941105	9.7820448606791377	32.2904330727273035
8.1476431153703270	12.4595711053793998	31.2698440229078365
11.0108350222928166	5.9329271282384317	35.1423859398876246
6.8096121873779509	11.3256767920060639	30.1537997626832386
7.3763128311773372	3.6004670668811976	42.9756554748994404
8.4472547158945943	2.3554849726555522	5.8130536551190346
9.6220491694294132	2.4040255435798152	7.3783287996124720
12.0207714409693835	4.3033529682745097	5.1290919585133299
8.6724654467110032	3.0944804013727039	2.7198934253831939
24.2820454202863338	39.4206742273780790	36.7475230591818587
24.3861895217338471	39.8437548047200636	42.2980934878669714
15.8984835631144872	39.5551176832642142	36.7011585237603555
14.6038723117175095	37.2619504525594465	39.3934152625283716
17.9205073831133852	41.3785497160696494	42.8693401800301643
10.0236329254164627	0.0976174657817632	2.5796889048637528
9.2373554098702968	5.4724040443823094	1.7651304384901205
5.7767016316805284	42.3654353173272327	1.3536010547370181
7.1594767451605339	42.8434043327553766	3.1796274834634204
12.0500102357320031	0.6977289255224105	0.5562622441842190
11.0119394910465953	5.0928502688250559	1.8025082309809299
7.6205884858994164	4.1429674975231503	5.9948283377997242
23.6940303706481181	38.5823099386644159	2.3727643370651639
20.3148086108853718	15.4929567878619139	0.0427285520774594
29.2746140742281753	40.0988411023850517	0.0831794065873491
29.0223611675978610	41.2478706631269887	4.3478426231762990
27.5168928836925417	35.9436237026095711	1.5638648483263746
27.5214046667251750	0.0039971972964154	0.8854463165165274
29.9156568254351320	38.9438523262358629	1.4430797130821247
10.5269690302592149	6.8909620624353005	2.9489543402229215
7.8655596807570909	4.2862508182640005	4.1678898810773122
10.2400455572632705	0.9433326378268299	6.5129603981543154
8.6706833774658882	8.7220116588495742	33.4685801168191830
11.4188513750056426	9.6410078798105552	33.8921057264777588
3.2593926974812235	7.2970206565958913	32.2854600177749944
34.6956249373754773	40.8876741024260255	1.8141985460390460
31.9073900704621423	39.3842628105954304	42.9460111632183086
30.8840583657427779	40.4935712112596207	1.4220497653885238
32.3777459646107744	39.5782070246374147	1.9142490570356663
33.8200617736720091	40.6030593581224579	6.5792264066959047
32.9335087595593379	41.3081128127548283	0.9062054420047783
35.6211244836098970	39.2127949962988964	3.0054188576031726
34.9825326134461463	37.8400187999071562	1.7544467544675897
2.4180304659875356	10.3861961729028174	32.1376642104057879
1.4422731614213429	6.3511868527587518	36.6759395756639179
3.2951991229430537	9.8036662779267960	36.2612024573649734
23.1788191728944781	38.7384863784730982	37.9907371387066561
2.1220511064304466	6.7684515487366150	33.5676209883969392
1.1441497898170983	8.1835377703162422	32.1962837870420273
6.2537955393201567	6.2514707110661520	33.5329924500101981
3.2286689536020976	11.9039786269591605	35.5469358038622261
5.3566859468217638	7.4320112411044095	32.1235233619581706
1.4156731522670374	12.0906101648948709	32.2560509810301639
2.3722503015184957	7.6742346951934728	35.7124318620867740
41.6945354107029758	9.9301191652184944	34.0342046135704308
1.4993593113928507	11.4744866220239334	36.0845712836173149
0.6788437346372451	10.0408150684489161	32.8635471754997894
6.2659356453506136	8.5269477396124422	31.0347636873319352
23.4270466876841077	40.0203106292047508	40.5895072937948029
25.7701188783530739	16.2410485438367935	39.3622174621929943
21.4501792832394642	15.8308900396517949	36.4356760718777863
25.2438695888427063	14.4280984890731823	38.8263652594016548
10.2469343148896268	8.7824877388701932	35.5660384427509584
20.3844823869675835	14.8755169635211253	39.6145667993836099
21.4676383369956874	18.7988753219747906	41.9265645382339187
21.6390466916062074	13.6848270648036348	37.9853827176808565
19.7479298533475855	39.4211642853525319	39.4222296599127802
22.3521979743464314	36.2338287529231309	39.5698708024255481
23.9809186309248545	37.1056860458889659	40.7522354009283134
20.8595191729356522	37.7675549643130921	42.1585326133384228
27.5978053174479960	40.5170501298494727	5.5930798853830455
19.7316586260541236	41.7947947001624414	42.7028530628128280
21.9879358101830711	37.8023713851319840	40.6914625034096318
34.5607708977365320	38.2054257515022329	4.1781444529448830
32.7045861596291090	39.6056126616127102	5.0937027642924972
33.9413050924429953	39.2613769854171011	0.4847846451854655
34.3617826434859452	40.1889030205734770	3.8728650923811725
19.6006808303123066	39.7373845623678648	42.9690470744281114
23.2892392630174996	41.3610244926886210	41.9271836137995280
22.5465110566086118	37.7275202158419063	42.8858127535822220
20.4212184671000045	40.9725944970707161	37.1229962010910270
23.8050003162741177	9.2297466429363126	34.4170783875051995
20.7094378337559135	18.0935429130580623	5.8723383216117266
16.8544675195459170	39.5524843691224035	42.1830356808217886
13.3918147090741666	40.9308578858281891	40.5447963328989900
15.8602428261686459	0.1900214958484967	38.4036100519354093
16.2173797086686484	40.0585985815068142	40.3464561634699663
18.4620200034933823	40.5156135612431001	36.6406813833500777
18.6614276464877875	40.9206199110272308	38.4642282784870275
14.9790920820934836	38.0658516606014814	37.7633791950530835
16.9252012660977229	41.6733951728136489	37.6009888693135252
22.3801160599668769	12.8375737426608065	35.5822435193898485
22.5793218506029767	8.6200861184469435	33.1034142813763879
9.1390987347075114	14.7486553081423200	36.8563204969298681
20.7682461466670425	9.6106362975967947	35.0034356611680693
22.9569700300208552	7.2985830665788916	34.9859483186022473
21.5493704776472335	11.2762380854526629	35.0753523244456318
19.6773001379557400	8.7108701663919383	37.3997285968940503
19.6948717957475203	11.2277381355206778	34.6523506854614141
19.6322470198955266	11.0895732609629647	32.7218928083719760
21.3492771340626390	7.6387765680983994	34.2309357842180333
19.6155194908827895	13.0356925021797405	33.1087714507766080
23.4002321297907336	10.2050705402825646	32.3592986810083829
18.8562904772778843	9.6675481731166215	35.8272679685276145
21.4143000962380938	7.9503931905413463	36.0343418122236017
12.2445458415965192	16.7852012373193062	42.4805144126020977
19.0479658646928662	36.4385071462692878	4.9934212350611720
19.3334704149978762	38.3870028902469400	6.7655332137818993
21.5612302078035043	41.6431449959533779	1.0683736157485595
7.8985982352628419	16.8445545201525064	38.1162632366365415
8.9657066406283263	15.9239747089439163	40.7840180776073566
11.4271414384763066	12.8176607843296591	38.6784422038723790
7.2808888127516127	18.5019624088012158	0.7114172522130526
5.4091506490802477	14.1042623847075657	41.2725374782142183
9.8766278875313667	12.0641561193592217	37.2929902871027679
12.3934779265195676	16.7580975950935880	38.4503746069291736
11.5015950179660873	13.1525782235192175	36.8820390693939899
20.6033696702311850	12.4405764833233086	36.5186902810789249
11.4136912533617600	14.9567642948525545	39.2950559444074017
12.3388437073531172	14.7661397215977335	37.6283057221846562
24.2604381152549813	11.5052604230634063	30.9710935496250812
20.4929283817798655	8.4542650196635520	32.2560766351596584
21.3826711112150250	10.5205626648390140	31.3871633793546501
21.8872672671634767	6.7458283403732979	32.3590122531546527
23.4941346133580424	8.5795307676520576	36.5126810977381737
22.6587597597948580	6.7087627999722459	30.5198624493220976
7.3033657792529327	14.4529531179520578	37.9912884109702063
7.9155338859888058	12.3323039349903425	41.9783137724660733
16.2019290436933758	6.3813343587010083	37.3945929819324050
15.6909588884943112	10.4965320913038553	32.0413937917306626
16.0281641104000201	6.6213496057456354	33.4504435689829123
12.3056227947807688	11.7643160308472119	33.3708860493470354
13.7069515464227791	10.6906085958835195	32.5424658607544046
17.1528003753416662	11.8856259628511296	35.6204767631198393
14.3980212686698046	7.6497517655397580	32.5921174087308216
17.5296377972062842	11.2124821093059470	32.2877753439612647
13.3227563225149197	8.9267478779755614	33.4382175661540657
16.1796780137883296	10.8753597363796377	33.9746516981051556
14.0411542336732484	10.6369990451009908	34.5835960753765619
13.8774343234157911	9.6124092886964458	36.5354221035450024
12.9920453661327677	6.9111831511379167	34.0209592193159835
19.2095516964331452	6.6401945014525205	31.9253689711501742
26.0925033196465144	41.4931058448833809	2.9496968051747969
27.7623844836660609	37.8981236673595419	2.2277204385736420
29.7072483003314822	42.0370055943670309	0.9929419839522359
27.1208299745617758	40.0329771278888344	2.2049005899293128
25.9715776204314608	38.4212054556332419	2.8005607289347183
28.2385389835962428	39.5260767254835557	3.9714594497550042
27.2405952785385956	38.8148589571766962	6.1027808528920673
30.8252375458485730	41.3796344929454065	42.6442376214994141
29.4464990548136498	37.8169449525414691	3.6449926895945772
17.5935829492890008	38.4928919721761460	40.6798971467599628
17.6816502991059536	5.5386801533566778	33.3620647423873251
18.0317014078714521	10.5671062284871518	34.0326818820690775
17.5910060402048174	6.9481834697140998	34.9261222396446911
22.1461621019566159	5.8026115849137110	34.1824381595780693
24.6105554671983455	6.9691106633429207	30.9596257300464437
18.6297491526125185	6.3874080179626196	36.7053312543502415
21.3983187452116610	10.0638256748303263	33.1321160717941794
14.0384734077445223	39.1199905435028157	41.0524443378241486
14.3051150808173819	39.4426137353259350	39.1520431629253380
13.4377654116462537	41.0408113178359883	36.9828171878559502
16.3826281440254995	41.6386733583891626	41.6054894243076987
4.7664843112997408	14.4519067355455064	34.7615492153200023
16.1419923706023738	38.7895179089158901	38.9838984992615210
14.7649535077824492	42.3983206056243844	40.1769331756484291
14.3573008027774129	39.0004160733546144	42.8453071289867466
17.9085709846465626	0.1699841494499165	38.5354480190884843
29.1368443291011232	38.8588965969751641	5.5901834257228824
30.1727601997949826	39.6511708507740721	3.1716541162145750
27.6091660608014244	41.1626600128271889	0.3725156196953262
31.0854587506409814	37.9998520119039682	2.7566958446612166
28.7936491849512670	40.7017931468060326	2.3220163766732318
17.7033045432027158	8.1325776073162643	36.7539541944410360
28.8164544018905850	10.4886075381613288	3.7132506439341286
25.0898817774702678	41.3302769428115866	36.7916397654154537
28.1818555677798734	40.3490535651905944	31.6825522854800710
26.0562043598944122	42.0487558897580698	34.6727961633012001
29.1521644520008287	42.1444864888036506	36.1573326397613926
29.2380525155916011	38.0016928142877930	36.1475945712889128
28.0253983701025824	38.5968213877354174	33.0324560908763587
25.2152081787314408	40.7761323095398609	33.2380207760163913
24.8312198879250516	39.4358087309091090	31.7852237652105956
28.9792253104540194	7.6858637336539779	5.9959128746450689
29.8949550933742429	9.8578981817678297	6.1587961850636637
29.9230785043018201	11.2325430922887755	1.8797363979693356
26.0221110173703032	39.0994966269267721	35.3990551201061407
24.6071598448183231	10.4331709525420386	3.1431000869983805
27.5135741779416776	11.8324837299815577	5.0406526616177949
39.8257556791447485	23.5123520454806112	3.6084344942024789
37.9407196614250495	21.0713194810863946	5.6842707249842892
39.1346589895881039	21.8080997431372232	3.7423476887113756
29.6962518331362944	12.2686827267772181	3.6365016884934911
28.4188650300303323	8.3254615037881550	4.1572610316400409
28.1199880911337878	9.6847018493676007	5.4949911412429566
25.6120804865430145	11.4497723168333625	1.9522609152423698
24.3231276841373614	7.1617932779707960	2.3167343795843380
25.5361594798993856	6.0176827711060525	3.9436241385892137
26.1054731195219141	40.9378727606228807	31.4052218042536779
1.1549750009195436	20.3613164518975793	5.5686809054366941
0.9555982702329496	23.8340154547329455	42.5651646298130188
40.0847431954308391	24.2790736869616737	40.7734496871337626
41.6855081986342313	24.3668484873209117	37.0190198668610222
42.0038178716715009	23.2581555158420130	38.4162872933688462
41.8917055629593520	22.4577644816654711	41.8714624457017379
26.7536790663704416	39.0471864837436442	31.3644621817771139
25.8675657655439224	37.3861380834352843	32.0404965268643807
26.9172360222411804	39.9710148739648403	33.9407365739767286
29.3358653108728866	39.6516800544063770	33.9421133698676059
28.2172577316144064	39.7223215250088870	35.3717480366326740
25.0483859723175755	9.2949400588885904	1.4714093016093677
30.2864940879639200	40.5365222401686154	35.4817042071267821
27.3536525232852483	37.9428862292495879	34.7111065704758772
29.7489415024303590	42.9196551743928225	38.1670562781343961
38.5049980502641489	21.4680509992819708	40.9072059479618844
40.4120011112126178	18.9817730950678190	39.5147883211312489
40.5790969179801664	20.5582555268961080	40.4342627076525289
24.9966553627624997	9.7377067371920809	5.2799671058586126
31.2048821241723893	9.9820590511568259	2.6479510310061665
26.4935403793239530	10.7085491729047497	6.3280249029848594
25.3738954509567307	38.5765268294427699	33.4579531950298019
27.3223000764329207	38.3265691598098002	36.5662440228128673
19.5688290024873872	38.2783966049027882	34.3976070608898539
38.5227872253936567	23.3958659739704018	2.2005550213698570
37.9686593403799790	23.6019665487964367	4.0424271597388985
3.7000796817330612	24.1539658445687522	2.9423187895191099
5.3227353413395422	22.8895087790296046	3.4529674612519061
20.1877115222957606	38.1999605243057445	31.7820740126739096
19.9761850122641427	39.7872650060789539	33.1250617013112532
24.4030932437427772	40.8436703369705114	34.9972878970573902
18.8959292815344462	41.5280600803321747	33.6066072961299511
23.5495318443255215	37.7699524754842315	33.0401269389749075
24.2934344431415497	42.0733096943674525	32.2856997571569622
18.0762627119137456	37.8102123067370854	32.7169844268226200
42.2111074702190763	22.6701688235410472	0.8595094540622656
23.6582720933202744	39.4432779617767579	33.6974755943126709
21.5989777038188357	41.8061135839636009	29.9784063215373102
18.0367834697871707	40.0678456920285697	34.6282050303387692
23.0413831965575895	41.3300643051154637	33.6783180532089119
21.5659659601701961	38.3386973298385243	33.3789210148615467
19.4561145112598055	41.5604626521587477	31.7767159228679503
19.5128940914143421	41.6404143732107173	35.4879521936198543
20.5667168984423796	39.9966819633801478	35.1457073182399142
24.3077805481266722	38.1964200956204678	35.1615184980800777
12.6284195526216116	8.3573778245189825	37.2590860855280397
24.3423274919478700	7.7493504503574426	0.5881573699175663
41.0064686124968958	21.4158077548640655	3.4558291065584648
3.5307744019320388	18.4695669812948964	1.6888300188838359
4.3420307261387050	18.4447342018825857	5.7017921035535641
3.7288643878135983	23.2983810910571982	42.8144437407562961
1.5164737696656698	18.4197810954520058	1.2023458444117281
3.8439246563674807	22.7085750841235594	4.6202103054978059
41.1030237945319001	20.8401244282638274	1.3076957932609043
42.7346485582435918	20.2496530582424441	3.9498564251010335
40.3493719270709761	23.9264370286171371	0.8988205007745091
39.3992023190612102	22.3151182749016712	5.6593999898760261
36.3891332405505068	20.0554838498219041	5.8384620721214864
40.3835443787065742	21.0587195602573907	42.1911710018206421
6.3021440587733606	23.4086692644323726	1.5783861059919566
40.2713845691544918	22.3401201547473214	2.0824694862486925
42.0244227091353721	24.6530759253388112	1.1749796867572466
36.3169775860210251	22.2539392727823788	6.0388772522516039
42.5962134101855483	22.3177223306817822	4.3182938914266202
42.0332538972598684	24.8077858874520736	4.8410141392838071
39.9232663435120827	20.0637007454327509	2.9187034029003169
38.0724276848780221	22.8139859360644977	6.7608154954179334
41.4068285609185409	21.6549439586343873	5.9534766667642209
41.4338059453962586	18.7099207166946933	2.8584609902767211
38.1659069876549282	19.0907229953239543	4.9420973815727338
39.7116582344417637	20.5407275129209062	4.9962601227042667
42.7383397389620114	23.7374461050320882	40.6679312102042516
36.7751980295019791	22.5831006531826510	41.1443036371030857
35.4442645941022576	21.4215990352329690	39.9393328530301517
4.7137153594385204	21.0775289244008341	36.9129936756743362
2.7289850964616011	24.2907986323401701	41.5589378801787390
2.5478948259651477	18.8820467642195737	41.7636810617345944
2.4035775665710193	21.6853646406846359	39.8257514041444054
6.0537263878841765	23.3698449676403399	37.0246695552191483
6.2841973395401194	22.0135839436663652	40.9927636448030412
0.9071602123993783	22.3752665242540161	41.0793906705647558
2.8941044089804993	19.2818208505497424	39.2025080914699799
4.6506553823035750	24.1137730726087547	41.4418865123555946
35.2946208162379236	24.1178083400049026	37.2948042061545593
1.5857114203821707	23.5051060363851434	39.4458759671265753
7.4434462104525627	7.6062717010445855	37.4124369833790666
35.2178425125683887	20.1462324519214810	2.2953645219161500
31.6362498688387177	24.1466537445357687	2.1632017547455722
35.8978036825449252	17.7780076960274016	42.4045017404734850
32.0574816024896592	23.9602902864940610	0.3660993632057659
33.0541689077149456	22.9733430338139115	5.5253501865318579
33.2792092193328202	23.0644679643429775	1.6538235216659944
34.1583144960008980	19.7771244980407097	0.6666386520356234
35.7510132037506096	23.2396880429522028	3.9330152298509855
33.6296270126425796	21.4666983210840172	2.6922129366675818
37.3757351363788999	40.3369523292434948	36.1758314131253655
36.2840981208297748	26.0411241597895824	40.3059131395585837
10.9157377465244370	7.9371042045674276	38.5052458948471141
8.1256229084787588	9.8533278831285838	40.2155990016757343
9.0453547895238042	11.4675039385744633	39.1380192436084045
12.4942433633511261	6.5067950604056941	41.5094196489725178
40.4212780003708261	38.4280482090297895	33.5524129511710498
39.5304340936177141	39.4333506057893359	31.5555125484569317
39.1434014738415144	41.1876753997383673	35.6013718646112025
37.1426555294177234	38.6722794554506422	35.0366578198701788
42.3735165501111126	39.2535354556789855	35.8923210755309441
39.6960281885631616	41.6376550521108797	32.0021118625829857
33.7384852106281414	23.1540936906992272	3.7101382252822543
37.4730045894538151	38.8983613815469909	32.2370215937290041
40.4797412412308049	36.6773261588699313	32.2800726579429238
0.3154535929844053	40.8188745372047350	34.7600401687655491
39.3675562057111108	40.0700898448203091	33.2331029145893879
41.7034525574892498	37.1280326269580812	35.8634083539252870
38.8837285530572103	42.1464480955902516	33.9756290785427382
41.2826005857038396	40.2143195983300430	34.3359340005771543
4.1836498169977583	20.4247221705916964	40.4407433603574660
5.0534285823086584	19.0066828177288407	37.2634828580327309
37.1266257532611093	19.1519610798990847	38.7156472725287912
42.2457234298074198	40.8489670565018130	39.7040132838752200
32.3925845096011855	21.6153926358912578	4.4895316359429724
31.6743479262666767	38.4620460804912909	30.1199583126320505
31.8626289835968031	41.0924378876513003	34.6686497746893210
36.0614149214403525	41.5880435132059887	31.7851815080451523
35.7271870289837281	36.8933339588935993	36.6495644388158510
34.0779115364458463	39.7839885533972009	36.4877177931192094
30.4044730048938980	41.1831342596227046	37.4417454921338475
32.2792571115781755	39.9282758160663462	31.4143616636905882
33.6775121760126765	41.0362900340780286	34.8981427349058393
32.3525356601205587	39.7659864699735195	33.2282236303836669
32.4674711435190773	24.7476704369548450	6.5088213806445134
35.1430521652672354	22.4120851246066231	2.2136871823159621
33.7909371809099568	39.2983961586091581	34.2704664931133678
33.2242701092641681	25.3523862918383571	1.4881737971884164
41.2519452011599341	19.6656736148267974	37.1161967858237247
42.4026387270897374	19.5037452588740585	40.0175920898735669
38.8475497142673092	19.9781481754478101	39.6622772698072055
40.7711239734914059	24.9076226463819701	39.0471292876668770
38.7379806070740003	21.9184937130142039	39.1246564639078542
3.2188462490722269	25.4647539137129826	42.9340234026408041
5.5248079241922294	21.5521464334826511	5.0986702708088787
5.6587395287929336	18.8749790928843346	1.6498634635307643
2.6620660969299514	19.9989429403862857	0.4257533384258346
4.1973401815045959	20.3150706344035292	1.6820123585877471
42.1837276480701107	21.8267299237026293	40.1047145050525131
34.0244657460446760	20.9644385089435339	4.9268337531944235
32.0432023791736924	19.8413910713096691	1.2104274853755104
37.4675626260203742	41.0389682653265382	33.4662647687693564
32.0532995380569830	39.4046360847280326	35.8215543614006933
35.4371204594305738	40.4294879846889046	35.3453139434048254
35.7404133826871160	38.0684023595931151	31.5667261762089133
35.5794143009220392	38.0968340831391146	33.5345051976551218
34.3344166438337624	40.0068654887612638	32.4812809502213327
31.7976975306149079	6.4964506112911744	5.0949049145198204
29.4346450529684915	12.8101195284726277	5.5896654046148226
38.6930245931021517	24.5273422660461016	42.6675174262692991
4.5333071144779176	27.5274506690630396	37.5768282560854203
40.0120306486257533	20.6394605245824643	38.2415346045072653
40.1657983599514310	22.3252487255882102	40.7805634587575483
35.7921709039842071	39.8669175399787861	31.1038120855194080
32.4962293340181390	41.1164518212236061	36.4116437059403779
33.6379170933471627	38.2285322719849532	32.7386109237740612
34.5482588489262739	41.5961904188910481	36.6615180805155916
30.7532938905150779	38.7246838976200323	32.5031850304535865
34.5348883218274594	37.3654417147683802	35.2645602832057534
30.1981152860204176	40.4692745058422787	32.2808678654260959
32.5636339187931583	37.8197369497979565	34.4512520372329405
9.6260535455186425	26.9958311232081982	4.2700188847227025
8.8850788674913037	37.7317904126519323	30.9590506087691786
10.1811825107888794	39.0041700111998253	36.7104338106158110
8.7430958696033407	37.0274457387362403	35.9307546939832037
11.8491786189139869	38.2163236608444805	35.5343156501693542
8.5830927691136925	38.5195115906285324	34.2554743416249323
12.4699081167764962	0.7427707740948767	30.1540828923600976
6.8492811227476649	38.3617319031224682	30.7527595146518671
11.4271311702825606	40.3510088764085495	36.2784999897332838
12.3904728715439489	38.4814822892813666	31.7222097414654520
6.8923222576069314	38.6040007634910296	33.0229012854288442
12.4805064118681628	39.1192269070890575	37.1505347024214814
8.2483855274192255	40.2503938811173043	33.7470714994660099
10.0985498896444152	29.4981321701029948	2.1636595805283410
11.1538800560542146	30.7480374655957398	1.1420405092737840
11.7190103220601785	24.5991673792109751	4.1487360787775458
9.7441328949816128	27.7368239857759669	2.3905713223517502
9.8443624569852624	30.3233025421331455	42.3459991635552839
5.8441225248348703	27.2084182878919805	39.0400240890158869
9.4450671636943753	29.2750692537388346	38.9026711770139428
12.0628887886678360	30.9785796412785537	37.4150730444660908
11.1002444588807379	28.6317468802626038	0.8061577203125263
9.5067031938194777	30.0422217010348511	4.7671359820222596
8.2828552163237887	29.0668852851481141	2.3282725775808650
11.0655318881846991	27.1561859759748181	42.1225639885207173
3.5845639691338516	23.2797190866340280	39.8195692505935668
2.6264408777149351	22.6621256717053257	37.9338656057743933
11.4616588824569909	26.6053440029789883	37.9081717249779686
6.6653810570425120	28.8269565400215875	40.0276818478432190
5.7875926798029891	30.5548214395503450	40.5801961833497913
9.5552967474463344	27.3220815097642422	38.1060637032050309
10.1956703601367540	30.8394438645696987	38.4123158170791612
10.2992362131632973	25.3779949178748332	38.6085881863969220
6.4045319173051798	28.5621264897563201	37.7792967605199053
10.0639408846340128	27.6898640333877033	40.1004224994833152
11.8306185316707033	25.4047549452991532	40.0076708681159445
8.0324296199715235	27.6165097498322432	5.0177470797487134
5.6093467412939582	25.8110161012668975	40.8650744877584700
7.2094887154896181	25.3296532125463081	38.9881913880106268
7.9053218367724085	29.0142010088861788	42.0025492223770058
9.1185897878869433	30.0805975818367735	36.7661361967491871
6.8990427540358654	27.1795086417821317	42.2773722693825889
8.1336588279561575	39.4523964004981451	32.0490818067320333
10.5950857696267509	37.4072050271177616	32.2357585569674683
11.3022569878573726	42.5782629754105670	32.7677666324505523
9.0942034555355082	40.4530771731345453	35.9838842337347131
9.1902994917409160	42.1121121379116161	33.1768973560878209
12.4315303418907916	40.7005605463810056	33.7110187837512072
24.1065260250087334	7.7211781027887403	41.4277013149865709
0.1038206972150027	15.3724493461497680	3.2898242333207857
41.0254354160844628	14.6002603454747408	3.9480563751296973
36.9385969805419094	14.8463299524678352	4.4471937723201096
39.5726510171749482	15.3876443441863202	5.1370614060487227
41.1055892567390373	15.4503587447946025	6.1430687514312625
35.5162552042933299	14.9440813350455883	2.0637412004272746
21.4401850180299078	8.0900937322012290	42.6139318623520253
17.5579403398507630	7.1527292879880076	39.5256092372791841
5.8024126043568254	38.3308047565026726	34.9357082073937661
18.6399596923418898	5.8958087801676848	42.6345128119480208
21.9863646587921657	4.5119660856968151	38.3866457304782998
39.8097738103061616	14.1666480392995755	6.6434880866165997
21.3890287329228883	6.5664013164357460	38.4446147603787267
23.5959506698937389	9.4493326916667559	40.7653090741005570
17.8253969799896375	11.5067569744226006	41.7770410054087904
16.4611866331288397	25.6912130939922676	2.4103842073821520
14.1935130841050299	28.4213255000218439	3.1200154841841377
15.1665058521961758	25.0982792608304095	1.1466653889068936
18.7665720324641221	28.9289693930511937	4.5586264765320568
14.0775401972724161	24.2910298831233007	42.8569146113159434
16.5860807493952898	26.0058508845631167	0.2676307119364736
12.4734729581684149	28.4352415799493912	4.2173617971765145
17.6841462854004838	30.1565483104406624	3.0602697831717864
0.1398596921993152	42.6570140112192888	33.9612833575661597
11.4455962151001494	26.7749314826461493	3.2793325843233383
8.7937973172931994	30.9732071917098644	6.6615521492918548
7.8298766051195416	26.0290133007926272	3.5073686101930903
1.0464718201912726	40.0830464635794712	31.6343865793239480
1.7299777971205010	38.2484175658429990	32.9064661575632371
6.3513060193467181	42.7670782832419718	34.0767826496344810
1.4402441269237383	36.5330041778917192	33.6332551753265179
2.5791597259022532	37.2303718406405935	36.5112179100226371
3.2969382380610344	0.3062447804555850	35.1295948565167251
2.9833478844714447	39.7901597663381423	32.6305434940374681
4.2741835153134158	37.1202051508812048	35.3560018942873953
0.8812125577079938	20.6106030223547236	40.0803011572021930
0.8903711387057245	39.3825353277669308	37.5062533814054788
3.8200532879915428	41.7804609293374796	34.0540965745650723
6.6546758562888026	41.1112811596928012	32.5056946942893461
2.7109425348574852	38.1761783696765846	34.4765791106188004
5.3292012855555013	41.8075988006473622	35.6355163772643806
2.1591224950243646	41.6526536164106105	35.1388079290022262
1.7292680754450407	41.2561376989519815	33.2499593388594477
4.7696810763102802	40.7774919401642109	31.1177770524217721
35.7666074243110259	16.3897837129549337	5.0485473441881643
37.5917779153706775	14.9378790462174820	2.3641590803801358
14.5323035342527405	40.2835251026037611	33.4481949390503388
41.8655735445323529	27.3028854717512424	38.4776950976967669
13.1651900881389636	9.9027586995615504	40.4586790691084559
14.0817924907157028	7.9954532398988647	38.5019101925864859
16.3567249405980597	8.2364405239418481	38.0227091920404661
15.6210381760608623	7.1082224835987331	39.3056423349944950
4.9304732048694051	28.3705535178042112	0.4260677328581679
2.9816113298984979	30.6090497787392870	3.8280948951241900
3.4482116582784030	28.3351278158789093	1.5212996467087847
15.8249643881592750	39.7669237876027779	34.7065372982024414
14.1070676430725630	40.0152352685734911	35.2255031738733280
17.8563868145645230	39.9399831232628699	32.5963975052242532
0.8582982839981135	27.6124390385163956	37.7127811703227636
13.5616193318634704	37.6689664112654583	35.6878652702863377
16.1756526680543793	36.4373456597120153	34.6606540063070199
13.7882751503233045	41.6749992070249178	31.7731706459300511
15.1637301248514227	42.3547776329547787	32.8788423418067097
15.7645684115704725	42.6217831003041780	30.9912060922158226
15.3772405111532446	38.1149711489718612	33.4554144799192059
15.2896085166618558	42.3231795726008215	36.4366879318984545
13.0642483041901141	36.0841516596052969	36.8527618922032971
17.3466419283457753	41.4026830919461588	31.4219288775542509
13.1043633134116284	38.8285363106686390	33.8701002848752211
15.1877924534700650	40.4341965015001747	31.4690264686124799
1.7738697998224278	28.9481382781061640	41.5551010143780317
5.3670802515667138	30.4742036934402378	42.7521259452850870
17.2432957613528153	12.7496092422086758	40.5884940449141638
15.5566567576328882	11.5960681738266924	42.5071188610994568
12.8462170961229916	8.8165231749816133	41.9906524803366210
16.2859795700117651	8.2978551535316356	42.3934284071697931
15.3899816510767113	10.7263388259687122	37.9889740158941720
14.5937502348685708	8.2123837789706329	40.8253473929080002
3.1963474554941236	26.1290214330512462	40.9334487600249091
5.0414241583381338	28.8975486985218630	39.0959009734372316
0.9071759584155679	27.3486233323635872	42.4525101227715069
1.4671096485439064	25.7094049949411882	41.4426591979739882
15.3802971264200785	41.7599739843412507	34.6939217685078987
2.5629168929793193	28.0292242295213612	39.9981987892772182
6.5459423411699911	28.2215013155000563	3.0234201673446659
0.4947089518711730	30.3771333651451769	3.5608543310201770
3.7721024070555962	29.3842356971296326	42.4418413094557749
6.0350197073424665	28.7686146374522700	42.0236224739053910
5.0685908248113547	26.6196597366358745	42.3937954796891034
42.6361690529850463	25.5427375729709780	39.7958078275769509
4.4599638770704164	27.5883357483821001	40.7423154781585382
0.6181134878693683	27.2982090659377903	39.6224843704406311
3.9541567951544647	26.7072493810925167	39.2199651701958345
2.9107320836487336	30.2609622177544857	40.7142815349624172
11.9466161979973524	30.7559074204897591	4.5786118070968982
1.8571527704121356	20.6792526512497616	38.1121682263131163
20.6509053329559293	6.7478171468130270	0.5998848135985698
25.7202056477011887	11.3944640570821107	4.2871632818652827
22.3459087793484343	6.8465620448690885	3.0648740144149600
21.3282036019443595	8.3365649684602445	1.7648496419882684
20.6800534905539415	10.4701534696078440	1.0242241905342424
23.2536603903407482	10.6745753593722554	1.7424948026713334
6.7682085393346192	30.9949447093007713	5.8464299384192753
7.1653951153106350	28.4833597593180912	0.9036543000608083
9.1182569130130915	28.9603336713177484	0.6526231210829121
8.4852789001209814	26.9895152809803420	0.5727035980180586
2.2846255893292939	18.5338775156388706	37.6253126023219124
7.4375777428052086	39.1967302848062573	35.6583596502441580
10.3864771940415892	40.9407110271534265	33.8496175720906436
8.5429635718906347	42.5456255593999089	37.1768676275770957
10.9023025519086083	36.0809852857225408	33.6782705061809793
11.2919695645758829	39.1779723290283428	33.2069315075185116
21.1560148460902440	7.7681837678636896	5.5844335629585258
19.8883483627649795	8.7499067839547298	0.6633858595078250
23.4584770859203644	8.8328262096406256	3.1065946992618771
18.6995555026096092	6.7065772765135030	1.4778472674941139
20.1927998622608378	6.9356280910322310	2.5449088420164103
4.6483843678423700	18.5784995290078285	39.2869340452607290
3.2833690573706193	30.6565643827771943	1.6871819552593152
16.9137819868580301	42.5491191472268113	33.2760238411131226
2.6925404568171398	28.6581500213372635	4.8647505626993537
42.7596295720689028	25.5234985019323730	2.8203215249891627
2.6485477390759145	25.7079256412646124	1.9436635049828404
0.5899463331231121	29.5931642691130641	5.2121364621704895
4.1695638757699314	26.6779960109175249	1.2184848780124384
4.9145238540391167	24.7475759170694189	0.2293688942720975
1.2575122461373138	25.6825978273755915	0.4270300360140905
1.2839535130839395	29.4627898290878534	1.5952617254763810
2.6735162567464466	27.5918173892986580	0.0418666922833014
6.9275071367117622	29.0926412033079096	6.3173947192725288
34.7188546928435287	22.6734164769459490	41.2283738932781461
2.7925499599514034	27.1079602072651831	5.8648685915811667
1.6811001092955058	27.2620474168067553	1.6503518047108250
2.0564848564320619	26.9439588898776563	3.7397150003141562
0.9508981936473155	28.4820141109231493	3.1969475417135125
11.2602068950576992	7.9620022093231704	41.7824404768535658
16.9195844037574403	9.9232163671267148	41.5664438318663017
13.3983668698756233	10.1080072541612882	38.3587760533041333
5.4865821967742150	25.5905333801738522	38.0976654748541321
2.4713432995979776	20.9567879563593529	41.5220347781941754
1.6003884090793628	25.4910079955271840	39.3562056716071851
29.2679566992048414	0.0980907732350717	40.2291989348824899
15.3669017046563372	19.5340650859880824	39.0541696887691643
3.0584486010844141	8.1111978040046289	39.5167129208124877
1.1086628155078275	8.8984220013303013	38.7422648738748734
2.8069323560913340	10.6458643976068572	41.5183060846298488
2.2149155736460657	9.9391030677861067	0.4035833745085824
42.8058728931389894	9.2855332689678534	40.2984865162007182
1.4228357352572958	5.4944667275942942	38.5182415172445829
4.5210916567763944	9.5782103899194038	40.6617453801593598
5.1550685131953724	7.8068143557525236	40.6964266375110597
17.7843583574245692	19.7949160088464176	40.6938196238348482
17.1945056126108042	20.9166777024755994	38.7519187841154675
13.9271488202221754	21.1097105848770141	38.2423206370321935
24.7732091981365592	42.9157600706477851	38.1928377291260901
15.2005739385044034	23.4990818960772998	41.2414590366094487
12.1643162188011509	23.3398933639420889	40.2708977537901447
42.1951800755598541	11.8809998047553886	42.1503273294403087
42.5577710737147115	8.6523836323353098	37.5818346923182318
5.8657421419459812	24.0873518967108602	5.5669117393905490
26.9596567880184210	3.1945300769518918	42.4795301465235937
26.4784496932016573	4.5063688812773179	40.5105261831564007
25.0386301278118850	3.3047087543282827	39.5183819402158107
27.8599916567157670	42.4129832716506883	38.7032689684653306
26.2064842624530776	4.3567056953124670	38.3763445968412356
18.4887572284708561	25.7117793572575906	40.9722504218034089
16.9881282674052123	20.7272854202736418	42.6285502311583215
16.7039747358058079	18.8468332070900821	42.4032824842370815
13.7977776601736757	24.7131055302424585	40.4648528818629458
11.8247508140406978	21.2994986049026451	0.3600182849650178
16.2267071071700606	18.4136812952447571	40.6365701132466555
15.3950285789483701	24.0035771345076938	39.3139276040172518
13.5173920479006195	24.3045799065161425	38.6592766393317220
12.9098104438428347	23.8166100318561860	36.6558473065477770
18.0236318089165977	24.9045924696284899	38.0380312495846766
15.9768769655546024	20.3263202941039722	40.9178460105310080
15.2756482546983499	20.5954008973301583	36.8121931076454558
28.4569355730737357	1.3046426327531828	38.8973397586043390
13.6489273300755727	19.9677223380840729	3.3220097660434700
13.5169103071606092	24.5491676737213140	4.0169424883687626
16.3288494018994932	24.2738861521767220	5.3454690537946190
16.7981402314293824	22.2372887591031585	41.6360890444981848
12.9731387998408465	19.5876966792600733	38.4998746919925452
13.9025668981339461	19.8415984064822375	40.1180727839832016
16.6742652692511619	19.2126033316760250	36.8810104438438913
16.3448765347742437	24.5855218566418223	37.5881215678224336
13.9666204282471895	22.7509934996825756	39.7449754648046110
17.7511724754243296	22.7747692976427274	37.6018617014273673
13.4072613318034630	18.4720765804753988	41.6618241690158015
11.2063950719084602	21.2460804177001350	3.6997036050046601
21.8566752596668330	23.9978448919351450	3.6308087965766558
25.1876569973691140	18.3294945676763952	42.9795622394807140
22.2304106514216855	18.8006911360783668	6.9798255459506455
23.3779424395520756	21.1199480923376335	2.0539226411645832
8.2117357097193313	25.1057688490269300	1.5428878752670565
7.3881124330121333	20.8269018406463644	3.8159965126410564
6.3079897404593037	18.3490053036381511	5.9265035549954144
6.8097291990731739	20.2316846510482087	0.2004708800763067
10.0650732191414924	22.4355533181910900	42.9156983628813862
10.3442688483344707	20.7404639189781683	5.2903630399719095
10.8249530142548789	19.0462345626652230	6.6702737207530598
19.5055009098188776	23.1546332985504399	1.2345929805729290
7.2627056118352931	18.6868558071110833	2.9532285689828646
7.4121303050417557	22.6679903495630626	3.0655156176111422
18.5555926309894907	21.6830000163292098	0.0258553841175342
20.4686691790904511	19.0362852449305215	38.2262685657501677
19.6354295552211795	18.6106391803927842	41.3259007985760718
20.6039397000345446	20.8605774173639702	39.3725604219862859
17.2442164926675403	22.8397649892185228	4.2969055434546721
23.4853419749678238	23.9793987066307750	4.6596417806953569
20.3021440539259963	19.0966013362846532	0.6084366778241774
22.3483791729343295	21.9288151169868080	0.3629576174388972
18.5043448950113785	20.1621429658836959	5.2850120972194832
27.7189805167381458	1.5131079373996918	42.4844621857805791
26.2897991879846167	2.3074779259209417	41.0026768402537556
25.0068763377287198	3.9173205420704482	42.2136469471036619
29.4837460726536769	1.0830222303045167	41.8099090461719811
25.3193931293087857	2.0186634434328701	37.7042841662559738
28.1684871489035125	2.1679271237334632	40.7151216287240132
30.5279038159347991	1.9394918885023544	38.0842550549132497
27.4261177475798945	0.4701818073938433	40.5320882650923267
26.8123963600666926	2.4968334090298572	39.2599790646821560
29.6569474975716290	4.6536596315380274	37.9228340207277128
25.7754768917889407	0.9421093555204358	39.3466658091093748
28.6586321932411039	3.2266092774658506	38.9619113040417346
12.6592423066985962	22.6823080807357975	42.1035253571746892
26.5596030464083448	0.6886141527439239	37.3304791730326428
27.2165590063793275	2.6674876764211350	37.5236955581370921
29.9725991138026195	2.0696023142175917	40.2781957905674730
10.3523422129058016	22.8413962670052797	4.4849002967230653
21.1852547072311239	23.5900827637961399	0.1443051001220335
19.6977174743580292	20.7748697749097353	3.3963569779172311
22.5543889068698107	23.6654799659718229	1.6530846741651266
23.4329030248300931	22.2852064517184871	3.9430525904848288
20.0966499493927202	24.4527411098525107	4.8874742788400178
23.0681010365249115	18.1258212497194222	0.0233082601200667
24.8673246597853925	23.2860686811761077	2.8712295885305261
39.4055330984684460	2.3783929928593857	36.5633769719814552
42.1461252572529403	9.4159614573059578	4.6347289407522476
41.0888049475080734	12.0174792636549945	4.0680287646652955
37.5807542301173569	5.8284179476133788	2.1334951679600782
38.1480054849852053	9.2219098474185532	2.0391440262792955
41.1772072679716672	7.6579944163480445	4.3649658787590209
36.4661187676221061	11.0569192968039598	3.6782778329460490
38.6184258211575369	7.3521559274751445	1.3195712631363024
9.7905521076914450	19.8859364632566979	40.6498259888542748
10.7591954503326210	22.5468584886122621	36.5544129097306438
8.3551611215532642	25.5975476014900956	42.3938336956450925
8.5238906710312072	19.5284302937200529	42.3258578455105052
37.8767391476457504	9.6410467955631862	4.7749599514560277
39.9615672868033371	42.7968738724057260	39.2921708961272671
41.5249072533231498	1.4989931988690479	41.4749169814736476
42.3771328319942171	2.0489246271202579	37.6362091932915916
37.4208825358149682	3.0766713873638216	37.9220073892795426
38.0982699161958394	5.2288657694478626	37.5255230319049531
38.9826246716787495	1.8537838819524215	38.5669351731145156
41.4354236926322699	5.4211536711520392	41.4988089717501509
37.2309207152802557	1.3427435900034068	39.4275970842623735
40.9116678556456463	6.3822072851037897	39.8595064987835741
35.6220827020343762	0.6521082184961908	40.7924484918643273
0.1259113299115815	0.2860130441437868	37.9160265917914288
2.1938771136772890	8.4506360806637826	37.3558001373346826
9.0786159272493023	22.8709951913659708	41.4371568308190916
12.1653656732425492	18.4345403984840281	39.7884178335899819
6.6237327825054697	19.7014922388384583	40.9675221322939649
10.6053484246955492	23.4656901003015825	38.1099457793664911
6.3926186048677955	18.2994365178119587	38.5864491880149316
5.7557506318148084	23.9290582082810097	39.7494975065052358
12.6244525381873895	21.3193759893228609	39.7668859095384661
11.0460764509088047	24.5850466185766798	36.2565133742832231
12.5540976502966171	18.5844546610060029	35.6587070321873725
10.7699726559244606	19.2506016915740759	38.6793011624446237
10.4176125775006962	20.5020525648485474	42.2249654010813273
41.8150379873039242	42.7399780387047983	40.6993803870389499
0.3348984527469384	11.1736384194586922	37.9760167470611378
1.4430329407644595	6.8093560154656680	40.0926023527500348
8.0124286169829464	19.3090726568214599	4.5698687419359834
6.0284338011001246	23.1947127327640779	42.7732636770834915
9.2138015087915157	21.2204200944931607	3.6651506732479429
10.6193153238389346	21.2026629532002104	1.7771086938699530
12.4451575521573190	20.7265952807980547	41.6194919572634916
11.0008183229384464	21.9054126212273985	41.1523338727094909
6.1124077228816924	20.1667920314876561	35.6212682324569698
39.9372401125684817	9.2350857891342653	5.0077042903164104
38.9766362108716251	6.1947938129318576	3.9491398370915434
31.2348602895404461	3.3147903697798320	39.2171435619666369
36.2693971316121093	6.0676216491385695	41.4033352908610794
32.2140600260178687	3.6796099751743405	41.9326658027285646
37.2020427857702103	1.5474805761252672	0.3001242769779667
34.3065777673150620	4.2878505286647393	40.0755305817862606
34.8417407365458160	0.0519800099511886	38.0732847569805912
31.0100077421877671	5.1069160611683060	39.2051634319819229
32.7365717108229717	4.5967075938741679	38.7000365848548498
36.3328615346896626	4.7405694774516451	37.2404005577660939
33.5951805118955846	0.3510401526104687	39.9794356005725646
32.2420055221022324	5.9552172438910729	41.6712811961020790
34.5478706260076294	3.8795355793429902	38.0389576953461699
35.8214421535864815	5.5368395586165731	39.4261658174895899
31.1883396594357798	5.6966003672477727	37.4406647509683665
31.2929101582353297	1.9164797733120735	42.2291126081566475
34.2665884492982826	2.2078488899316091	40.4837381007488375
15.2894964657994628	19.7509331194087920	1.3803200424485407
3.2407587006381697	6.0443955250723471	39.2449533647781621
4.8459600482326985	10.8088514537253477	42.0324524439413096
1.2005170547003630	10.4310310140609239	40.2019252751438927
4.5434882347834034	9.0022531832203452	42.4178990958515101
1.1311085112031845	6.3133243320039689	42.1675897562391384
0.1065799045530695	10.1633902450874771	41.9060391629775921
2.5657413653397056	10.1077413683461277	38.2128028214277791
15.8917232190079201	23.4153794204588337	2.2857462824306625
37.3232271333819341	0.7749022162165140	41.5258908327672884
41.1311401416881921	4.3587617789660573	39.8060327655537662
39.5472229994470439	4.3810151240097612	36.3867877905771522
9.1581420580454616	24.2286030652019164	39.6993855213244871
12.0028346811940647	21.5968001166387076	37.8044755806458141
12.3503886557700078	24.5383648912695378	41.7496165935009174
13.6428000616250635	19.0820369777101924	0.5653975258459024
16.7838170017786616	18.7229490446625491	5.9049741169241390
12.1794345355783875	23.0915616289092220	2.8611008359261034
16.3057502119550968	24.0812301507141342	42.7101002792241857
15.6385237864902003	21.2028594149003844	2.7509977505145029
20.2193732814719276	21.1656322267941448	1.1815714440238254
13.9296957695386254	20.6553386109653623	42.7184101029641567
13.1117428647331398	21.7954477584402113	3.9845202161931921
17.0279103239224412	22.0361858713693763	1.3316291550491561
17.2344432110538435	20.2234846040109595	1.3621937681772145
17.9771821932668985	18.3570406047909174	4.5513948809939953
12.1825583577159957	19.7742547071142241	2.0061591080158765
15.1753607255588765	23.1498580576627262	4.0806261327257882
12.0677664868158327	19.3894526371983709	4.3247804945676842
35.7850152315347358	2.9181214325933778	41.1757174119792637
35.7702376739986292	2.7534420384579383	36.8690261673972657
8.1584152699032675	4.6107706719692683	36.4713583454171228
28.7849422706692231	19.0814280258293323	39.6049795644965386
31.5347727027002591	11.1217720343727446	5.2833799123385745
33.4303240031529825	8.3262216696930587	1.6829467691404487
31.8636340707138075	7.7442240190181408	2.4340266401487352
33.2185092936809738	10.7409959055046293	6.3053662977640315
9.7006799384828728	3.6330456289687549	40.3430776029048417
8.2189819849542580	0.3264307431110245	40.5440321283243321
11.2887632344745974	3.4505251380556055	39.4852819917568212
6.2349346878646488	1.1617008868504113	40.0314889506466329
11.0466138909346814	2.6413969097148442	37.7475226052436739
7.5614211748530646	0.9616578814192984	38.7112194652183703
9.4865784412094882	11.0150882460930770	41.1622972057896064
30.3140138276318929	23.4146503089148759	1.0705157937876508
30.1820924255496870	20.5472572379935805	0.8662067707307823
30.6129056832152138	18.7824160196269148	2.5278819578234115
26.8891631235437671	19.3820586184395331	4.9383362005575391
28.6525385044151868	23.5824253017036582	42.8105163113854630
31.5990424161088264	19.7179984468711069	4.0817014456790766
27.0721013774641683	18.8116507574280298	2.7036186408659599
29.6740682310387420	20.3608519527200933	3.6273488341500482
28.9084729383463213	23.9087992774287699	3.6204125657533974
26.5204272369910505	20.2926267906756124	42.9380923836995834
29.0161078183144276	21.6006122351843288	1.9181341223624402
9.6225331347651508	8.9810387382547585	41.6226659170100319
27.3381088702885116	22.4164317029133322	0.3827191485908310
28.7044468574708880	21.8142786758021145	4.1554464392507091
27.4633105422171511	18.6527610553946239	0.5348992162049947
28.7462357436610318	23.4566528064557787	5.4687226403812712
24.7631216819178022	22.6760121535412331	5.5942359847247687
6.9371821341158562	42.4129441764278710	41.5357773082378969
7.9782362591938707	3.7222181928321012	39.1403333184326030
11.8137516019030073	1.4543377727185307	39.0061731303585191
11.0934741912277062	42.4794203220614150	41.9939916452445203
6.6110303475109795	4.8331093757492551	37.7974198268777855
30.6159110271695596	18.3824091777822822	40.3487121040311223
28.2077475637564419	23.6312626886894961	1.7516986606827134
9.3977471273959683	6.5531125346775152	37.8418050095753387
10.2398834482228480	4.6621423869855949	37.1649284865573932
8.0395820167538492	5.9804118028182964	41.7343732351617120
11.2935542210590931	3.7252817868485621	0.4360944169627625
10.1252314700434489	0.9760825139589900	37.4791504785670924
7.1987158515247556	3.1453474155527683	37.2464541466024315
9.6391375495266871	2.1197457286006287	38.8151766528129372
8.2292046206261293	2.1059075316724449	40.1781981463248030
11.4838575636400524	5.1511317438276869	40.7822666809625289
11.3517450993440949	10.1769092252380631	41.8166381978327379
9.1560299159293486	10.3409450246774739	36.6715936507581617
3.9342391631983888	4.2396109639677988	39.1579964112596670
37.3091944702728071	21.8401925480447510	42.7878024477788159
33.5869668697015555	20.8740936076760661	41.9673903948051432
0.2181070026413811	0.9087224307862855	40.0626153689976690
4.6526715107416488	1.3070462199772981	41.6756567482251370
3.1404624299379664	0.8641799840753274	38.4496854235032117
0.8369309782940804	3.4907175600675924	38.1037030751706496
1.2403671249350900	1.7347284856287688	38.6318383081202512
42.7386169851883508	5.2861233518286870	37.4421046066964252
2.4927778865809462	3.1428540644082723	39.9311797871484657
1.7142399963683328	0.9968040155739496	36.8997537728958633
3.0836985888858335	0.1843056109278196	40.5920348053872786
35.1675599406725965	21.5218257946233820	42.6362251591515928
2.5958442771701984	2.7791550498068043	37.9404183118269955
2.7993532454601331	4.5606225448468720	37.6103863152995999
5.1878350384674157	0.4475707988616384	38.4875049418373010
5.3465931747425115	6.0337399156641718	39.2138594247423171
31.7149892893449916	21.9248393093707605	1.4745107891595117
36.8970602889752399	24.5594731121815570	41.8498682994634166
32.7345311230791083	19.0676143154195614	42.4224200581007054
31.8777791777977413	18.7154242232671280	39.0956821381135029
33.8894993063255043	24.5250264102526288	40.1477542841072008
31.8588570487052962	19.8331258275006981	40.9577030576830694
32.1491371545379394	21.9180149182501118	38.2362553092741138
12.5190651663931654	7.0302125381494713	38.5959258087718240
37.0496158497433754	7.6620188990372533	4.0078435335650546
34.9479907310069677	10.0680117333384285	3.3273602737366965
32.1375454999576249	6.9962959015383159	0.7551404074603866
33.7188968611937199	9.9322388214665036	0.1948404147677361
31.5790732873233324	9.0444481911003898	1.0384342950250922
33.5187709012718074	11.9949630160798790	0.1788546766532203
8.7429053137457480	7.5761585185875209	42.9748407322286496
6.3563968272580613	10.8262930955237344	40.3160819403179289
7.8136095481492456	11.5945909819208683	37.4869373541924489
8.1269983044538794	7.9571705598684179	40.9994733746741815
6.3285620749000984	9.5357516537509479	41.6598731443349948
28.7956436243300331	19.4007964917438223	1.8622261614045885
30.3662073852283463	22.2256922766767069	40.4767750289719572
35.9303291354303695	23.1858870546414693	42.9584772075710219
35.2499180126929232	19.8916646382176374	38.3297092490216187
30.9015229779006617	23.5185736623210211	41.9712901153129323
33.9341216782228230	23.1650333298283719	38.6373464911944708
35.0230143191181114	19.6299600114631225	41.8178942717841196
33.9484738535798840	21.1314972041470526	38.3756728769610120
32.7174083917232679	23.4854293051583234	41.0044148584874080
36.6287252965956327	20.5847350975391521	37.1367270683446833
31.8175968028424307	23.5646446497480824	37.1777157632068622
35.2387145671107263	11.7681128939125532	1.9161781773206461
19.3026213667237876	19.5835437635447818	39.5056019848796041
24.0725166198908944	20.3166845157923746	40.0822615111158242
18.8868147730640530	20.8457783308050395	37.8252841123640806
24.1473486417233048	22.4252567060194501	40.1105114287967623
7.6947110768589226	22.4472070265874066	42.8758892826386457
32.9827015278931270	10.4402308695202919	4.2641074858103059
33.1327156468795110	10.1171115478905396	2.3575227553002764
35.1848055368208961	7.0263450006302284	3.6168383394362276
33.1757570876457777	6.5608108064868373	3.2752146666319017
35.8711009163185892	6.5334623950728057	5.3305432380468689
31.8373047122838457	9.4676107553603650	6.0530013562934792
24.3592186611370991	24.2794806548182436	39.5962608669430765
10.6468555789718611	23.8087029285613667	41.1665581403066554
41.4119024084016587	6.8195721726456240	2.2511587625324934
38.6004155844626595	11.1657016729225074	1.1392336051919312
38.4863613531320752	9.2775701545708280	0.2176116385972635
37.3773530155227718	12.2756124577320609	4.6964793201232968
38.8996231141083939	11.2035299146556593	4.3022985217974234
40.9389418090846462	10.7761278088581527	2.4567862068420743
14.4636119518373878	6.1339838063897991	37.7343420318619422
13.9089775921809604	6.4448606596114448	39.9650181582525690
18.2563334823622689	3.2752250998411818	39.8136025780982337
15.4640214518707459	2.1800622146417168	42.7000536627289122
21.9003908774850338	6.2026340199933854	41.8641796512747959
20.6745167251673827	1.6901419810243568	40.0686942982398335
21.2753439999649565	2.4372680087286005	38.1556424922776927
23.7504907843520030	2.1584779856483363	42.0933901885871293
23.8547497561635886	1.4191583880104444	39.0639582918080279
18.5407340975623427	1.3838866733995774	40.9660318800616139
20.0221888536224455	3.5805318241973665	39.3978855128846561
23.0647107469154165	2.8236762942555491	40.1840117578302056
23.3580615950993860	3.0522289433620782	38.2629536499309211
19.8151259829498265	1.2601842843925439	38.1120726086919248
20.9027947201397595	2.4397533490020007	0.6119710902085155
18.9636982729416061	4.9443844227874676	41.0951815654152099
11.6676186116099228	5.6797890934306192	42.9228496290133847
19.1744538547833585	3.8086355983745297	42.8458531567387269
20.3029607071701790	5.1167048542537419	37.3539950912987138
22.3823674206909260	1.2110795052184278	40.7299568204771063
19.3804184524804306	3.1697278033522558	37.6291609220737584
22.3969386373547437	20.2951835997011649	39.4714679615573800
21.3068575709530244	24.1697877925544127	40.9708123852911896
21.2932266219384374	24.0630542531952329	38.8915777245590633
23.4800396266700915	18.6053237196491317	38.6074576102924993
22.0272333912153151	20.0951554443659788	0.4584838047099031
22.0722568697068127	22.4536960862583150	39.6803267033607341
22.1803197061147266	21.0905440051808384	41.2169011847183739
29.7945433760438974	21.9338902360502956	42.5136574694927205
12.0015168586652408	11.1808289922114170	39.9653738611035578
7.5256097279512328	8.8474116423425997	0.6485083754653321
36.4683861268564016	7.4677935924479311	1.9866000283049394
32.0253209854750907	11.8099368104227391	3.3229165595950421
33.7903117759753968	13.4671703893605557	6.5776556563017401
27.4224259389500205	23.1172164050055073	40.5367783570538620
25.7989693944856562	21.3871182475043327	39.4466348542450334
25.3375159780874988	22.5817821884660219	37.7521685517805565
25.5105848984301247	23.9945557733652670	41.0870022293792871
28.9514075976209462	22.0474205512615029	39.3886343552144140
27.1122921244704500	22.2823481305842961	38.0077526342035270
12.6043008731850481	8.0181200472393925	40.1889673183289418
28.4077575102038971	20.8974858413004476	0.3170581866870357
29.1774433256581638	19.6424403179202045	42.2968015281624687
30.9006008221442094	18.7013566995589677	0.1726042762367831
30.4820942029930464	23.4960638112645377	38.4756948471304483
28.0411927888824906	20.2930378798580406	37.8372778911295811
28.5960014742415538	21.6174481895946684	41.2174262858125147
25.0779510407230468	21.5770042512432525	3.5697409722466187
27.0872569498639315	24.0700410789057315	4.8383371632737493
29.6465067058257539	24.8981969765718496	2.0029343342418513
26.7392429327340793	22.5625990043938138	2.2992103146731235
26.4160548008179781	24.5030277265661560	2.8685609236152820
16.6621912684367750	3.6309572413462776	0.4129002107240723
13.2988919094024389	2.4216813897835316	0.3693246224908348
15.1908305440717832	5.0640854343244017	0.9205783709811326
15.0319336562414190	3.2746095519100260	37.6784860219580011
18.3709278188702889	0.3715886372029118	0.3237102243860994
13.1232862796723566	2.7046377503028696	38.5885056300969254
16.1340342556578129	3.3342337688365293	41.3293801903273561
16.8312389015050385	0.7025045958567788	41.8697696893589040
17.7608943221651110	2.4386419174528928	42.3206999276485476
14.4414965887535836	3.8528248561490761	42.6109146960889618
12.7250144064435382	42.9781171420532075	40.4259773583945830
15.4799425731242355	6.1825076906717706	40.9565902386640630
17.2617566371737432	28.4255268736455058	2.4309775147658237
17.6591498763766630	5.3709879743544189	39.7227054167128983
14.1389039786596342	3.0083198759751442	40.9826920325448540
16.7520942501489891	2.0067624952344976	37.8508217947611811
11.6086472184889846	1.2179859615313335	41.1786343424545507
15.0574529702271942	4.4761184963636733	39.9026856429719885
15.6981374180562785	2.5762495386036437	39.5088006700714232
13.5296934089429719	4.7534911303756084	40.8748523593293527
9.5986706136246713	6.8552938095147420	41.3503666249598822
8.2476099281404647	8.1167322647653979	38.9714819700162352
7.5121589998635825	9.4423195869307417	37.3911641143738436
42.1433763175162497	31.1640384365265426	5.2706434284338135
37.8838264837066347	29.4549987015417152	39.5632170590477656
41.0964532904933222	25.8924342744902916	40.8115542700374831
38.5964747177060588	29.1154302032511971	0.2086269239272218
40.0409537152396595	26.0915927883917327	4.9389108654929768
39.3966929047083028	26.9818084079083818	3.1367085094534644
37.7838848132663401	28.0310351055301865	2.9697547034012781
40.6098493994790317	25.1911226710607359	42.5248758197322161
42.0044684411558293	28.4487190055042340	1.2472648496164482
40.3924160315074161	29.7741203222607140	1.2021280460352353
37.5400631563953127	27.6687286662867287	0.3306134483167524
0.1260076644099808	27.4476696868316843	4.6675671463407253
38.5479827004693476	27.6914444343965371	40.1949102682717836
40.7084428128249911	29.3090582596742522	2.9543314356193293
38.9924596329994415	29.4475577414147516	2.4085930088898868
39.9790254485056025	31.3432280171046251	2.6492994866356718
28.4107330484417915	28.0159317684622629	33.3791359030412238
30.1293372329358391	28.1009397202435416	34.2666021993542955
29.1350261395622390	26.1473040489925950	33.3944617778658213
28.3579335288501504	30.3304695035796996	35.7050211365493979
25.6971025104833970	30.6825358877217944	33.0913520197816595
28.0345017628727469	27.1543998832408242	36.5394354125567062
25.2355913976903992	28.0745905863351375	32.2542047033591857
28.4230486495902461	30.0914307678909516	33.6689139767962260
4.9344805242229581	11.6859875776468005	3.6966937601870016
34.5052124143399084	27.1387322537554212	31.7697511662147072
36.2416983099758028	30.2893745237068366	36.7819928007557735
32.3529169993733987	24.8446158851125851	35.8242207654626910
32.2529246677687951	29.7304997808911864	33.4693787506295664
35.2094399674837035	27.3669286998707655	34.0085408079325049
40.7395327176756155	29.7284763978362001	6.8774048509914172
39.0299743156012653	24.5108869714961202	5.4448188392148564
42.8280582636701581	27.3836462831675398	6.5320506893035830
37.9679042193181289	26.2885977198874592	1.5864234356625353
1.3477785526390678	7.2015439003021315	4.7199767836417941
4.3293622097617277	8.8850491802835432	5.4780115298853529
28.8595369442046668	24.9223485105054330	37.6901757761553853
3.1416337041553319	9.0193958376684193	4.0941058587359889
42.0857968680645413	5.9586384766087326	4.5603351414596984
4.8550644534149745	9.6412217603494366	3.4184983117565322
7.1666744014498818	9.4287474735788148	5.9631624758979207
5.4902448900438552	7.9478732960730492	4.3074274530291490
41.0171315081625920	29.9565062677026752	40.5779075701684917
41.8204099752064238	27.2048463953328898	42.3250342393870866
37.1568207140435192	28.9403347280652774	37.8371507426307190
39.7719517870123980	26.8582124521067982	38.5386465195003751
42.6788252106549990	29.8887484158564369	41.4574824019856152
42.7195870507882347	25.5082060975591034	41.8985666019831271
3.5525287434339243	14.3364438720961349	1.8862911641056908
32.7575084545463255	15.1314249445064704	4.6664476247901856
34.2068340889753699	14.3854464376295574	3.4308608452631191
32.0350642187187802	17.7655464422858493	1.6784975369114614
31.9954722422579714	17.6253917584792603	3.7360410227810772
35.7390427491630476	16.2933675157933422	0.7343503853565422
32.3233233957270656	13.8631631762742913	3.0563365684299995
35.9464434502904737	13.1095931448885086	3.1059160104261738
0.6388547894929040	18.5013581678905474	4.9730156403099421
2.6842086542814827	16.7960245660275902	1.1031923466112823
0.4447648682532360	14.9792268383881577	5.4776877320422761
1.0887485644448960	16.6033227353595620	2.3653631829267812
33.7512531533053490	13.2096049428128595	1.6329524568908036
42.5801347771333951	11.7737616757910022	2.6058596235713360
4.8782265903068494	12.2781898031042793	6.9710601877793357
39.2162179861685729	25.9531443555029426	40.3405713033239408
39.1667365562525447	29.4680203054445791	41.0720055110557922
37.7459085324926988	26.2108006929983617	41.6876786568354802
5.9454312197620016	7.5741809245915652	0.7140791573331640
4.2968215215473089	6.1828940458538053	4.3851919679638449
2.8186514371916473	11.2491523487405392	3.7114724251789193
5.3839565338666580	10.3129933995040091	7.1794860684933592
0.0010306669066580	7.0136110664250895	3.1275040327799042
2.9485574575191627	9.4542069362013432	2.2827345721083785
30.9679611709180733	25.2072362363444249	37.5133073535214407
26.6537494826583234	29.0043410610938182	33.7459409896893092
30.2058654813427623	29.4617084425113838	36.2023156916608855
27.9687324764931944	25.0841378558774224	31.6264898798804239
26.1302178013514492	24.8690674997332728	34.5617351055275179
27.3862114023757286	27.0680302446040209	34.8264040015256455
26.0183388658623151	28.2432826435786239	35.3578739763885537
27.3763967614354300	25.7047194151153207	33.4803195338606230
28.2666300236976760	32.3132317310940280	31.9144509585406055
28.9975634763277164	31.7407893240131891	34.3384420369955095
27.3780427600055098	25.1598085160543761	36.2707551716254599
28.6207825136398064	25.6230409425954484	35.0509045771209173
31.8968348234070582	27.6694859444729424	33.3205246415572063
29.6197180442901420	29.4283955876918206	32.1699547253751774
41.0605939389780374	25.4909875122165985	3.4832998766639562
39.0167282237665205	27.6640046327734375	42.0071865575497867
40.2747478522320606	28.4645957791969160	39.4960483421196571
42.1622588493462800	28.9335763896566078	39.5094178688956745
41.9922041929002745	15.8864411376399364	42.4616568991082062
41.2599654564443838	11.4135270153448491	0.7736467244016256
2.1986544447549083	14.7666827310545070	4.4010365417583159
30.4325271303291274	16.8691502830362694	3.1313896526819525
33.7217501460413445	16.2414452361899713	1.4060269327723705
36.9520074825953770	12.7047503796369092	1.1916718426561921
25.3300414975209414	8.9640191149931390	37.8584723024039320
40.4003040344887339	29.1742221757451752	33.5023674335738590
39.7316845635963247	30.2095187883821978	35.2994096389767265
38.3950418964425211	25.2353343256175684	32.9215067343449164
35.9716750631374822	12.7690261195767558	39.8921276742348851
41.4960087730403089	16.2365213978939380	38.4027043152760541
38.8837332694744759	16.6498679893050756	41.6308134255504285
40.7830226864002228	14.5092396859341441	41.6006090477006012
25.5068342186338093	8.9662698080992360	40.5515383043381092
31.5804189708307099	10.1805553246658622	42.2943302721470928
26.1369981345624112	10.7313383507878868	41.0824251556298989
30.4253784167305561	5.7370257522057777	41.4349405932667096
39.8178697706913098	28.6470948033862918	29.8561673776833878
28.7837798938155771	11.7263741181736574	39.8485551742225468
25.8369195012728206	10.9468616226420234	37.8144082810790891
41.1182838170344667	27.5582652104636736	33.8021551429555842
41.2137903659393672	29.2132915944755034	35.3302798104805120
42.5182297116630039	28.2291370282038088	36.6416088746775017
38.5114781663655066	29.9258905301317100	33.9165438548056244
41.6953401342598156	30.0188471054970449	32.2452231781457499
39.5099100812105632	28.1477451878069651	34.8675616273812139
39.4441972818923077	27.0165569318379255	36.4726127455492986
39.3467902416037916	29.6100578726955845	31.7255097133193544
42.2363594754132521	26.9859834701149275	32.5462514421093729
31.3009956038852337	26.0958115897378811	1.7442970788538728
35.9517856786876138	28.6583305361366811	0.6406767536820237
35.0259510127178757	23.6053470331632838	5.5592919621091257
37.1315904627315447	29.9676227850882881	3.6367130047972944
36.3314148944534381	26.3507238721053554	0.0169653604228088
34.4708614273024665	27.5863185682197525	4.3344337545843965
36.0663128211249742	26.9099346470044800	5.7196961408332436
36.3286094658594436	26.8485567023470324	2.0739122015687359
32.2695519634903079	28.2083635036471598	1.9274851395350805
37.1582303790410222	29.6197084944169937	1.6774567144200410
35.0864712194344932	30.2395150923984168	3.8829283150847460
36.5482433227496912	23.8470842136920851	1.9896479441398205
40.2733396704830682	25.8947246312888453	33.3964491144605873
35.4495569910496897	30.3707812731745861	1.9308494606105457
31.1867741762860007	29.7366078355416512	4.9069164802547700
37.3505538873176661	25.1171685587762248	3.1827656306744210
32.3942720876698829	28.2063096949397867	4.2832308489408186
31.0879998274656444	29.6671342349185707	0.7569039209317027
34.8671960189991097	25.2425424670445935	38.7246224001788093
7.7551186633886715	9.5447413353468509	3.6918812105999179
42.3410081349941123	16.3783144211216616	40.4155084932866728
40.0673933328881873	15.6570925591881895	37.3127755698859644
41.5658808574768344	30.7644002660927463	36.6699205396936847
36.5651005509381832	26.4496060455216870	33.2364728282848461
29.8861487938566626	27.3919241024087974	32.0908144800058253
25.9124380950865536	7.2212010673416760	41.6006795747273657
1.1188029634432575	8.8266012902644189	3.4413978817201034
5.8335401291246622	9.4823780374573463	0.6032744489092775
1.7507240819944954	11.6586993699293640	0.3786643736767739
0.0407869856138131	10.7277999262044315	0.8586149060974595
38.1545762673300786	26.6939438618426763	4.7476129983488811
41.4017475350970159	27.2297093748692873	3.7822729036829674
39.3569943716503730	27.8128616409422520	1.2651399207506948
39.0679369012606372	28.5530788497191850	4.3348896418649900
31.7064542675988292	28.6847033514986478	35.2926982347338338
36.8588329924503313	25.0902696266993317	37.3010761510116780
25.1601093779549316	7.2021780585448241	39.6698830106816374
33.2238445734729950	30.8870835967316282	32.0189771372850771
32.8582028758380389	26.0566267331939549	32.4027439934708070
30.3510325848829865	30.1265274693527658	34.3867119971104529
33.1286548340225835	28.9067536889212811	31.9490309171877058
37.3464018017452943	28.1010363596883259	33.5502945090158065
31.6966065760384055	26.7934208818429163	36.4069692714731588
35.4772761799162950	26.2933818034970521	37.0021719595233094
31.6576459382890327	25.4792058963939176	33.6783647580300567
33.3352851948666213	27.5975681949240901	35.2178880650929216
34.1189433217144185	30.0731604032680160	33.9470024672291331
31.1287852900951130	25.5621330596892911	31.6517745015717225
27.5814591849282209	11.8482217380955976	41.5838797590898537
37.3030133753363415	29.5953130404680564	32.1899058617963547
38.5074138492139468	26.5509814027505229	34.4445633110028311
39.1646245595143370	25.2550879686098959	37.4306258358800150
40.4148547104846827	30.9962953645062207	33.3900497412900563
29.7275284976193674	10.9155564848448101	41.3284896522268781
26.6926343733434237	12.1582506441950553	39.5681044439171856
30.5155121154573372	10.0668719118319441	39.9326775360137418
24.8633930114489523	10.4275431847940911	39.4693365451455449
26.4526700143518418	8.2073507607359506	0.4976487731957068
28.7534734589578846	9.9110908565571094	39.2415894965186922
20.4326658895977857	16.7757810706348955	41.0202523674857247
3.9970254685372928	10.7271946367451658	0.7512405985267592
27.6512032805258556	11.3944909236595660	37.9585084088754883
27.1614676261884007	8.0618315135502989	40.0372492389798822
27.4271030493469397	8.6719432649396122	37.8916378007763086
27.7134922843924087	6.4481035553979913	40.7200537705906811
29.1756310804430541	8.4526723932841943	40.6556390364459688
31.0342118492832491	7.1951787992934912	38.5209713111642031
26.8966036358048193	10.2300826661498423	39.3236354255028004
30.3727167817494461	8.6152366422951143	42.2480727029458620
27.8001290702728063	7.9533176169962445	41.8101795234491931
28.0362203219774990	10.0372622230795514	41.8966108778213666
12.4049495305336368	27.8554302628535382	36.9149206339962888
32.5024301316846334	8.3846706732666902	39.6920631360230658
41.0730692282568342	1.4690235611156455	3.8366424114861020
41.3094916604487565	42.8248312000867557	3.3726616811676031
12.3564837275320532	26.8009968359578217	30.5203299079529167
8.9054318456703925	26.1153229986850555	30.9818126245534593
7.6692691397045074	27.1375229654357391	33.5251290825199320
7.5543305782788241	25.7265106450456109	34.9561389855462465
11.9988386112121486	29.1437318249194632	33.5748647868222392
12.4169629475292549	24.8398576113765159	30.8763715227570366
11.9923447176583693	30.1987624468541647	31.7989867051880246
5.9353351342005860	26.3944211454122879	34.3566835546633556
36.0081551651463343	7.2576052775361841	38.9645095072780379
7.5472377686350010	28.8895458293199958	35.8756503873239083
7.5720796916028794	27.6784361140609043	31.7623759602554330
9.2001220195175382	26.0601071600460905	32.9815614360988150
11.3801443216802411	28.7564146728978649	30.5749918626532668
10.9129764814570578	27.0443363748237431	35.9631904518240546
9.3950673447164572	26.1215832365333540	36.7578320738025326
37.5528169709978599	5.8879464378243389	5.1676153579649435
38.3299455784348382	2.5482196620599895	6.1845069235109280
37.7828975729551857	0.9412340684986031	4.5116305664296457
38.8993419914206697	1.6533526092301527	1.5717129531430793
39.3511374411255872	0.6836864584498300	3.2150551334187250
4.1872499877040532	36.8054458712349728	37.8389837828879649
3.4549826217122859	33.7081321086296199	39.1174393760430661
0.4112778707663240	36.1439290969514460	39.1142494955023992
5.5895738677286610	32.2257773128496794	4.5757610251657539
5.7571930357876502	32.2872175279444207	6.9705561597243886
1.3465877551993761	36.0732230975665047	0.6118425112048643
4.6364390361729440	36.8540772915826480	3.7987854536578349
3.5881643921906612	31.3981792775023045	42.3858185498914324
5.0867705586271761	32.9227810886997077	39.1533066579250217
4.6905705013184438	34.4538790427260082	37.5080000065613675
2.5638719069346152	35.2018191755701650	36.5032080405209243
5.4639685631837418	36.5301247990539864	41.2353605193025530
39.0532337646379162	4.7062885463247568	5.3884057229742339
0.5871624931167873	35.4662032646434326	41.1096321430435481
0.4865941981791678	31.8135037357674122	37.0665762991850372
1.8859444214937100	35.1201411768602298	39.4026219941559859
3.4502239302678985	32.2679729549295686	40.6449469442310587
5.8181197172156862	36.1035439881552591	37.8984659930446455
3.8995629141350485	31.4208550498857413	37.0788256716096782
30.5815034686861331	12.6320047586010258	0.2091533171405413
33.1992078666855903	9.7303580859548973	40.7170448954617541
36.1095545548982884	9.2593452310998519	39.4702410869920755
34.2435314942928883	10.3531205767129837	37.2571068007397841
35.0143953757747113	9.8272519772331375	41.1820983856807459
8.5225493813879982	36.1480534929469997	41.5551529076703474
5.7286121967259049	20.2745915455467340	38.6387753449997930
10.5021328301865644	36.6611719936059046	42.0523461728675798
9.1335980034432165	30.9512078061535689	1.1904232582957852
10.3485320758223853	34.6781471966755817	42.8588418420133053
11.7196674861677543	31.2502626283711855	41.7618891780072374
7.7854934029231169	36.2684164108306035	37.6337427594670402
8.8532941774794587	35.1651156839323775	39.4648013027085867
10.1069157743035003	31.1097152390198346	40.3369444991598343
9.8671450604923443	33.1663897805317021	39.0469967307632828
7.1031506757570941	35.5325399087886282	40.5702846822650756
8.3895132022098746	34.8775544056461797	3.7401798148733096
8.8200278688499125	36.7543495686456509	0.3190647371639864
11.2658096794294273	36.7414286029936434	3.7480896966930262
12.0170804038121801	32.3049295145971982	2.5995076961270178
8.2703181891789406	35.0594395280918789	0.4845209453709572
6.5466927586274863	37.0468962562889033	4.1807397851627863
9.5837961965720080	34.9657228569684406	1.7532607751569385
9.4814425550507853	36.5307065593339999	6.4462603187008334
7.0763735373751064	33.7119578588285975	7.0991826658872776
10.4387325533206479	31.3377117471654749	5.7854815105728354
10.6793925520571946	33.7165452358550368	3.1648873040219874
7.8283361252599857	33.3117268565127844	4.4209872599335682
8.9821596871924623	32.8256815185339264	7.1181775777253113
11.1788421930512865	27.0273189801369398	33.3212775802275871
0.2041180691675993	1.2913045615684904	3.3753760139258051
37.3920075973092594	3.8421983351068678	5.2373918636731807
38.0963428049873585	4.2796485861359814	1.3320433494109016
10.8723540479595187	34.9140815285962773	39.4125226386588210
7.7907621969335574	27.3262926802912958	36.7137891162633707
12.4278092046853725	25.8540945752560276	32.5515706204337292
8.2782582741274187	24.0789078244337915	31.7722661026425790
12.2271365617865229	29.6800392261886934	35.8210076314083423
12.3762692901931857	27.8695104269860963	32.0573755155271627
6.3196809710505093	25.0752705938966614	36.2183528901386182
5.7348534598863283	27.1255861988402991	32.3982733330061166
32.0772976601530360	9.9518752704282960	38.5519213518610755
11.7092606440561120	25.6522222448595869	34.6889426404301204
8.9894794796991579	27.3154120271286089	35.0136390528329500
8.7841375197076417	30.3968658833025636	34.9866031700766982
7.4341436765658795	25.7260379361386384	32.1669083886595359
10.8738808324540539	26.0787515397869250	31.6455439960264329
8.0414353891185257	31.1939954148658600	3.7441800083242085
5.6460306946146748	35.9916202267106939	5.3656426761043532
8.7772090984572912	34.5155108437366849	5.8895355208131654
9.2904334638971946	37.1031315765800400	4.2445337235830278
11.6283597915727945	33.7709077704340999	1.1313428963095635
22.0835912509357293	30.4122129778983243	32.3641502489080821
20.6924243200548972	26.8841322555399529	33.3818119169803040
24.6004090444101955	29.1238629770862225	33.7703742027508653
20.9623180245482175	30.0028091169934896	35.3332194350268125
18.2360667419854465	31.1238242704871446	34.4760897517995559
22.2295366219760027	26.6177883057869735	34.3771761848886328
24.6522902823414434	30.5663073038344351	35.0423280809139257
19.5909525953856587	28.8848482207953836	35.9304075982893067
21.8886183457742689	23.9751316301506492	31.7965729310606982
21.4765180014140213	28.6628337797555233	32.7921974356782968
24.2413983567171165	27.4809560466738070	37.2305635873792369
25.1680570349723638	25.1629338542760905	36.2913360127034110
23.1191582882199604	29.0212586280472280	35.7283589184049148
21.3488530390057818	28.6219698371232276	37.0359403959529487
19.3607216992927036	27.8732754710597419	32.2460533670700613
22.6897065843556440	27.0635665951815092	36.3478603755047232
19.0436763233051494	26.0712891739802792	33.4751840988735907
18.4216551925754111	27.3920803087192688	34.5364453923232020
25.3876548936952702	26.1632283158432912	33.1649804304538875
35.2156120673543072	12.7087321330719494	0.1992904240875543
41.1832506647369527	31.7425476629428438	1.0573318222891461
1.7633544461254038	35.9254712654503265	5.8504217976209336
3.4816730997213132	32.2335251124299091	4.9149256733574962
4.3924841701315263	33.5433266366817051	4.0601120171652489
1.4581739949714827	12.5191052789480821	2.4867130315448529
24.1875157677196491	27.3486591829946555	35.3297965356519725
21.1869211954316974	25.1233313179167190	33.1993625091385454
19.9740701237561815	25.0716883482326409	37.5222257052546624
18.7977998319318864	25.3581014601026169	35.4798579569760548
20.0219519941854287	29.7380316954585560	32.2628649183646488
0.8011725248651285	9.1751576324513398	5.3158081625065297
4.3498966805919110	7.8936535251382267	2.8544272629021066
3.4222494647093540	13.7858275637263965	5.8349323868573002
3.2228642844581494	13.0703588001370221	3.7947907544759829
4.7499599358291889	14.3962381223613551	3.2000413058172916
1.6959057091714298	14.0708909527873853	0.0574864878020733
42.6190615699575517	36.7941938157612469	6.0668283719272296
34.7291973355880614	17.6485537012195586	5.8677787684733476
35.6243360078914506	18.3317007979665298	1.3935630372925101
19.8251362000277318	28.4871902093857550	33.9569562467787591
24.2629454120167374	26.1425294338761560	31.7533442940452453
22.7453814006169139	29.6167227860505946	38.3683137876717524
22.6819806293454427	30.2979869297546074	34.3809333370123653
22.1605179914519717	26.3157252352048019	32.1478621527620021
23.3162191187928904	27.7832261132402607	32.3966423030909354
21.9376835536606087	28.2620249515947961	31.0952979397349942
21.4339213119133838	28.2966277119445841	35.1227952150131486
20.1803823599737910	26.9033507950215451	35.2198373290546627
17.1816469919747057	25.9870141408198521	34.2963089221484623
3.4094955158712730	35.7156853513914925	1.8022699764877006
1.3988564799493450	34.1225575429643584	6.0888115645686760
14.0399071068163828	28.5219742543365591	35.9487564889930908
17.2297403442756369	27.9676673806081943	33.0893685899524357
14.6796858019415364	23.6409499793343372	36.8326614422595497
17.5834112296145797	29.3096931115190138	35.4892291467396674
13.7422044699208801	29.2314664171441478	32.6694027998190606
15.9142119707182790	29.6814771899478913	32.6535843519197542
15.5099834525772575	25.1245162859004623	33.8982423078427928
12.7970082305013531	25.8448089217108254	36.5540646330357788
14.6452711679792387	26.5123109480078334	35.5046426318931410
1.0231334042328359	34.1346542473481449	42.8336458164948652
17.9413890391163697	29.2919747828708594	32.0559869697729098
12.9649362243980786	27.0430204315963643	34.9778695524315140
16.2651630442148871	23.7482796420220588	32.3633010845864035
0.1704171474222912	34.6619945641804250	1.5136446850867227
2.4237607730790596	30.5198368318621185	5.6357091591894708
2.3811222068747608	32.0528937644793146	0.8014809621342702
5.3140779456217926	33.9264477628371850	5.7153666586106899
5.0010812880412931	30.6131019576614918	5.7754586756406425
1.5077875920481532	33.2009749984436340	38.7334673566861909
35.4356231746461390	14.6583320435427336	38.8903062293097079
34.1466197533339439	6.2189243649987604	39.1484303349712803
5.6399691043698583	32.1350780926682447	41.9766425678887245
3.1599466626769011	32.3458996048932690	2.7631486221712169
3.0375387225912935	33.4994117860913363	42.3179513275552424
0.2638037731149505	32.5912044062429800	1.0138240132722696
1.3342410678876568	31.1681147619682477	2.1454244775368254
3.4256693160704708	34.6011434385775303	5.5182559952289134
33.9473291241071635	16.5728441408716130	4.0798519652541918
32.5437576756119569	15.8339106276576480	2.8701385269732871
2.5124310317171696	17.7828288344190248	5.6561124263027303
4.2660109639662851	16.3688984117900809	2.1665341316906455
34.4369457709317714	15.9107419023414671	38.0123595380503474
4.9998981731290089	34.1372404138049248	41.6716465011598345
34.1912620563080623	27.6051655697381726	1.7086226931375144
42.6229376977426924	33.7477916033974097	41.0930066684029001
2.1371846426458121	31.0912034204844971	37.9136770024803127
42.9582106108980284	32.3591573559968069	38.9887222197538321
1.5391449857488477	31.9277461778170029	40.4568661369938098
0.1215168156942432	34.9233661234717445	3.9163408487903038
4.6331911008126827	31.7318188803315095	0.8660973194944640
2.6578746878954114	37.2263954815281295	1.2400309154199847
1.9865797605338191	33.7090059130531614	1.3407506251807517
5.1743856535188479	36.0970360345326284	0.6011986376193693
1.5748007319220287	31.9235477665796346	4.3203058146533095
25.2399047687469249	32.7351911466495338	33.1317002076081337
26.8133723391873673	32.8450696116703540	36.3566330671661717
30.2791244652358422	36.2361873462604578	36.0218090004580702
28.9312599238548138	36.9040910053576141	34.4212258909188549
26.3265854954527505	30.8270804073472782	36.2541594719728266
28.3719685005707838	33.3999316755212803	35.5926622365635126
26.9075953601782345	31.0693393709562322	34.4326459957201862
30.0804985646373773	32.3331533233168855	31.9696038086429937
25.0073728570691109	32.1798635281094718	36.8032424536498439
27.6679686789818042	36.0931806667548614	31.3659678051032849
25.3996201136212640	32.1365778748400786	34.8419426457572499
29.5620813547211760	34.8507998940920274	34.8302696229890856
26.4876800254764504	34.2714030772805316	32.2340401797014167
28.1525062607980523	36.4144956032092963	36.1947207689986570
15.7453301015988334	11.9945496788716444	1.3779392323926669
13.3782900252740671	10.9735234229385501	42.2843369454668334
12.9735397539118935	9.0102302591434142	4.3952421130769128
18.4043797853173494	12.3400986584203096	3.9564176981983681
13.0084477650831385	9.7419136605793426	0.7043316523981271
15.7717725241944411	7.1306481951587521	4.4615799876029234
22.8129647310723485	30.8746871882774769	39.7562901351605262
18.9668583528613262	27.3427411379891119	38.6033736305280826
23.1663255472513114	25.2767753672361231	0.2922170042218185
21.3975558689370544	25.7509745786756952	42.1920789029013292
16.0058902496593234	9.6511109524349372	6.5481692305022170
15.4395834707318258	11.6533654314141710	6.0080092956326174
15.8683583501453693	9.2386207486824965	4.6019356784490570
18.6813937173466407	9.9565238772053775	1.6259055886749381
18.1874505586466597	8.9168669458353893	42.9812539928662716
17.1425410868453518	10.8996115406152239	5.4741180597045993
16.7443799594984064	7.9728229650264817	6.0771753865391123
13.7064846327272960	6.9319823373447207	4.9595456343824829
12.9070133988231088	5.8046331385173344	6.7415418510044463
16.9263487656142111	10.5354201822486644	0.3819554599178219
13.6130673918244050	10.5759167213377889	5.8972606687453144
17.5829944338455171	11.4911788376620212	2.1547490108611305
21.9209063078285240	28.2131560223631830	39.1625864936754837
24.7154482799922341	27.6577557141516621	5.7150888642258630
22.5500728231980432	30.6852039561655054	6.6334087355984392
23.9214076185305302	26.6992828947614811	1.4010518534331582
23.0606927265459341	30.3713517521011660	1.1295859370532204
18.6521840100584946	8.4057438536578353	2.7122760207238912
16.8852752354948699	7.4079756646389576	3.0172009610318420
14.8949152508696745	10.2105718436086388	0.6255794298523115
14.3155936109713551	11.2448670560363375	4.1783127872314108
15.2073654038871773	9.9912973317824747	2.6797416047638456
19.8167288731428002	26.5434843257128712	4.4883068126446943
29.0084890323261568	33.3771509957349721	33.5515783223088988
20.7693018149821107	36.9395524491474063	36.1074916347186416
22.1184963741663729	26.9921078636660035	0.6748600647891483
20.2095967464353556	26.8515362475998920	0.4430020623674701
23.1769045415530002	28.5010051983051120	4.5540700229795545
21.2778947605140694	27.8219383989499178	4.1494545406299350
22.4874052707804317	25.4421814260605217	2.0788444083514603
19.9450028276098799	8.0339480656232372	39.3247215386246864
20.1381809821951343	6.7389387070755031	41.0426260467328632
20.3961134626389757	11.3557204935053964	42.1614831235641034
19.4789130100908459	35.1843400329733313	33.1602132304920900
18.8208802921101430	32.3360814311268925	33.0119297090490349
22.2119378380047294	36.6906416899056467	34.6311877023352324
20.4094322038456149	28.6204850746240460	0.9373687476246045
23.5967312998337242	35.1571342857048776	34.2076062149136106
23.9842753438633096	31.2369965679890562	33.2620046641829887
24.3395529838132028	34.2225719409471409	35.9327852728226063
22.2364993806517219	32.3015752420934774	33.2291987491780532
22.1799581365219147	33.4888102194381929	35.0744817081235283
23.9088019417156055	33.1330699107695281	34.4038897773787156
23.1105368528534854	33.0561503910104264	31.2728061051400665
21.3863778867888215	35.1953156583372362	35.9166888585352879
20.3755572243450338	36.5832589786641122	34.3685181147191017
23.4160409100435274	32.0368366800044768	36.0409416989087532
19.8956919367838871	31.7889358084855864	35.0635800413532763
20.6703190757236790	27.9559933518039401	42.0450259511215805
23.9287849683551848	25.4893260498002938	37.8465597033917049
26.9261432785154966	34.8151177888868091	35.6839288877061378
25.4959528424219890	34.6432043333216058	33.9184910350802227
28.3660205600072750	34.2350022845517827	31.5653352501557336
27.8483389252275870	34.9053540995193146	33.2749309813037826
27.1062088151962719	33.1514601372265858	34.2467525728795863
22.5943257242888649	27.5331421729597245	6.0325322559322352
21.9038369489630647	24.9206433678391122	5.4711952050810346
20.9901989889888583	30.2677556688441598	1.4524855813824331
24.3940269998650408	28.5048360749712266	2.5035527440293115
18.6658712686926158	25.5113237122193297	5.8061566690758903
23.7692622793834403	9.9982553939221486	38.0255523930658157
19.3161335954317330	29.2505746554879487	2.6068031320522800
23.7164638242403285	28.5960089288264179	0.5345739883290135
20.9233141465869394	26.9540921332708727	2.1760272644310761
22.8038174652518535	27.4680669369603656	2.7687115719003499
19.7054658043702347	24.3405214176930862	42.3476064935140002
23.9258305577310644	25.8848333815962484	5.0444892633317613
21.8526008238070482	26.2117850876434666	40.2985795333570351
18.2153588959811756	27.8394098695741334	40.5852952547349588
23.5861947578586779	27.4168891116160083	42.1358707370396175
21.9701534114035333	29.0995299928627560	42.9050255379610874
20.0758741960144000	24.9408448271729419	1.3745280687512420
23.1695401372979006	7.5885314763569127	39.5759605074461902
16.0925331843871504	29.6841014623603066	1.8641316416033689
17.3878503980925778	30.3559327346523986	42.1019142049406767
17.6566444198584556	27.3147796072818281	6.7574419848335374
15.9284358874132632	29.1021959774686501	42.7728195291736029
14.1455679312427485	28.7439060926348802	1.1932594463550745
17.0783840344613616	31.2325027636998165	1.0419965337623416
12.4363951989188131	29.1397759152211968	2.0949714044131231
17.2943888940328954	30.1943925444789940	5.4485056835380652
13.7236703848532446	30.5787520745726482	38.4846046524650802
19.3535119086136298	6.3215873702521392	38.5909113191909441
23.4589605682028406	5.9306209912663155	38.8328667815078177
18.1107484430423327	29.7279010626604965	1.1604312934190686
23.0187568553438240	9.3285311144556111	42.9923870519314164
21.6875070961471401	9.8325458732485203	41.4672194047912583
15.8441915686977239	29.5852048448404226	3.8929305298761934
15.5477568834352731	25.6621353104169359	6.4615187610446219
15.6331284726552848	27.4368925476297072	1.7356312197960866
12.7432416172783398	27.8223990928365374	0.0693044291470515
15.6767613088402324	26.0778303212331224	4.4361694531672438
13.7318087012421906	27.8366951642358380	5.8943283197209002
17.1601048661559368	24.3711522533376126	1.3834993468259067
13.0131292333063833	26.5369631938256241	4.5904606921029272
13.5198660901664240	29.9442916262436789	3.9433973040391312
16.5643115909080798	28.9869926974798098	40.7611308865067343
12.6591254170284770	29.3219905273447381	5.8776533272435758
15.7083187331620842	31.4492017089291593	4.2855127244213245
18.5726518572592134	24.6657099002854352	2.7090698771604149
14.9799088247345189	30.8454472919869787	0.6013244762703369
37.6788607903409201	31.0730194250994032	35.5302722379750833
39.3272756960742527	34.8406478998107971	35.3793461507719371
37.9522910169065000	36.5373411295812716	35.1816601305778676
39.3429291335843558	34.6404623883475367	32.4859140793555596
41.0862166854464874	32.2325294773654676	34.9978729340105232
39.9503560175539221	32.9923009538267493	33.7976309880033341
41.9633636099352074	31.9961900051871631	33.3975420538976451
24.9696368260079282	9.1273352644431966	42.3391627416990914
16.7145496486011851	26.6975540580125923	37.4889085472515760
14.8767228962213167	27.7315509794402750	37.6643198438074549
16.1068271956222553	28.0917466588512710	36.4133250502869430
14.5340782074226311	27.6957761787447971	41.7974521208252483
14.1005042665700664	29.5773218598808540	42.4756343792797111
37.5933517232452843	35.8089568930420796	33.1145934446611179
41.0781130997439661	35.3076844941138361	36.4656476102020477
38.5100756457073956	33.0476173964567366	32.1787405324040492
36.7496508380734923	32.8531327483675994	35.8986356625218761
38.8458540259498619	36.3154346248956372	31.5579870659609085
38.8672028866218326	32.8381274243904642	35.5734307786691488
35.9860707091366621	36.2184046509276385	34.8978268806610714
35.4496244975503529	34.7862929477036076	35.9667739789011520
34.2260118161909830	35.1415044894795230	34.5352822380264897
36.3769548716999083	32.2877081467365130	31.8384166173961027
32.0415605863194486	30.5338048479005160	35.3187135167822177
35.6799166112991344	31.3074825283929599	35.0183914346030392
35.0023085427098977	31.7308836603888764	33.2240222276029300
33.3130159883071784	34.1774503830968825	36.1947130243001709
31.1733265200330045	34.4006847672702065	36.2361202639413520
37.4447768280000659	34.7189058247642777	35.5291563286442553
33.6060683353760865	35.1562806911188019	32.5012555811228268
34.1048858935169861	33.4862300181131047	33.1639818485552667
31.6786021704505671	30.4257085478038682	37.1273738665738406
30.7029597873405429	36.4279065387965275	32.1388707883384512
34.9719655068447111	34.2114568607499550	31.5140410881419371
34.6899410733015543	32.6013087758989357	36.1872206006748058
31.7911829291259345	34.9388396502199186	30.8114269018264082
35.5870685213343805	35.2467469582376722	33.0702183646266334
35.5961772150076428	33.4203351754830251	34.5701984031999672
30.7330672828678715	33.2580492211494558	34.5692285684914253
37.0489033574949786	34.1223089799935977	32.1703363513952212
34.5916894376121391	36.3130478893107949	31.4651947786929576
12.8418496901305215	26.4014499808814769	41.5723183941650234
18.2549389317589714	29.2419641896289022	39.3955779931101873
16.9640967737220834	31.1379605487342737	40.0869144208766102
19.4537177093935938	9.9895367328925744	38.8438276971414638
21.8575439304963410	9.5178213578495772	37.1958345171784899
22.6326599088188907	10.8701972217632274	39.7974046595722797
18.7986827184936907	11.4506864908088772	0.5575749802769397
22.0618157317746473	5.8540747509716411	40.0355294390046765
20.5726035701845973	11.0365770053730596	40.3518126278893590
23.2258540097554089	10.8771851971998181	36.2664253387091904
22.3387204299804729	11.3137546642712472	0.1157915879628891
17.8679952998186771	9.0736176772906383	38.5968924625006906
16.6790212707808010	26.8103336523908204	41.2203506534558670
15.0509483764415890	31.4736688557399127	39.6665951219351598
20.6580621994754026	33.2660874924933978	33.4886237737945152
15.2427377500047392	25.4778879193583485	41.8930682731604591
14.8883071913415783	29.4146238087696830	39.2644474828444956
16.0521486210926838	31.0757377373160928	37.0678644575605034
15.5153506654247284	27.7293015320921938	39.8365269147586005
13.1594961959058221	30.2434629448379972	40.4656272995211665
15.0615187701839375	25.7637134043792955	39.0871548472055679
17.9648379784015866	28.6537880309600297	37.3710606285195155
16.4500919420811904	28.6395064318027828	38.5021071770118439
33.0329726706837690	33.1132615685825726	31.4860890081839884
34.7168692965688734	32.0018527656297920	31.0843115111448753
11.2677861350050925	32.8769457304028521	33.1390480532802769
6.6464036496563876	33.2525005719628197	34.6926678548900611
7.6314161616836724	32.1477775223170354	35.8813621322717538
6.8031654094836140	34.9850787553184688	33.9129568260018530
11.2762905888755505	33.0996526907253283	37.4003260553144514
7.1740727070747496	37.1639549135407563	34.5038921043914684
13.2907944773731153	33.3929118188246363	33.9428498947372148
9.5177777398841918	33.0225272834762151	36.7591516517576622
7.7201612662799004	35.2505788193126008	35.4191898513928294
6.3251110946270526	37.3529516584998404	36.4240778874559439
5.1672344619229937	32.3666046742424030	32.9687615277853112
12.1799690915633843	36.5443363208426746	31.7934472884767807
10.4975668911312887	31.5818762127526433	31.8807916661916337
0.8054423101289492	18.3000376273683436	40.2071680434350966
38.3338777680714102	14.6424758531542878	41.3016549326652154
11.9578126291784486	11.3065376256834593	0.6340301534824246
11.2122732023549858	9.3338518383435467	0.4733603008687062
8.3285382964606747	8.3179765893699606	2.2530452736037847
7.4471697805457726	7.9075989475897250	4.4095642254634617
10.0899126320429691	9.0680550356756360	2.5261083533143101
5.6444722998695367	11.8933723761788972	1.1033428534093737
7.7964510047628170	10.5554445680647966	0.0581580118653281
6.1247128681133045	7.4626922322294122	6.0733546615248191
6.5434369366387379	11.1336910617105982	2.8697179987360535
38.5014858281391597	17.0400916971137484	36.5701817173419599
30.4979715757607437	25.2171785820665022	0.0374511094584720
27.0357908401958831	30.8152950838689677	42.0535827878504520
0.0241604681789909	17.7329821291157828	38.6489920969757250
36.8656087372876300	15.7231627684394457	41.7670014015992521
39.6703442183494133	13.5511426539583866	40.5124413062162603
39.5979056618124616	18.8678037787462785	36.9784099167137441
38.5028623265323873	17.9877121387441719	39.8753770047989562
37.6963778489065930	12.7267964174097070	40.6780628691263644
40.4095747440713211	12.9215847969075366	42.5134597320682701
40.4687116721100324	15.3800683801077511	39.6687868508883383
37.5803287730571185	15.4917986289400353	36.9485688186355290
6.3960168377803237	8.2733223447577284	2.5268807188542040
7.8168780276856813	33.4666807936612045	30.6510828022410884
7.0937272717901694	29.2571701139586722	32.9084431301040965
8.4901070399958343	33.5142012887200451	34.8125645774911234
8.7795848334179762	36.2791056176093818	34.2301111362048971
10.6586532144278650	31.3060758555290093	36.0672708769798831
7.7102601466370277	31.7186038363903968	33.7929067656070501
9.3285282666259732	33.9559233244497634	31.9515997148817696
12.7417801284597356	31.6605371461053409	32.8206240214379790
13.8069790002228654	35.1132180108207095	35.3445105152564949
9.7209354665804444	35.1444684832779828	35.3286828072172199
7.3681045422543026	33.7717474575307648	36.6268371387242482
2.1652532356313166	33.2006780002232986	31.0291272392281599
35.8915816712193134	29.8237005820541050	38.6666317745701136
32.1685956700580817	24.8050524482152142	39.1123354742523617
31.9949932131448413	26.7075520100175190	0.0927763070576546
31.9244007816071687	26.9687181243130887	38.3341908597626642
34.0994758823287754	27.3273052097986202	38.2740116601766331
34.0590424191797112	28.9449126263981569	39.6848557835598186
36.5348505055652666	28.1024806034588721	39.8160823348437134
34.2238045359137004	28.8993614864038086	42.9867698504022471
33.0810767492017277	26.2224694712296582	39.7655093546760199
35.0552753927798904	28.4838067046191092	37.1503149961683263
5.8352176824103763	34.6913685041533455	35.7500230765870626
30.0803600299282046	27.6824328753806022	37.3745117459382783
0.3339089685886185	32.6082557683560594	35.0092630498835504
1.4950250086667856	34.3104409428934645	32.6592773450594080
3.1374771094931626	33.1117736390661292	36.1482489102035700
5.5380840651590679	32.8231813090334370	36.4093900513683337
2.0066370670589353	31.4131590135793033	36.0111128445607775
5.0003486936487178	33.8689088707877204	33.9525378684647237
4.4818011901607644	36.0947571102429237	33.3596299417223250
0.5926938214151578	34.7064798809209023	34.5458090087060299
3.3909447463566740	33.7603039465721295	32.5516339368545289
1.6946693976212286	36.5363719523970687	31.4965072206926280
2.2329670733408338	33.5536688938755958	34.4169092766569023
36.2275523762700402	27.1681280710938999	3.9542488889315330
13.3369770799182348	10.3840339482837081	2.4451966707722574
34.7454094328334051	29.6348191343819174	41.4007821127139479
32.0654457590843052	25.2461764076749837	41.5968602081657082
33.0152355240768003	28.8354102833476809	37.9684669226229090
34.7580974159919052	31.0113928917527950	39.7236986683288649
35.5273040730679384	27.7403752717416978	41.9502450563543405
31.8814405476694809	29.5118330421393473	39.2574955633964464
30.2255787896652599	29.6402525650140767	38.2157803812997088
34.8316026478326677	27.0590292378472199	40.0176322944051108
34.1451479310722377	26.6865320526946448	0.0904974468606375
36.4017683705588766	24.9225960631814587	5.0736171220392707
30.0584282031052048	28.9398828073106387	42.0988664283564660
35.7934696290458163	28.6034429955216645	2.8632473346825127
33.2088924876414922	30.1025050731651120	4.9237477645149905
33.4218997503371114	29.2368245700200156	3.0443312462936416
0.7878508274828484	35.8849140574427707	36.9538885838951430
3.3787498735440380	31.7715974316415277	34.7560335221658434
4.9535223081246755	35.3181933416525879	31.2567126432876954
1.2224729228549280	33.6164894095086098	36.3046969434655225
33.4083416583898440	29.4686805746187872	36.1930585074471907
37.3151001919583791	28.5898274250026496	41.6380305372521775
33.0380016886852630	27.0600466529922699	41.4120759439712813
31.2894898434191475	29.3711350052206193	2.9446858042456023
29.8545087309166703	31.2609636451152006	36.9530964194117217
24.8268526180648266	28.8608814547412109	41.7981109854214665
25.4063319777611092	30.7651942950379471	40.7547165822280348
31.2414628855645837	26.4614477575393785	40.1715764447714179
25.0066375623938235	25.6460618419999449	42.4099900042266924
27.8098443503467863	28.4989507488853633	42.1429097872653955
28.5096697652811351	26.2617249819836651	42.1343022649603114
27.2525432295818817	30.4266792053325581	39.3421528742824123
25.4900059518355171	27.4252455958557846	0.0674724302746350
28.3417457093252985	29.3106000130360620	5.4930697294729667
24.7822605546437131	26.9885393926314627	3.3387374818318913
1.0214499381744440	12.1002408855542818	4.2427145345864208
28.0871352291832288	25.8442285102044060	2.6505596826718798
27.9690577228348474	27.5417186598344301	3.5192966789074736
29.3870138421604921	26.3609431152456750	0.9382819696140876
27.4875316936665008	29.3390091265587891	3.1183081965198465
24.5213269596110415	25.0170667315248920	3.3527127142769784
26.9823683793185225	26.0726615105722388	4.3001778717918162
29.4023628535945143	29.2738360663181254	3.9051760412255545
30.4928064893237796	27.8998484858585059	0.9635125686892940
24.9058884250507226	30.0566624861112182	0.9508653091323259
26.7605136504771863	28.3368084137394121	5.0991874584310670
29.0911636315619511	25.8117968281286778	4.3497335515527613
17.2433473863132356	9.4196388493909087	3.2910748888032226
20.3254997167863216	34.5042149818243047	31.7148172569537081
25.0879041416506823	36.4978459862899456	33.8988570461377705
21.2152196891057905	32.7064275067110586	31.6962957272564942
24.2469270110479904	36.1374061412654086	35.6860065863967932
18.6139643279997458	34.2648645006618082	30.9398502025451734
20.6205040387564615	31.2849792272010063	33.4745328978618986
23.4067220893081860	29.0108593725703159	40.4538343833117153
18.8732852754478273	27.1539149135581894	36.4743303062257169
14.8202667654875420	5.8977004005524485	5.9872020034058435
14.0398939551634552	8.5592781866209897	1.9585450488504670
11.9617217940305949	8.7862151212492456	2.0825647753399914
14.7674378278052139	30.9393733840572835	33.4818774471044165
17.8120836174109769	7.6461066921770788	4.5811834409329641
15.0836169294050251	6.5862873365480255	2.4093293447542710
24.1706015486789951	5.7931086636992966	41.7707744930289735
18.4006152786240023	10.8197360892993473	40.1082883820715210
19.6279439557823530	9.5177094872940753	41.5154507816156837
37.8766025233287564	16.3798601201155698	4.0884164222573975
39.1852537635024163	14.2123997061242466	0.8933232296977232
28.2329386777631015	27.7030092754106896	1.6896912426476156
37.6289193794583952	13.9182931348683194	6.1349820301447426
39.4232548110287553	13.0206687004954986	4.0399877822854879
37.7023887092114336	15.9287105020685704	5.8971649212545589
37.4051097195228408	17.9383823804961757	2.7232976174165087
27.5496180636850703	27.0169766529663278	6.0213761454885990
29.8079413903631973	30.9468529201671849	42.5939732814169147
24.5944219939081776	24.7217827790040126	1.3499740296576206
28.0338295468504946	30.8497389694177713	4.4486259270250841
26.5506493978871916	24.1007795342255129	0.8919679030337964
32.6491450457964447	26.5846516815783716	5.1388124507514199
26.4393257218005147	27.7196597618934106	2.2000201362019549
42.2899287938782251	18.8689658329437826	0.9749320699050391
41.6817465724992786	13.5940088689014704	5.5727638520306542
42.6925736818627684	13.8860699827915877	42.2665204146666582
38.7426796463254348	12.4618863400872595	5.9312695455885471
30.0204921014405599	29.8821103648483728	6.4147676638380764
41.6370771870515526	17.3450724851284335	5.6956610704328563
40.0343214895989803	18.5475573957767033	4.3569478607308705
36.6189195424336660	13.5370921140149854	42.0662246404510967
3.8728658215387837	15.1630522602461468	0.0116773242757881
41.1738567843512442	12.5363961193356985	40.6528903879434367
26.0655290921045442	27.0786299372170767	36.7162024607294626
26.6972338716570867	29.4855493909084849	40.7912880285328470
29.0601906212727705	27.2835914426155881	39.9225653488253300
24.9860878015613537	26.9400956506850591	41.0626359460443737
26.7714560522019944	27.0983963277179143	39.6254760735214617
25.8588011252146792	24.4624186109166892	38.1568314897443983
18.2541812846195342	36.4859967817829371	34.2296725199497587
14.9981065688787467	34.8916760403690915	31.4909735416338705
15.0007887105721949	36.3339842274889762	36.4116651000392793
14.5316882865686470	32.5640606326187836	32.4647071235284059
17.5295551803540057	32.5363319654911649	30.8355341229893618
16.3380051592723490	36.2212537356907518	32.8859081294461362
26.9939835127030179	24.4593265277410623	42.0811435326920815
26.5553381917143057	26.1169978398149567	41.4498447597558979
42.6142204523583956	13.5345629553312161	4.0032972381304308
37.2695074431229045	15.1376352794243605	0.5810540062247359
41.8227622602399123	18.9321462828119671	4.8949333704595572
41.1841424652952099	17.2731939234355707	1.1500530501160324
8.4756999575552925	36.3593732177549356	2.3957817891239555
13.9872779835416985	31.7316237957155707	36.7631730749009122
16.3111236155116330	30.7094949931816892	34.6034380093538658
14.3114752105586920	30.7361525755678713	31.6789925658286968
13.5559792961538168	33.4486869489761887	30.3399849667476929
15.3749133047231084	32.6160148016218514	34.1831836752980820
16.1660192594068057	34.7564528664998136	35.8033690475069974
15.2307903527038544	33.0901019595890773	37.0789206189735268
16.3770495837357508	33.1331649666211945	32.1083885420593091
16.8224359464309288	31.6349153517636417	33.0157600153444477
26.7817959423656617	30.0652363575782005	6.2514187896743474
21.5471003217312607	7.3650912247063332	24.2547101452577749
29.7128945043338248	41.2836130577020057	8.1359488343743287
25.5403784918113921	8.3404118537363026	19.1937502719002424
18.7153325419976326	7.4464702505958771	19.6113196509007679
21.9341527839852297	10.4847440003125456	24.6476208231534279
21.0272701615867099	9.5136203325122644	21.6284795152202882
22.0270377313106565	8.2488761421312446	18.9374257682433687
24.6711584642647637	8.5655561783534768	23.2432556817244844
21.9532707870844064	11.4218943465747422	21.7272097628941445
22.3486326828317310	6.9054408361945399	21.3421936543327497
19.6634211492063962	6.4279380736629488	23.5001961882603716
23.7567847921584914	8.0555523650362755	17.9501605759420997
22.7364706673133483	9.6546237666499088	20.9391607276753007
22.5313066522545604	13.0868481180888665	22.4503542690200533
22.8636317378826242	8.6245288443584656	25.1666157264101642
19.2958529471092319	11.9939856524430120	24.7545594458216449
28.0797107539725381	41.8801768672360097	11.9701936074909785
20.2828062930935431	7.6908539485497300	22.0264627899285088
22.3273055210360951	6.2005129625375845	19.4166194304172350
21.0357931174560342	8.7863081816034416	25.7708527557905782
24.2395426047139644	6.1208740536459745	20.3800034478985488
23.5017731745136302	10.5380968117260050	23.2448894927602900
24.3318471791326161	9.8618383709590045	19.2433073923065194
24.3511658954555124	11.7981239269947391	24.5669396808189191
22.5394055865552261	9.0628406669197137	22.9512031747194882
17.0167453022686139	7.7416689037090620	18.9511529972704480
19.0408824143913264	9.4219431000575913	21.1310583516409558
13.3223803771036149	12.0272703020634530	23.0386183177753097
12.7257285848330195	6.9731416003733528	22.6408386146069844
17.1996510729765255	8.4776403444407897	20.9887929181372215
17.6486106897261585	5.9046046979673417	20.0808229448493876
14.1764311119834296	5.9093350106925131	19.5505818371097355
29.9187434182081411	10.3925391982493078	19.6194333609230256
25.7303747872319626	9.4037002623223191	21.3539599527745914
28.1863504035873937	8.5890988747988679	24.5297633065369070
26.4603277673410346	9.4745224312284915	24.4932059741330939
27.6192094966623891	8.7995247613763663	18.4766066480438198
27.0066890352504991	8.2799711922792536	20.6090335845354780
29.0433186528782912	11.9842456036423357	20.1176881883786329
25.5459533787218618	10.9730367345998605	23.1509183793125644
26.2730019676494315	13.0666179451631415	22.1979592716967815
26.5135716179112144	9.8262642792782913	19.6618365837875864
26.9897546599494298	6.5499840153520790	18.1736625608516498
28.8709535537241138	8.2492942927455530	22.5938334421423903
26.6865510054773516	7.7133965848860067	23.6917276287502503
31.6251601253548458	6.2994901354562911	20.8537733849480524
30.3977571664142481	11.8164381653419159	24.6079151652996586
27.7779657869628771	10.8834825246472278	18.6628105404923410
12.0994194922422036	6.1754017139623514	19.0015281534300797
30.6859486687297505	12.5058040221063962	22.4469100586084558
26.9811616777138248	9.9943367430444550	22.5219375479963873
30.3344271609537834	5.3236521376186099	22.2137960601583444
25.9939482285469516	12.0186727682887362	19.2968920859791169
27.1327900144773295	42.9238683480404077	9.0811948311423478
28.7254052199254062	0.3001143450856430	8.0165093674323789
28.7635420778453899	38.0912826244249914	7.5052370025844271
28.4376189513667654	40.1585909598061761	10.8261929604945450
25.6323954012554154	41.6177071015319129	9.0363131202425606
29.0103479538136249	39.4472544023546092	9.0663834162674650
25.4992331990091436	39.0668100217872905	11.6282983140202028
29.4525999059417956	38.4023093024478257	11.2019820111558257
29.9697984032615992	40.6076680247082251	11.6896960113569097
26.9205572741941062	37.7846280856710521	7.9425332860824698
5.1281088363757670	11.6046647127952625	20.2887933566334624
34.7607905362525429	41.2115800408754822	9.9573044917758775
31.4185970468459210	42.1799445097986236	7.4480588749999965
34.2776905756882542	38.8754550965380545	6.2150917425921941
32.7989231413822822	37.8166746397869602	5.7029627434472170
31.4705523264219771	40.5146962491518536	8.5642791951826034
31.2004893348663295	42.5245798959150534	9.2038121805995790
11.5373592628119201	9.5378669600147035	20.4634573488321578
9.5591706773765424	10.5893558417280520	22.4743161948215935
9.9071080872794770	8.1470648510181238	20.0113503659935219
8.3359056653511878	10.1583195202004308	24.4037279240484715
7.3438233645057398	7.6923347363492880	21.8672639962429827
5.8238780119863742	11.2174411853522962	22.6922979937841447
8.8606441996575320	6.8634651344783855	21.1867094717485820
8.7344356907366532	6.0529800707125867	23.5488084167213430
6.5474805493363100	10.3851833966000111	20.8658571187205659
34.5853470987115230	42.9621007649207840	8.7028262616946428
11.7536820423880854	7.5376667125478631	20.6749300073890154
9.2440137133338656	8.5855038441163423	22.1403357763864186
7.9314453111325065	11.3494659408592788	23.0925701490308342
7.0207437893046096	6.2831047956656727	20.7090907650637526
11.0079182793007373	8.9319504728389081	22.2470398584348814
4.7852301851289853	9.5783049894350007	19.5616449056444779
10.4875000793477433	6.2123450023641462	19.8399782155999134
7.9207804038841916	8.3008031501655299	20.1334331866294640
34.7483751788687982	36.4622601607195591	9.5109887794289527
33.7804059091349060	42.3701678734036946	7.0492325300182230
35.5271679588583424	39.1655683339950969	7.6963407371959498
32.1034126239667827	37.8119390792003500	9.9987148058118631
36.1448128801670734	40.6130904475222110	8.6530820080961224
33.0698210451539509	41.6937396677922933	8.7781283923165052
33.4247626171043564	42.5126503520331056	12.2325740092915112
13.7911939461834887	8.8999281086702151	23.7680148517315857
13.0541139091252916	8.7665682354796779	21.9369333559328510
17.3895072983633376	6.5798131764142527	21.9942901398689230
15.4861879050080180	9.5090672465688630	20.4148765617814938
12.2160331042194485	10.7049168902073006	21.7229134694328430
18.1282650887696200	7.2727181898978825	24.7609433446856215
16.8540895414142788	8.6899376925673426	23.8305258355499063
12.5373554341595437	5.7704713075684655	20.9661423267901554
17.3568646307653935	9.8246949561187389	22.4931083148020967
14.7659772956817381	7.6688311811921182	19.0528953496946230
17.6685765823349783	10.2569965284685676	20.1145144363188138
15.8985840508452707	11.3019257253602028	20.3895373583989681
14.5669685218015807	5.7403092434893805	21.6367793444452872
18.8799370125417667	8.5247874485385822	22.9798760862583400
15.6136016425549826	7.5114828639646980	21.1554131525755587
16.7659286418952007	12.8613102984763099	19.5977292217419681
27.6112938247557125	10.8362191187842534	24.2018439012992026
14.5097388585336251	7.4398843464129056	22.9379142612458544
14.0979745731255850	10.5998327674636599	21.5354666272507060
13.8028858094022198	7.2511646160156671	20.9380359844276747
15.1783802127649405	9.1054101178464268	22.2914955477293297
36.8865674604448586	42.3994887151614037	5.1836198311541528
36.7796939449229612	38.1614706868957612	10.2493513983580904
32.0268119038709571	37.1025471726239289	12.3411331146016412
36.3859827138745473	38.7468429242858150	6.1066283158180159
32.2456327721882516	39.3716391649440567	6.8898769052500066
37.2629069276636429	42.2198595781399177	10.1571300434029030
31.9309713384214859	37.1378817588922274	7.7575336623422979
36.7081302081679297	40.2185372848545768	10.5283904368548669
36.2364799036809444	41.1649000066926689	6.6124606041785876
35.0834796836019436	39.3539757700955874	9.8173886112784388
0.6660109072075148	16.4982383514101478	19.9923455646946699
13.6460195531094968	42.9577612853715252	9.1509845769761302
14.3789098563615827	38.4302780778964674	10.5588534808485619
13.5356223492755294	1.0279770178215328	11.6823775295141772
16.4455014508761153	40.4010208013474568	10.8367282505473952
15.8759554671993879	41.2645699447309653	12.8806004849999525
14.6978599278744024	41.8316215952135622	7.4291888499201795
6.0755236631608556	18.2497478011656042	18.7783428477321195
4.1738499393175550	17.8756399455233641	19.6837123335223545
6.0512046543310483	13.8858606743195327	19.0855693074692816
4.3781094474080726	16.9709360775399745	18.1213492034341819
5.4997515536946189	12.7695904393825277	23.8810560920654211
5.3538593207389518	15.6575157291706688	22.3360390662501302
4.6621997152080112	13.4143461487379838	21.6199888406319047
4.1583219265486422	13.0672647184085182	19.3476502352559017
3.2927167575848499	16.1024475575093646	19.5013577732292838
13.0690857686451594	41.6176865522931578	6.3162452816069656
2.6301419867989666	13.1794560022211886	22.4877110471032218
4.5927537644308050	14.8718527921194230	20.1139298203296590
3.8799424445485711	16.6331076600300065	21.2421057519085501
2.7608918171022880	17.6264671097810286	17.4910891186444282
2.3328699626989864	17.5542516109986870	19.6094224191206443
3.0988127445612510	14.7356082259989023	21.5003589259207217
6.3625531917214602	14.4891059180899937	21.0689641323704997
3.6012247348611823	11.2885643787575756	19.1508338617043492
3.9760988745660106	14.1286865583431904	23.4537429765126220
5.3999931485035386	17.9306163161581829	22.0794079113178192
4.4603055959572693	16.8857762797907540	23.3536415065737728
1.1813570842420924	17.0341721245769051	22.2157613953425752
22.9885865733826265	38.8978883114191376	8.1358093826150473
18.4675452582702384	37.7373288690500743	10.4259131747197795
19.6758154608035234	40.8301230080732367	7.1910596964710400
9.3597327780428685	16.5380628181479814	22.9149754021168093
9.8114665976219140	39.0013231655358368	10.6473611495211831
11.5446681938058671	0.6658332189876505	9.5559895816670561
11.7691402451463496	39.9409207179539933	5.8046472828705458
7.6899794665978751	41.2888362742417172	12.4236922016965163
12.2052326382009699	15.7096025751156940	18.4741699876921857
8.7807736541516395	15.9896394804677850	19.6089202608498603
7.5433179922092526	16.5318247837377896	23.6361229535250850
7.7573427607632270	17.3869780373037095	19.0574255443216849
8.2288149868282012	12.4596337250792075	21.2995191742430947
10.1472465723109995	13.2565694299168868	24.6825595611236963
11.7738025176342980	17.1987609349913981	23.4692498825736209
10.5299823172424549	16.6899654732974021	21.3333127033629033
7.0908671896862616	12.1116461914501397	19.5518217141596899
5.4047027070486182	15.3615835093317816	24.4982991273164643
12.0386991946185802	17.4696966919641596	19.8193135388555426
17.4014795851263209	37.2127415809964148	12.3221510811872701
7.8057463573423966	13.9571383233139574	19.6276136037798707
5.8347633025500159	16.3916234651729198	19.0675560890275584
7.1450608550310344	13.9620147222083428	23.8667355387581139
8.8388789672555461	14.8134250030396135	23.7893311339942528
9.1154454030795833	12.9037455668026659	23.1094639490120919
10.6047706182769481	14.9908571428860871	24.1935912497898329
15.5965951528706910	37.1177626863226635	10.4391532097490263
11.3976832363994269	37.8819303506231719	6.9865886662371430
17.5828610162643244	39.4072280792193368	6.7067104822490053
15.9036857322981966	40.9826518390321084	8.7319654258479762
16.0398953377079785	42.4721178489433839	11.3429655489789489
14.3627707705563950	38.4444339510938491	8.7571709427084734
15.4070388801921325	39.6374707093928365	7.3535568818976742
12.5260812112462521	39.0320339206892797	10.1010491913263039
34.8156137380728552	8.2417319909471463	21.8770885418474172
17.8146366574869042	41.1263791572523729	7.9745734331363884
19.1547838579542393	40.3881693397995889	10.9961740044841481
23.1874159257703631	38.9480972823820011	6.0309689718740156
19.6177421612146290	40.9651604688589686	9.0835462761194794
21.3062226942654327	38.4333999730852938	7.2271458993611519
35.3998159284806064	6.2174567009537087	19.6250074891944628
33.1252357939968292	7.0896455378786394	22.2030264294208166
31.6956320772079110	9.7462259913327376	20.1647373394896974
31.1808131996824933	11.1672238958077017	18.1769993064397433
33.5376934520163061	9.4691710704636005	20.8252703907955272
37.3586186187718994	8.3003606676387687	24.0464497136366901
32.3208587002743428	7.9708657660781466	19.6774909508041667
30.9206370847187522	7.2068269898731909	22.4765566067931388
31.5291987202219843	6.2610642318754577	19.0121844576662689
34.7280739413581401	11.2478985719851856	21.9543715228645446
23.1873879041193263	42.1869170063689936	5.8971556701195720
32.5958014295814067	11.6541033716038722	21.3037203022808335
36.0926216476578716	5.3309047178714843	23.4586094333974238
35.0002853391447175	7.0928954604953596	23.4082184503068902
36.3035848215568180	7.9943902755193630	18.3953233077638778
35.4366388814378794	9.1113715363141274	23.4856420347263430
26.9738834667686866	39.1392154466660571	10.1130470572698457
30.2881465996451134	39.2640939026735225	7.5943264550256586
28.4700491716727164	42.1375494311864713	6.5379197219049798
26.2308124182754909	42.1656394843435507	10.7066083290566318
26.8176475809219497	0.5762655781474963	7.2577969046329240
30.8578776323811041	10.9656547617736919	21.2121259674338560
30.1090124776998778	8.8801877446936697	21.3358086424997886
26.9521445737086189	5.6898654987826580	23.5972174711937157
28.1173904653477926	9.7043139456692611	21.1526429940512664
41.0742185522280465	10.6683201711809215	24.2054045658541739
23.6459465442087904	39.1699131007215513	11.9348052750071059
21.0352836588581056	41.2383927087507232	10.4854538796313452
24.0151498116230044	42.2843417857519626	9.7595196208320729
41.3877559115546418	9.3071961936955354	22.8198996729430093
39.2156334272225280	7.4598797365063332	20.3578240697341677
40.2628368154607017	5.8988984833378391	20.2367044569140475
40.7275513187601632	7.5233749828227738	21.5506228840227259
36.1201065707341229	9.6094676883323391	21.5906952594133799
40.6634900417697551	10.9347872467386171	22.2370937724686222
42.3581767882848368	6.4538720814324462	25.2606218458090233
36.2641296935664741	10.8261459380234371	23.2571942547022132
41.1193174966575654	7.6332281996673927	23.6543726903332256
38.3518735765967733	9.3415179566682642	21.5854664578608499
40.1248906020870635	12.5168161482321540	23.2822710358919807
40.5701710281289536	7.2526907112365757	18.8141750061736843
34.1092403920047147	40.2359327977471466	8.3001509062729681
37.0248641287180860	6.3910610225863014	18.8058914716214289
41.2336898671706891	11.5884244102145004	20.4248871407938815
38.5421569349340345	11.0071594279748872	22.9711867317072631
41.0748410618465272	8.9483672469300597	19.2229904100063465
37.0846331238685991	11.1459572225658583	21.6783063494050445
42.2734265345244467	7.3582150464188194	19.6844067611625526
42.7321829270454785	7.2245556432099871	21.8244983901326108
23.9834424315764672	40.7226890805062354	8.5084187856249489
20.9994142892569933	39.8126081131945924	8.6632714506893631
24.4848002868301400	40.2886895582501197	10.1889730579105819
21.5651914834106755	42.5502160541350705	9.1243994031025313
18.8501549715280703	39.3878035260748831	8.3427879687297395
24.7842047079166790	39.1834641583696452	7.3022763093770005
24.1305787731695780	37.2776141025503733	6.4059312828060504
16.3550010629228062	0.3566290191896448	21.7915830999739200
11.9398424142050104	2.6405578403803394	18.5412896486786245
17.9618774252590825	42.6679221801834032	19.3526403834418623
14.0901077460424276	1.7077223018094634	20.7678553870746470
19.3425862904773886	5.4395328550442468	19.1367714192499605
17.1192185338404492	4.1895322390416796	25.3287230990407544
12.2537789906175494	3.2432454834841957	24.0998479191700952
15.2866806313588288	4.0169803955140440	22.7177739648161072
15.4237829822767729	0.6626721886986413	19.8838896743660776
15.8082778761321574	0.7919340153456459	23.9317444027193886
16.0712088189333251	2.9028015549708948	17.9700536020827535
13.8545212660460546	2.3897008799682662	19.1107617120605795
13.9789686589017688	6.0980298719909634	24.4208933891620106
16.4856016950345996	4.7996812042366717	21.4040010980861553
18.0425654864952669	6.3538258210167387	18.0611141707836005
14.1393361706020695	3.8009437874518373	24.1766796657679066
17.6828824197819543	0.4964431068737413	23.3397764457052297
12.6972642120539518	5.1779587538408158	23.2387067644777758
18.0200546499246421	2.9515395445235617	18.7766422181212533
8.1265772516637558	2.3224239389867258	11.2875380871281834
8.9107861418050618	4.5538047690130892	16.6107298788964108
7.0080270804794367	4.0769491487247835	10.7721620968463494
10.8902334362289999	6.5823580310936398	14.2241527186198713
8.0301629623700919	1.8020714739370747	14.7208461781559325
10.9599292221215094	4.1275348820366622	16.5468937733911616
8.6361072999675557	3.7002235216920218	13.8680090763108144
8.4871947053988546	0.3385779677293172	15.7579110091210985
12.0028972326807928	0.7300855369582452	16.6123832111597380
7.2329795370068188	6.0844866424512603	16.7711776074612295
7.1775770006178909	3.9781340543890038	12.5718192989680109
9.7455620114872410	2.4021912873291167	15.1844686277779193
9.2366882964122734	7.0883622087897447	12.5752501725405654
23.2988979058214376	5.5465394471392608	22.7575366547137037
6.5689727827809659	1.2306234750805167	16.0413180621881111
1.0140915114443383	0.5160771799590059	14.5047034647879194
2.8556924045258527	2.7258995855813448	16.5527974368785280
6.8739144905222513	4.2124130825562442	16.8683533934349192
5.2160142314719620	3.9853148441955080	11.6323750045301360
25.1680919467889908	3.7346284827972061	18.2104661151136398
23.8205949299985313	1.3098499203463965	19.4576402619538236
22.7825095609757611	3.5616128675634879	23.6313537782361074
19.3579497210305185	42.6241796345094031	23.8921829795205269
20.6154389282701302	3.0757535332955039	22.5650645317405001
22.8314428306369201	5.1303095252388298	21.0164697722364551
21.2003370915668441	2.5745884431332842	24.2117500017182863
19.4811625616146920	2.7160718996189130	20.6914748833090059
23.4810439952070666	4.6238262385960303	18.9554596799819244
21.4002842032241638	4.7859696599491270	18.1954707989172420
10.6708092501078973	5.5512800699975235	17.6460118758081990
21.1748181231939547	6.0476621075635535	22.5063479241445350
22.9204425179322477	2.7143409102246046	25.3530948512275351
19.6437905204987970	4.6596346876223782	21.8759816322436258
23.7111036946024711	0.6992464316151826	24.2387601538790847
17.9406145640669799	4.0010269970292400	20.3204278266053997
16.2116899100303300	2.8155130963663217	21.1879797377854189
15.6102408279468552	5.0848990469585233	24.6420720136548432
13.2729616652366396	3.4535930608785121	22.3113115476099750
17.3506007876017350	1.1339033891484223	20.4382221840421252
14.8737557398785611	2.2550872464038436	22.9012314172045777
16.0053565970340941	3.0645829180303150	24.4224803249954618
13.0031309626257734	42.8951864587514251	24.3168816487977573
16.6396835299055645	42.1975566673584481	24.3564182385945429
18.4392025732600402	3.2999142369637955	24.4043600662352667
5.1076357783774444	3.1108807716437199	19.1991196556659851
1.2071024416785847	4.8059888079883679	19.9985923804319867
5.5562196982767516	5.3198626910591278	23.3632591312664246
1.7997576075885748	3.0398900195637562	19.8399162743406094
2.9433533353967993	5.3799108730575051	22.7654250358801065
0.5021429041977871	42.7894228248227364	22.9750691472075239
4.0901306744647670	0.5657668106514341	22.1726372617095748
0.2377027780731794	3.8983836891533792	18.7008266494409732
2.2702868447244025	4.0771224866033728	18.1403652726211178
2.2588381444408148	0.2865029521092563	22.2474305287608978
3.7460600014209922	42.9475769207260782	18.7304949175179090
0.8724211136028708	1.8006151790650000	22.3293294560304680
4.8116115106618818	4.0167354077704198	20.8958538049485369
2.5544196769452623	3.9486182433062402	23.9420830898230683
1.7660528554521677	1.2055404003801309	20.0282344193697845
2.6119476207678907	4.0815398105789358	21.4819554291438521
5.2074034500293864	1.3894288705542914	19.7738648832762323
0.6513323708345590	3.6838014008162125	21.5448554884753385
3.0178038641790463	5.3891310169249635	25.7130631025554273
3.5508848640036828	2.4863768116687290	20.5696708025160220
13.1686823616413378	1.3177060776210303	15.3583498038674389
10.3641533526582013	0.6976769006203134	15.6196383943627399
15.8253070163256648	6.9812686677073161	13.1051379934212999
16.0839704840003037	1.7302199739243540	14.0370383128908749
12.2940101656317911	42.9869633311638637	18.5987902302183308
14.9025756912088703	0.1768333863837493	12.9626566304248492
15.5656243725955665	2.6571087241589786	15.9300835828412044
16.2642972579981269	4.4594972770069408	16.8281147138748928
15.2126010035965731	2.1210613203297330	12.2850841689340164
14.0214914029223721	3.7992609501111732	13.3326259661514435
18.1360820823052613	4.7536920135959067	17.1703896016982398
14.6259484977004899	5.7998214341835208	14.4029894173605406
8.3865191866946702	4.4817250691211301	21.8022931195079686
10.0843706282405190	3.8486244503907883	20.7851134547481564
6.7457796401814907	2.7473350186770711	19.8462280404658280
8.7270264851491728	0.7233529638222922	23.3188492694825342
10.5614583399587261	6.9905987053307443	23.5097325795372960
7.3252765348696416	2.0731347723976681	23.2418276663843884
8.2243986679945777	1.3788916935649194	19.1431861916995132
11.1581096266574402	2.7718735660340266	22.2041239921960489
9.7735882473784184	1.3673283292957532	21.9788270110914041
9.9955756659976256	2.8271322872162403	23.7479175996913199
8.7452309526344063	3.0773866418323825	19.0460120503561967
10.6338088458860387	1.0749005837120773	23.5499471442695238
9.9062170366797293	4.8007962721586930	22.8841345061667525
7.2201998904395603	5.6763922655375030	22.4977163893604342
6.4093436725651740	3.8321049507615941	21.9438848126676582
11.1889236574984903	2.2276321466067084	20.4331713044776286
4.4983804242387198	2.9806235381978632	15.1795419506637046
10.4635464404151950	4.7699361050096556	12.9581225579908157
10.0289854175981201	42.9866007417955984	19.5202998583461245
10.3442374941238029	0.2681586008721248	17.4320102233855536
7.9885462423401146	1.6681529253003728	17.1207129943885690
11.1323729079862144	2.3114214081893780	16.3530610744047813
6.6179565778158693	4.1854566639350015	14.6082969527131450
11.5273518894941667	1.4000742098843162	11.4280644116451846
11.7079651685418398	2.0941676296748195	14.4015283679607187
2.7007536647450414	2.1675546899637008	23.1068702639931907
0.6304970407954114	3.2285400795921229	23.5011731843598675
5.5515233986494570	2.4375830875992937	23.0159378375225963
4.1153440344343544	1.9918774899035707	24.3196489592637981
4.2765540065665979	3.7974887649036040	22.8832912093694745
6.3433696478410138	0.6152645122440750	22.8268569416136309
42.0006470181848499	2.6055863366522773	21.8551639186706872
42.8582289489079926	0.3807279054025978	20.3118406703695662
42.3816747697339977	2.1884046252474341	19.9513725219238509
42.0043975749852478	5.3825947306000685	19.3271130698777327
36.8086656814542224	2.8529954555907948	21.7956423350304540
37.3682906956474312	3.6981795711009018	23.6821386253375259
40.4118174455654966	42.7037998753010370	20.5916994830309967
40.2778785643108392	2.0927106778252420	23.1778210995435465
42.0192487124983458	4.6912674391262916	21.1490857988367793
40.7956873619954408	3.6511010923106237	20.2622893151664805
40.6060136012985495	1.6056345919028954	20.2655857633064898
37.5347682014607926	3.8629090175873975	18.8068477470483586
38.1404572843151470	1.8792381910215612	23.2142155063359077
37.7917504999378764	0.5139546411475101	20.1118212174043052
40.9172141528722477	1.8335067488486612	18.3383703805917406
36.0820661022093105	3.1618878300818785	20.1404773139133830
39.3808896877497787	0.7393680199576642	22.0022497341619392
1.0033092646886164	5.5959500191105462	21.7458843534046693
38.5049444491995914	38.7382741305430756	10.6708460113069314
37.2613584626720993	39.8867185626461591	7.2477728975992664
41.9369666453170922	42.1302578097054123	10.7170216677406565
38.0225998395263076	41.2498257813393252	11.7474243426994729
42.0001976509902448	38.3404099131503315	9.2467447467183259
39.7626393805719616	40.8267028277009913	6.6249087188417297
41.6198555739197644	40.2467118167184381	10.2044159191652799
37.7194880931591925	37.1466181825433566	11.6371848112713359
37.9769647737888931	41.3648943954974087	8.0976812797218702
42.9160486870261764	37.5239294786874638	10.9460057319139512
42.7186114897275928	39.3099618109400168	11.4844912391984764
38.4925526739856494	40.5743170638907458	9.9396010866170883
38.2729105813793709	38.3404929652041275	6.7690675326827741
39.1856687313315462	39.7577085896676650	8.0715011636115097
3.8342137802880782	11.9732353583163214	23.5221685059348644
33.1464583813317120	36.4227454844900365	10.9239779287364840
30.4600036018083422	37.7117406511366937	8.7328842224099255
35.7861364534874511	38.3593592713735916	11.8163761403579475
32.9784385585266406	39.8944854265397524	9.9615309216849273
4.1255656701794718	7.9590716263790053	21.0151830752580935
3.5726456228715389	9.9799316671276888	20.8615605790863050
5.6957238376412924	9.1114189661527476	22.2703546064461477
1.8059653457001519	7.4351860288865605	22.1894533688811748
0.0772755625924404	9.7933668978717225	23.9413454410936275
42.7437420655990081	10.4578842745658296	21.5965877861932967
2.6518062011877719	6.1096580218179684	21.0505961310410576
4.5858464948900179	5.7528172660909638	21.6740079066172697
5.6023366904098024	7.2782382426189782	22.2068697807097735
4.6523624687727025	6.0660936792912814	19.7341445031675597
6.1547333319953648	7.8314122846170040	20.1807787598590664
38.8404163339624731	38.0366664398671048	8.9508186764697673
4.3279578437652626	8.8679657105432792	24.6889257426543480
1.8774914730363108	11.1567105619062215	21.8811842796604346
1.7037877587647876	9.3898547919435558	21.7812619877567606
0.4531308953186213	12.9577644305403830	23.9367849149361724
3.3393268366305091	12.1271520565498534	20.9807988771821847
1.1472540012888457	7.0009145788850171	20.4074016479818248
3.6305732310102927	7.6772676898814503	19.1919761173881760
41.0325190887163274	39.1331146299118373	7.2206603386812187
37.5493411444180580	39.3011721039793258	9.0046077010028451
37.3933931587751900	4.6471907792045792	21.9586873580788229
41.4423123530071891	0.8552299906623048	21.7662775034861227
39.2532896129777740	2.5374928898127709	19.1673004506154037
36.6932657548414412	0.1470235616304182	23.2050917854128649
39.1561666138540403	4.5442433943475464	23.3399907076164119
27.0263538331153477	3.6682395398201391	23.2839884886513389
25.1262576897047296	6.5071510226812359	23.3231775719441785
25.6111098690187085	4.6920860799309390	22.4023515256622723
28.8068102773581636	3.4500952300488348	19.4914205353556156
26.7571398286014421	4.5003272425836567	19.0021814521139909
26.2651169619306941	6.3220424578476049	21.6329376442701040
30.1050435069278741	0.8566104352583843	18.1960503955808939
27.8889248713482765	1.5208968444564397	23.9778077199117412
27.9452118554035529	6.3118229080168131	20.8115680396563008
26.4505865700930300	42.2516382874701932	19.0602464745891886
28.4186609729872934	5.2282015735140179	19.1841970831563593
26.1827925407791362	6.6170268678489146	19.8533379062666704
24.9894061733183612	4.2872861819704218	20.3054486952486712
28.4398626860432486	42.8177214829772836	23.8445596142227707
27.2073872493451354	0.6102830009057740	19.9501377494401346
26.0488918648153245	3.0454515878116566	21.8134241619254610
29.5008419812000966	2.7639119832518833	24.7372906467402487
27.5010946141754218	4.3950448604375669	21.1665471092122921
25.7381262805155622	2.2307787001172961	19.3639483609802845
4.9534421474288930	5.6120392172178288	14.2884946834030782
3.8741828939572467	0.3745776319756405	11.6327145835885641
0.6746962014025374	1.8560668864182779	18.6971982464583171
4.7840942825487316	1.0574380172579787	15.7148492846002661
2.6665906119404004	1.7182911625105493	15.0101856137219620
2.9540095101991826	6.3947123811802742	14.2210445319400964
2.8651425747496613	2.0338699133522424	18.4400834478746738
1.9367214205168142	5.0406790800608317	13.3624373585573739
3.1438185429512795	0.7596395440360187	16.9195218985514941
5.9632572333044758	1.5558701989906789	17.7867693730797072
2.2390571990957415	6.0086125249850859	11.6788025426191382
42.4302528019433325	1.8184166132365394	14.9856200374012971
4.6207221865738610	1.9841540183927191	12.0308979424226834
31.6103875458368755	5.2337980171473344	25.1643777544956002
34.6322239966133978	1.3203919930741428	19.7404421047692686
34.5661295080887925	3.2226980720967022	18.6715800562941716
32.4838853793971509	4.3121416767655214	23.5085682683577311
34.7765621121845001	1.9830424387660555	24.7993928107770500
29.6758677388732472	1.9126668495058416	20.8177869104189348
34.8837737751125161	0.7678660156768032	22.9945031285277324
34.4554259511050489	1.2703259960234301	17.9314235240692561
35.6734465090101338	4.7926782572058668	21.3101638786322987
33.3859843484953700	5.7249662455618724	19.6871199278440976
36.3239238561197837	1.9402696999202691	23.4177689898858823
31.4554711951087569	2.8146091085938507	22.0465488262890794
35.8215069925083895	4.6492357719028208	18.3729050141204304
5.8941840633885709	5.5965216289081816	18.1562925639426567
6.0429952857182352	1.7622091887835767	14.1719673546813496
11.4448134355997517	42.6854591273197883	7.5640488998944884
6.8967782555001662	42.6377535948747237	17.1298915641458080
3.9685851935908825	0.4097851841949564	13.4974538854264576
0.8998472136149400	5.5517355453529014	18.1277275119172572
3.8417405908173436	5.5291962891548936	12.5673382580365285
5.1784739185012212	3.5557962387783828	13.4674481935993828
1.8406344291666346	1.2344853335464074	12.9122175155154384
3.7515246483585907	42.5616191636678991	15.1737570975615146
24.6766273135211840	1.8664489764704426	25.1469869181200636
24.3227017848151092	42.3903919995131631	19.6919423107993126
29.6060712372906814	3.5619051391766887	21.5479220017222488
24.9038536153605783	3.1610976105067055	23.7785195196179728
28.8272945513566476	4.4287178579988744	23.3514618411561372
24.0863488293201549	3.7148512680730570	22.0230927308020092
29.9374351392548732	5.3154254223706676	20.1639177334243413
34.2283635745757735	22.6833051272528863	22.9098340811280750
39.6062328874614238	21.7246255968238273	21.4016410335830471
38.8219364980744643	19.9829059569921768	24.3332117225180760
39.5761688412423283	25.6815051226571605	18.8696971115719556
22.6373993620113012	35.2361064010432443	8.0144289018473440
24.7839680321459070	35.4330941594583351	7.2484884152398132
20.1048437159209037	32.3820008838737579	10.8489765594410379
22.5293780532598440	32.2978353154076601	8.0667551120439551
21.8745263949185400	33.8356823825743405	6.8965945666319781
35.3258752033069925	18.1722917305442664	23.9647652369592592
31.7680177390068117	19.8120208092521572	23.2283938091398632
36.0653569796818374	22.0492609716099146	21.9263314628310653
35.7558065309151445	21.4610883107143238	19.7723812695469903
31.9652697342188610	20.0030189007980717	18.0621823015907452
35.3975146441355619	18.4313200678153954	21.9640188161396388
32.8853070490590440	22.2979849936493189	24.1997429513413280
38.6605372776266663	23.7994261373690037	23.7170054390568232
31.4372527309834666	24.4879923351179016	20.9418628030066998
31.6367795674899526	22.4507110035018620	17.8371205052747790
33.2386574154331100	18.7666446755043168	18.9487255115975977
32.0309685789984115	23.3710746205040003	22.9160949083035739
36.4999201806697471	18.8398712820233349	18.7712641997738636
30.7689928239565340	23.8207532211893529	19.2764811943840542
33.7445784855418225	19.1762620035961326	23.3087281317148971
35.3102531142236700	21.4804697951569246	23.8772118310982044
32.6829951536395029	19.8588181470973737	21.1688427279507145
33.6895809583272481	21.0021904722787482	18.8228971444377073
33.2891336359367571	21.0430985928164596	22.6341931260778075
36.3076873004019944	22.9807591936675166	23.4795589175065125
21.8719721709228736	32.7065230554992823	10.4093988548396901
20.5595293001198058	33.5340597313992035	8.9794072819106727
18.9131748264289357	35.3959356967374248	8.4162291838762009
0.9532594097998508	24.2615548028412746	22.6095233734110828
11.1830618676387008	32.6872145993731920	12.1318484764921557
12.9409349994867533	31.3480625197984608	8.6506560675254143
15.8824283659070016	35.1241359924730929	9.6580213747919377
12.2815947074613767	33.1085850330011127	8.7854069306375226
39.2267955815540219	22.0046180204499215	23.5121410453907842
37.3812283616566745	18.9183050580102439	23.6891006074050381
37.5440630667898034	19.1138515518643644	20.2498646819181438
37.3934730726198410	20.8180800766037102	23.2926533837877514
38.0077175021439544	22.9642443949308728	21.9775131071729284
41.3263677753364220	20.9102697364651924	20.0223327947899215
39.4478018423157337	18.6344727281759965	20.5438209563453853
42.2636526432078981	24.4041533619628872	24.1106882932410507
39.0156594856515753	23.4282452833261239	18.5885469286239804
38.5380515048132963	19.3560668632159469	22.1604283348680262
37.4699857595929657	21.7693208349158489	20.4275300296867073
20.1080688146762974	33.8903428288067659	7.2529112382101868
39.2812304456800234	21.4846722639038745	18.9495912673908222
38.7679438402077210	24.7401500164169548	22.0791730952008045
41.2434165290336381	21.4340840871026757	22.2157370797229099
41.3855475496413590	21.6181199733712788	24.2994832590179826
41.1740300195848050	22.8831195414618342	20.8030962287213299
41.7748814833126545	19.6737944423951028	23.4730668248386500
0.0944078987850906	21.0506773155019360	23.6333867504684108
42.9591277366027100	21.8974906845320909	21.1523547403957402
40.0885158394235646	23.1741825579594973	22.3981844542454915
37.7108588669066904	24.4791863258705078	20.2407856591460202
42.0971193277385183	23.3527734759802854	22.5252618663445041
1.0514445537851549	18.9466984953256947	23.2887175293986672
1.1289750218870578	24.1753137700502059	18.5926454137137895
39.0847859211316688	23.2387570970896569	20.4653601217539425
18.7481716065011952	22.3395236192644759	22.8052153983814883
20.1677468352314158	21.7687989581452612	21.3729572962958869
20.8157864759868652	22.4457072206435235	23.2470482106235750
19.4896614176791019	17.9281869089092822	19.0346988822236085
22.9934263572157924	19.9840439889432986	22.1927798658515876
23.2861114895642274	19.5887739510956003	18.9617946074379198
20.0920679672158364	23.4480082783364914	19.3533599169987731
21.3308722409535925	19.5327798112159812	18.4539985870016068
22.8907236355870829	23.9937857247261981	18.6532383362200420
24.7718647923350659	20.6255096636308615	22.7328761880695609
23.6251429537462663	22.1635930068619231	22.0542054819094595
23.5764799181426596	20.9613750896798443	20.6751134954031635
19.1510744006005069	21.8162740266121666	19.1534518618255412
21.7975284351249918	20.1009040737689340	20.5456434376129842
18.6139706847741344	22.7689532658399649	20.5988640586295695
20.8850174986302974	21.3682700542574970	19.5877061323210135
23.9969218317695692	22.7385164326473124	19.9277625266093352
22.5567565549039379	24.8066609694611167	20.6137460672503039
21.7606622291777683	20.3793556351684586	24.2705528951059399
20.7279946586886545	23.8799058493031104	24.3617970724188311
18.0861626636016730	17.5486338091361596	24.5696764949140558
19.7730292436163353	20.1321638605981725	20.5691801009978974
25.3402984711431678	21.7552357577039395	21.3574355409927996
21.1725141573562077	21.9386884351376317	25.1354994342114004
20.3294635669258987	17.9269722844675279	24.5669713337124236
18.3591535165503110	23.8743712506550914	19.0318134622199580
22.5884347900475149	23.6928001265337436	23.3274989757199798
28.1615544030034926	33.2974108122921351	8.5409733216428378
27.3828732380902480	31.7824943118486374	7.6808498640007095
25.6982037651993984	35.0670774869746609	10.3479025316802140
30.7151300636025191	32.7833670822328855	9.3565474449644022
26.0237165956897627	31.7382856572669141	11.2684802982287060
30.7741648250990103	21.0190196987068632	19.7892813716043001
23.5710266310145187	34.3458600016490578	10.6160106528976961
20.0930318736966740	36.5893362767950308	6.8449082908705376
22.8128597634843899	37.0623705434536888	8.9692949197390277
18.4423841940206579	37.3018723145195139	8.3822665484055268
22.7955876504153068	30.8234491111062106	9.0795177172343493
29.2702422712521617	20.3661614594567375	21.1274324390088211
27.5865682154648084	21.8448664998361188	21.1164990104225225
25.0853440093572750	20.7146384765935494	19.2567694186587417
27.5981364261261497	18.5578778817401862	19.3221613015311782
26.5886530173005156	19.8253585711621518	18.2501406243455726
24.9917084758163810	19.5385873119329752	21.0215130725676573
26.9210180210156267	20.1753747864599866	20.1222925293508794
30.5199101410198033	22.9760001108313894	21.4610955822171086
27.3377086257155391	19.1739893223599509	25.2793257206939153
25.8306435780809629	18.5711355730007028	19.6646470992024653
16.2992401298040335	32.0024267635552420	11.0339513162144573
27.7726435790783199	20.2536181229574446	22.2708915818639142
28.9068171973856636	19.2151816167505700	24.0469042976816247
26.2678493231242491	23.3483510701026908	20.6147984758811837
29.0441728069052729	20.0190952877711368	19.2079569147412137
27.9226910243043704	24.1048965958838792	17.7125301859097952
25.0048449626570388	22.2661004423284901	23.5888067855764980
31.6810538129025225	19.3179952740427225	19.7645944200373975
28.8031986448616379	18.6421612950188909	22.1933421969766549
29.3002153122369258	18.4323648749698776	17.9830138050323924
30.1476669885410722	20.5404612195131975	17.4854371166553513
24.8728085385675435	18.8895641826085985	17.9318802682536251
27.0917805042536379	18.5933218092607362	21.3322560364176432
27.4969046824985135	16.9838349983351158	20.2954576633366912
27.5504477760019277	21.2873628196560354	18.0097623172728873
13.1766287213032687	26.0017180609203820	22.9890136663162892
24.5086906820591999	26.3210888601640143	22.7433852176333140
22.9958625729795791	26.6073283512035701	19.5679742894387623
24.0228043630397892	24.2467087741000533	22.1673262771084829
20.7449602347361832	30.1411641882582622	23.8493030794002543
19.5106556389217154	28.4492315399026126	24.8799780067109637
19.7159800837063166	24.8367561708851703	22.8469149436035330
20.6175662072214152	30.0620143015268049	21.0322664483348660
1.1142380295528040	35.9488965252096406	7.5791267111082377
2.7891889210030407	35.1127496242054846	7.2913013685940617
16.9438527604051750	27.7871038765951930	21.1777812795240088
17.6895584639399885	25.9448051456366038	19.9031841321595202
14.1099203011693870	26.5124496159806746	20.0912052397256389
14.1895217645767264	27.5607356477702474	23.4180279403187370
12.8031982380735965	27.2011777988604706	21.5439823054133122
14.6767863683373978	29.3603615760753200	23.3049957622800470
19.1942403880189900	24.9127494594887331	20.6086019354794736
12.9882367966605674	28.7276224766730834	24.8102073395179588
15.8968196356401492	26.3304437943171479	20.7500486131086070
15.2340896691440815	28.2082016349440217	24.8294459270245191
18.2917969227244654	28.8081237843977185	23.3658737784305721
16.1215940353532865	26.7113016072557272	24.1243403987809018
16.6556793485308887	31.3830495733353203	19.4551873844228744
15.0849129962151256	24.9198990058885848	23.1372915187630497
16.6194179531481403	24.2408791141971669	20.6280773390377874
13.5171424079083025	28.0481579314638161	19.3771637626684274
14.6456789822951325	27.7510416537929316	21.5976870053998908
16.5682297700380730	29.0713355026934295	22.6520742597721210
12.4577819639086975	31.8260875248159643	21.1325709330167548
6.2199747245416015	32.7779969094774373	8.9438895575875286
10.8929218675197585	36.6383987391455221	8.2822369842727586
12.8106255586904769	35.7351660803874509	11.4494768031508247
5.3398098549500785	31.9585717336385677	10.7674686317287307
29.2278630453014436	26.4587855300338752	23.4810317737475209
27.3255350992328552	26.3283366722444399	22.5533771888376826
24.8332069984515904	29.6889631969543721	24.5281578820035193
30.9570851578381152	29.5412084168974793	23.2111399729188683
25.8122353506500595	25.3428442304344621	21.4804657466671927
25.8576991899513153	27.1253999873401241	20.9898313767176639
25.3993366136893854	22.8280996969207379	18.6354600293593471
24.0534924713366003	25.8440012303990549	21.0318993301048884
27.8986988669190445	25.8458071894676742	24.7203677122981382
26.1718586839871215	28.3838760847731031	18.4025312006831392
26.4997217657041766	28.6737260395669296	22.0821573013161263
26.6411816365907264	29.7939519718424179	23.4893999647564016
30.3808140329479457	27.3932188392270177	19.8476610884487492
1.7980636361274622	35.3021986672415551	10.7728689102885173
4.6500470735263413	35.2689111949208183	6.9576211247539774
9.7638309464184321	35.2267568104910467	9.2861884724162636
4.6265580584081514	30.6103117624340726	12.0711634820931497
0.0533095977541918	31.6368916087530998	8.6371421475080670
4.8775579046033704	33.8269258003872935	10.9624640155573498
2.9212930685610492	33.6761426197199754	11.0455755295180751
2.9452272004082065	36.9518839748043604	7.1690422076723843
2.4737377895597126	34.1693965538626614	9.2650557756316356
4.4801222180625171	34.3985588040712571	9.2242280841439470
19.2517016694622818	26.9885447501078843	20.7147531804321616
19.5974952162013274	29.6775758265312071	19.2232271070978200
18.6161859324678183	29.1096101403219585	21.4100638101282996
22.5929013783422938	26.9662486982245859	21.2872797562403697
23.2372194083375483	28.5951789845480882	19.6744471161633676
19.8763899573022087	25.3661301125386771	25.0428220294992805
22.8192182557455361	25.5224155215669910	22.6781642189334818
12.9119301689093664	36.3100057934928699	7.5571204016749549
0.9215520807834546	27.7880569009539080	19.7987580277540971
5.6318467693059917	26.2059814075233568	20.8796965644068386
5.4993781238691772	28.3897773861211462	23.6993531992431024
2.2785190803266246	28.9286058087183484	22.7131670272456496
5.5779077826154078	29.5596075100827136	20.5085922446504547
5.3595382839233503	28.8724064782695358	18.5998633314533990
3.1774035932170555	24.0731608851710881	18.8667150754621566
4.4098848480479989	24.7860269436475029	21.5575015668499255
3.6439453911226889	29.4691191546292295	20.1022527154707120
3.6985735714369232	27.5485830205037487	23.2386794531116365
1.3241672409381062	29.6249090287344998	21.1805239991697754
3.6946391636199758	28.0409678297460943	18.9012870783382283
4.7448956190080107	27.8504813533170505	20.3928216966942095
42.9160802568800293	27.6229326509187203	21.3226873458831392
0.7446217439256463	27.4611040444959933	23.2129417461623646
2.0273609007262818	25.6871367612595307	19.2260213158823454
13.3031284668749823	32.9490939514359695	7.1071270806486311
14.5668580098585103	34.6235791942522937	11.2870526974516174
14.3219800333950396	32.7228917550923128	11.4007777716578715
16.0774117160812580	35.6174815019512252	12.6921662895684033
12.1582909577284326	32.1477006425944865	10.6434797068891029
18.3779133601338565	33.4970338876148190	8.1876960313185858
16.4130045048549640	33.7636004790184572	11.8439036490113807
17.0900941593835292	34.9656716142554842	8.2814405111373688
17.2972633849657598	36.0617488589138873	10.9460797304532971
16.9598291603189217	36.6327883322958243	9.1423963399634847
16.6505097559371578	32.9726610099012234	9.1936246554837115
12.7346382599352008	33.7715609098961238	11.3288910386461357
15.1579808496361181	36.0254417010736816	8.0082130667793034
13.9190221415750486	34.1452395675622284	9.6454143667880388
11.9151665605531658	28.3759966786659206	20.4323580152247146
9.5874676756445947	33.3438011579711784	9.6202536009740598
9.0401776442444870	34.9073613320372473	11.0735017970429066
11.0493449118885216	34.3244379987451040	10.7477122756470003
10.7490043952885799	34.2898500569211535	8.0687693260581526
11.3984522197091795	32.1511656035175832	7.5033911042161234
9.8957061688140513	26.5463575935232683	18.2231948134698065
8.2602522353752388	31.0374244845066940	22.3502502787079536
8.1725576120973678	24.5846205027091855	23.1661116515977632
9.0211093808387783	29.9117793464803121	20.9063012899061746
10.8966762214639434	28.0763409978858824	22.0591864572760628
10.8531755685184326	30.0338268506870598	20.8926085594080746
11.4051351981035687	26.8111789626883272	23.2678945569051834
10.3351958387885325	31.3425868260131146	22.1818390426183392
11.8256113475558262	26.9483616538045183	19.3214403427396100
8.0905252134285668	26.3459960911351949	24.0250296915928452
28.0563771145729888	36.1091689261637114	8.0461919349430726
11.4212085672624468	23.5150354624273064	22.4284749483419645
12.0622253069353995	30.6734826244061942	22.5091117969745120
10.0057873452701571	28.7454299756422564	19.3360530144341816
6.9948594997853455	30.4285851032331180	21.1853340539247412
6.2658490261631794	28.2689816409370280	21.8033725799618665
7.7240588451254766	26.8350743136766674	18.1874045636394435
9.3270160864230469	26.5828085339271176	22.7022599121757231
6.4400615754137709	29.8186367918346846	23.0637744563497904
6.9628939667405785	23.6415010265885073	21.7504434529293498
16.0422064438562799	30.7901520069593246	9.6301136743184905
1.0722933384836135	26.1346190648741299	21.3153858306184958
4.3460484026287416	29.0717872451150043	22.0962648966256481
3.4829965089629922	26.6741426488878126	21.4310428865884859
0.5876973187634541	29.5924059462455844	23.4652172892027124
1.2445797795198843	37.6584346129975032	6.2742553312466764
29.4667787524772926	14.1768293598887674	23.0051248002373363
23.6098293994313444	15.1889560403324531	24.4642947322939897
25.7118163181850150	13.9233973411600367	19.0600154261682029
24.2836377760339381	15.6630345667100226	22.3828589016674648
27.1486549524861154	13.6247273374122511	20.2094140299076379
28.0696644988315356	12.9008245385434677	23.3963773304308624
29.3087477845214046	15.9229898269243346	24.1167899975251352
26.9450283243602335	15.3669528086457259	19.4481094279569717
25.9364996128778778	15.1308926774958596	21.0332501443718947
29.0189369817107767	14.8160630966425249	19.4210472565904126
29.2295546663324721	17.1215769709372339	19.5700026578076596
27.3595479477104284	15.9038487919757277	16.6483528699573426
28.0359819914541433	16.7533162902961905	22.3084181018214345
28.2160142415289314	15.3199052786317846	20.9675532623089467
6.4390216649751224	34.6328677190435528	9.0657787574243027
26.4661670403069031	12.4776033784730362	24.2492113605518647
1.1290324927218240	40.6610320317896523	6.3988843368128769
1.0981643487410511	38.1104324142957225	9.6639210861697187
5.3223017154428875	36.4063364892425838	9.7530840538964547
1.5488614596053283	38.4863094151694298	11.5372700777424928
4.8939358362369925	37.2813257279006436	11.6875559114877206
5.7719873878865151	38.3897842301171650	9.9674843906658168
4.0689947085734186	1.1107425383259457	9.9380392001271307
4.3158916232150100	42.6654535470655532	6.9484709574849841
5.1566318343840534	39.8696587385475780	5.1036857774847224
1.7934210444904291	39.8007517998703477	8.3074905308051132
4.6067393211355485	40.0443214896073201	9.5852982898484651
0.6519585675651416	41.2682971925253526	8.0717122302992763
5.8581107339981013	40.3184664872309710	12.5825979296904009
6.3217910819431058	37.5590282768887320	8.2180709963450909
5.7497775253252801	37.9840474467348770	6.1441080677874540
32.2528562992190260	12.7062708698168372	24.4840013994545806
40.9740516328968951	32.5788022446489549	11.4023030444267945
39.1542954211318630	33.5761431138696764	10.7520204961590196
37.8788480031048849	32.8581980417617316	9.0823186207561992
40.1580312930654202	30.4308880662530044	10.8404977481183433
41.0047149725097668	31.6536939744088599	8.3386746848990185
40.5812410007882391	36.0504964945309609	5.4547729810172161
42.3362123119061309	33.8979231070472338	9.1164722892185139
33.3606011777248881	16.2332627909506044	20.8303678090598723
32.8260064779613714	13.8330073735579528	23.2077518554591364
32.2656312097282978	18.5330332054467988	24.6258845221032807
30.1534892722902903	15.7368121275609525	20.8594947915462861
34.6864797629893431	16.1066509359753667	19.2443345058589941
30.7171812154659776	18.8484593807893290	21.6056255206670151
35.3961580265009417	13.7113897846073840	20.5990897176827161
30.9435171772882534	14.3858881332760422	24.3545237230465048
2.1702338393964431	41.0404579734963235	12.1775801957162528
30.7463109446899416	12.3377707197725659	19.8755542561783365
31.9573927938996398	15.0256760931569247	21.6220786685476654
31.4616841810773913	17.0326772946560112	21.6800363820214699
31.1584050407605950	17.8626553420110028	18.5451192796246431
33.9914634880864668	11.9648290438064322	23.9699267434190197
30.7735161267929556	15.9165771694851887	18.5267646907089052
35.4041839058028955	16.3296164935882366	21.2191356800692787
35.6498318183443956	13.9706097199076318	22.8286696005304677
37.0122286238714935	14.6003010550163612	21.6915644687284015
36.9390379333678709	15.7199606452571121	23.1644194741159879
28.3756145395448804	14.2350434673634663	24.6158932368718304
25.7017730890898832	16.6660105005806152	19.8933098361345841
27.5044367298887273	11.8212423778664757	21.6150050869222632
30.0020018203311380	13.8861178520405470	21.0367410689231988
14.9285628769060263	14.5090328397361326	25.4911437836800125
9.3322970645359060	38.0904195312243914	7.8348647661350723
10.9526242298511338	40.6593705285112677	10.3487929789844841
7.8262803439183442	36.0412885380890415	10.1683613715781469
9.5101704310961175	37.1134092586616902	9.7709465115199201
8.5083406294880586	42.9869265957771418	9.8553641005808146
9.9244418096849181	0.3881877216512822	8.4356646224727179
8.6561381202630443	38.3937425890092072	5.9162780399891215
13.4454598709404802	39.7998518781668125	7.3405339972184276
8.3773240095618995	40.0689496045514559	7.1934910661481730
7.8073473740247756	37.9622141541133900	9.5660863853588527
11.5155351077471551	37.2885819097448632	10.2112361392981175
13.8210075481064312	16.5088953503640603	23.5343335203100565
17.6300817145144499	17.0316261513353737	21.9989422651237057
12.2128138528477326	15.2261377320141680	21.3858466861020773
13.8927529613717375	17.7817373769736946	21.8990342504436128
8.4865647143162075	37.6085684627938477	11.4828645896128219
18.7579836502440145	17.3344915089905349	20.5978508655425046
15.4952171724501770	16.0791281944499396	19.2525491734921417
15.0200289597197756	17.9760967253469808	20.2259386735125091
12.9267994736979759	13.6617889275116635	21.8867975260249565
17.5495549031091542	14.8531207003563406	23.1220578739626603
14.5560277916100738	12.8837579318076987	24.6924337190409773
18.8015381606869845	15.0624331390536170	17.9991015117324622
16.6771587708761047	13.9231039646507320	24.8286770590994337
17.5615055509700255	14.7383619510506456	19.8406154986296954
17.4654860413223112	17.1614095374329096	18.7464878720805288
18.5661689447878580	15.2517202321601832	21.6740474730228101
16.2423455470379920	15.6838133260901174	21.7607407291754029
14.2496384865439349	15.4860857672721846	21.8619100743671027
18.9965722797569541	13.3593839917699455	23.0008291151082425
15.9927553257649233	13.6422293442205707	21.0628378254912754
22.3383932765943314	17.4146658434623376	19.6013302082215795
3.6104183917624142	38.9427017502392943	8.0593813578654725
2.7442077167945134	39.6109153129871174	6.3786968820075804
3.7629786527820741	35.6106257301367393	10.6723354604044633
2.8206213847151567	38.8114779896629756	9.7782592457209301
0.6261985707249885	39.9190109369111141	9.9819830281403750
1.0214411587896495	0.9476878202749536	9.0054826400310901
6.5352815129648576	42.2954646268681600	6.6864823557738786
20.1983277039507527	12.7331929430133322	21.2247989639727059
20.6702914413134096	12.6236447687922002	23.0175702184620654
22.2814900502975171	14.2731181511567087	19.4921781499697993
20.5871098962025094	16.3936060770186458	20.0264144046561121
23.1064091492544641	18.7918055285752423	20.6238233040541949
24.5276661623813972	13.8963436549020241	23.0081304847554300
22.6314660785629442	16.4771328345084989	21.1341694988296993
20.4812687539044909	12.9393752900192975	19.0400521675661381
42.9097172989052780	36.2299410717293497	9.2597980658024444
19.8345724293078050	16.5761588502093993	22.2298599046003780
23.9966962348059738	13.2322043728816592	19.3357182421432263
23.7241798964601855	17.7364952828655298	21.9290197792281703
20.0741868287303689	14.4304069048628616	20.1309507594474546
21.8138336326022184	18.2173751332307887	22.7873399720514378
24.1532651618937244	12.2066917670600894	22.3885862673801057
18.3854866065765563	14.5761866134616138	25.0909076256795807
20.0100117740429049	15.3641939573380437	23.9606262838090345
23.9515678684807192	14.0908101440733802	21.1658682514240191
20.2198660002785608	14.5643056209908952	22.1601368677193946
8.3019484212296710	42.0412823177984265	8.2353221666465988
11.9302359115174461	38.3241621476580363	4.9879747536263102
6.6182311641840545	37.1471864455317657	11.1572757432582712
8.4087483575270561	41.7941564881931384	6.1243646198385520
11.5143006553536136	20.3932250328981013	22.0933612030494864
14.4537074072146616	24.5792315266167449	20.5194458563840705
17.2046317135817048	22.4359742348125870	18.8095835443555153
12.9428200369384978	22.1115921776410786	22.1467499929771634
30.1573301240594667	31.8309028243147836	6.6262124824266326
31.2333473597621918	33.2009623128488229	11.0865357046490605
29.7822301899648672	34.4682704336467864	9.6985576210635855
26.6091628922668058	34.6321691798292122	8.4183341936462046
29.4462137349475270	34.0930019915685847	7.5581685545148005
28.7279399744579997	37.5070986130745894	9.3455151298371586
25.0932720241598481	33.7682628667516411	11.7125419544349860
28.0099527816375264	31.7100529161658713	9.8997046447433181
23.6693994506457486	32.1182237058382185	10.3610933674374763
28.4973182643298095	30.2928102957080050	7.3016838019243782
6.3276567822614869	22.0556241289644852	18.5787875300345888
7.9137652692621110	22.9966118544396529	24.5558913986953229
15.5564647017104605	23.3630830383037953	19.2838855401080274
7.6926238140414167	18.3793593437887886	23.4544488400229056
9.8299001921969769	17.7973002768756778	19.8985448156109008
11.9703723773981547	21.4014312479709616	20.4157227629862206
9.0260715398633735	23.0859337190317291	22.1405631635322493
9.5819785606540790	21.9737714676994855	24.1383630952216031
10.5784803279208024	22.5280454056744013	21.1044730040167039
7.3685767656787791	22.1291651996846603	22.8481252018688608
8.0138040875266068	21.2890384496935887	21.3241305838115274
10.2662609856746432	20.4739995335410470	20.7071280149709125
6.8490497511230055	19.4921617967931766	21.7721283761683324
7.9575130821960878	20.3466651260270126	19.5465188120229847
8.9853739328787761	22.1574652391817466	19.6493943315731947
7.5727037660514407	23.5020099361563766	18.4768332588344002
11.3393051302713435	18.4378865217337307	21.5024825116474894
8.5213895488244074	17.8366910292383771	21.8967767735344907
16.2142783035949165	24.9148847598209535	24.9954072269694052
29.5473794322347310	36.3022338690760051	10.5331824250646502
24.7119308820309840	37.4298163082223283	8.2391567710023033
27.7378208291410182	35.4224212869827753	9.9521842667238367
29.9074833044609711	35.8696814722098551	8.4894470809959675
26.5474711558881609	36.6614667959520517	11.4775169846823317
24.4549059106819477	34.5998432399679530	8.8415558471538294
25.3622518037026055	33.6444528473398492	7.3442200715110983
26.5703116290030934	30.4379504443946871	10.0484209524768957
24.5180921382009416	31.9621884514186050	7.9241318393861864
26.3018631378006802	32.6095791624062272	9.1164183060096455
29.2981617365737250	33.0407470434013604	10.9524623091761271
13.2085978250556497	18.9351663414019384	20.1197876799626059
14.9182047358424725	21.4234660266307877	22.0752709289380036
15.3683588712675778	23.3069167221721791	21.6864386025086695
18.0258318099286967	20.9707282176741536	21.4368980421780790
12.5799521104031360	20.7406798526440852	23.5680413423236814
13.4826104222512857	24.1898232279619343	22.2459709381431594
16.9626320115756464	23.1566824631645467	24.0045560978871855
13.7608103387745473	21.2158219223635420	20.3333805635735594
14.4589880934604817	22.9848244512191719	23.4104563467310456
12.8870513058120846	20.5191393507107946	18.8417113878735307
12.6155729738811768	18.8949715794509139	22.8591537410278036
14.3695816456670507	19.5998883569539437	21.5623465429002863
16.3156566377736141	20.0925110719247328	22.6740441633255507
14.5315062985611103	19.4801889891969005	23.3938391462130113
12.1109659280958368	24.4735232459711227	20.9416375020729149
17.0457893351431409	22.6609107813640200	22.0470764620505051
17.8284483886396572	19.7948246479882641	23.9999702105586863
15.8550695029705881	21.7695194071296960	20.4937257359056026
17.9770847095816535	19.1532447277928064	21.5366840613081187
39.3400207371794792	12.1800147755807977	21.4747459690784517
2.7473760628296522	24.9923581118224511	20.7710862717724360
3.6909882651397949	21.4401755765522566	21.7530788092971399
4.5980901683415709	20.5785658795570612	23.7789681203042065
2.8927473758839466	23.4954817927266255	22.4748132185014278
1.9805295856137377	21.6054870255944351	20.4743750276992422
0.7770461773327758	18.8221469902251535	19.8882508394444564
4.2196926010845921	25.4454322749920259	19.6590545624652613
3.0591162616334557	19.4445119616603179	19.6370826833403207
4.0381942976050995	22.2990618916511245	23.3122634754370566
4.3343076089767569	21.6897036400821897	18.4849904652276358
0.4272449031493865	20.6401239212825622	19.7318276763628973
0.8950054252906484	20.2956784537391677	21.7289434909812158
32.5694362098961676	35.2748027135278335	12.2420440528224326
40.3194575591223057	17.1651553213921204	19.8930921657318720
38.4558865140391077	16.3480186843682702	22.0720969794624473
4.8925748234719588	18.3861809703106864	24.2693741018629687
40.5176105130934019	18.3858958632622418	22.1000631638675955
37.6170776103484101	14.0698271561477455	23.6904233915071458
39.2667249545353130	15.7650560445951324	23.8675487028298043
42.5403135446608474	17.8709383673226512	18.6962000861206512
40.5851450255531674	13.8068403451786743	20.7434180711632905
39.0704496017944507	17.8632463921310247	23.3908988819122037
41.6863096161311262	18.4770514950707607	20.5043030313971428
36.6728200040811458	13.4485437794787774	18.7705552819340937
38.4971304252655315	17.7377700096604656	18.8021018680846623
41.7539391832847926	12.5907649605665970	22.3825370827638785
42.0075747398004467	14.1704208693139098	23.2673849072431196
38.7441687664545853	13.5907418243053719	19.8217500565490354
39.1098339729910620	35.6185978962182972	11.4340115484062963
42.1224509281453265	34.9088181929857839	10.5965231834644609
35.9140949698239140	35.1920482349297927	6.0041582399635463
11.0503409786904339	23.2967637240804528	19.5455620745605181
12.8710232346737889	23.0300937499683727	20.2300262809715576
9.8039822017241729	19.7842530332403612	18.8832280272528870
11.2995159548796593	19.1857412901655096	19.8228985231919808
36.4941957341951735	33.0603854124693655	11.4775692177910003
32.6439850283483466	34.9835533446999136	7.6651838962719694
33.6951298914316624	31.0215451695165534	6.8144987593884165
35.8792839678332385	36.4338217067578114	12.3110101111572359
34.3383491358707715	32.8767957420486994	12.0263703265195829
33.9397039165461933	32.3275252260490475	9.5183297540173459
35.5059273680514735	34.6768730508667744	11.0874651493015079
34.1597470581887492	34.4418543633777929	9.2037842035111446
36.7618973248682153	31.9028259366888101	7.5334641924965986
32.3933927750915842	31.8073186740125102	12.2258021043034173
32.1621819242271414	31.7663818573567909	9.9852763128619308
14.1905124283933883	1.7384110235006820	13.8139159186341569
35.7885847497718572	36.9939674272223087	7.3350366037964587
33.2972645415603381	34.0820544932605003	10.9011814086661669
31.8206172381090475	31.8473861368007256	8.0470307089069824
32.4572139546924774	33.5758449753894936	9.1560709110463439
35.2263601091883913	32.0015033026755944	6.4290491139356005
31.8950264803879584	33.3100763984832895	6.9919561201768712
35.7503360897653835	35.2219301875765893	8.6933267606916935
35.2421568605480715	33.0931517913762647	8.2166394012918609
31.6613277807006810	35.9022583098001888	9.1747481988135835
5.2324249757016181	19.4582080763055814	20.5151628822796113
4.1946968517960839	22.3207536743870385	20.2802624287488520
5.2296418958891753	23.6459930340706741	18.8527886032576539
1.7367126623755165	21.9801662794952861	22.5217263462071351
5.9698484348703493	21.5564849022193812	21.4901107236346078
0.8235707857847674	27.6194410666239101	14.2031029107260824
34.2246183701454072	7.5240371482826811	13.3044117199256924
35.9335686056707715	4.8310411638315660	14.7556534392795822
32.9038339669697137	7.0771163375604731	15.9350025304713849
36.1055834558369853	8.2189124611947957	16.0810168038176791
36.0717547460092334	7.0391549803652458	14.3160057166446268
1.9187699575859396	25.7135425506198416	17.0288906032534477
4.4480073075103919	28.8754991245050441	13.2263471133366757
3.1028578057041933	25.4144105737041315	13.3802726973133819
0.5473386554528614	28.6139058185595303	16.0368177203470239
42.7672534944308040	28.7252777042461140	18.0330955768607062
4.1906539808104553	24.1195637171723511	15.1078306333226262
5.5028137477365133	26.8409639058688576	18.7647756002826789
1.3080669772046689	27.4313806722996070	17.5264460501307013
2.7170618743115176	27.4282098933498091	12.8591038750075164
2.9568321896548815	27.4875088509255576	16.2500810528412316
35.7834326314599380	5.9787997636011330	16.5349536250571205
2.3048095850442389	28.7460263596070185	14.7942703430627329
4.4524126956692180	26.6920432814620803	12.8023830289283307
4.4472865787330340	25.8351355888389911	16.7559349792824221
3.5313558854125930	25.9050683473576129	15.1602091554490990
6.3162504700727711	26.8672708643549569	17.0212014549405666
4.7447353348483405	27.7699417611349837	17.0591597670483139
3.9688664575856261	29.3553276574391724	15.2086063729952077
0.3171521524201171	25.1434398231412679	15.9164383805105079
3.6979932708681122	29.6783508158224727	17.8665051784532913
31.6596035847410917	10.6343800613180584	16.3866993504797449
32.5183063327484874	8.7316594374572443	17.5341291950605509
33.2437967642685948	10.5873159694456707	17.2511804327957172
31.0105209172259606	9.5368365237865227	14.0320419158051113
34.5323658310197246	9.8392469386279799	15.7681171846074033
33.0660852815886983	9.3373830363368970	13.9654127651748841
11.6341979955764820	26.6388315537449110	17.3402558070741861
14.9556996219137570	25.2948794839045057	12.3184619718030905
19.1195614385553618	29.8054881035538379	11.8998945742197986
27.5848675034338626	12.6661157609728470	17.5425025395312808
30.1023226494770455	11.9328242974163530	16.2757016055125305
29.8827421091813719	8.3118980527007302	15.6871552440387454
28.3554147727926740	8.9718138180755034	16.6363939302311010
29.9667490044976752	9.9842672857087305	17.4167807899784393
11.6901974432555971	26.5897135793617707	13.9524959260978250
9.9686830229707866	28.0871311804559447	13.5387211834938981
6.9692951205171063	25.4808871605496421	15.2193941565447002
10.1957435148080542	27.8497731568067657	15.9665935236928682
9.5497807757406878	29.9769503611564048	17.6641920746818748
6.2643182559332109	28.6890758769923053	15.7879047606506937
8.7172997438427124	27.2151108495315626	12.3973100158915379
10.0994614384757728	29.7691600161347587	14.5509788231840904
34.5451292744934548	6.2341228939862274	14.9466912862348895
7.9445877893147880	28.8717049023141819	12.9578173171601279
7.7760313729998751	26.8705089780394353	13.9177322155219638
9.0478503050142258	25.0012814481414942	15.5814790778513057
8.1514663238496805	26.8831808282850595	15.9836763691708743
11.5611281215709383	24.6306081123507852	17.4017320112420819
11.5589996621817441	28.7953518893586491	14.9115493321347152
7.9834837399403211	30.2297528205425401	16.0088457901452692
9.6220500410636944	26.6156134560328574	14.5239578841663501
7.9659792661693114	25.2006465267914486	17.0569978130344211
11.3223883438980231	29.4740866820459999	12.8747847205219124
9.0228048865291957	23.8696651567110791	13.7848933526880515
9.3229385259691320	31.5461321756471058	15.0688941246871444
34.5636585724729812	10.7884944188037171	13.8441156934995089
31.8206341498570531	8.9248374433308850	15.7320224558061170
38.6945354961469121	5.7519285678069023	12.3833253181665093
39.6840819649134602	8.1504509680460195	14.6998179267755447
39.9977117603489987	10.0130279685406158	11.5637512482692859
37.4244431438658367	6.9710270953091866	16.8591440239136183
39.7765546376852939	8.9915684101323148	17.4800087084288833
37.5784852190633316	8.3744787530450040	14.3727111737166435
40.7486126285267005	9.5829519685885334	13.5495813075236562
38.9133859390628771	9.7302737664650465	14.3817432372053808
42.3190172705019521	6.8540409737222756	17.8657001435682119
37.8170458282415325	5.5016833717076778	14.2621336373653325
40.9673756896973416	9.2680118887068907	15.4557380883248339
42.8165304860195519	9.4259497489746078	16.2861877514058015
38.1504834045642767	8.8711851438879563	16.1151253435172563
42.5041949092819067	8.2238632358069115	14.9296462930608786
42.4993104079396034	9.8784751915263378	14.1468503276251933
39.2737225314521581	5.7218566780094307	16.5670245774966958
41.5039260258338984	8.4196327406138494	17.0735657091850364
29.7722187866870698	21.6152549572629162	15.9830319256469870
34.9800945195224955	18.7548500707893204	17.4160203571253760
33.2775477456770830	18.7893521948435094	16.7809027838035405
35.7757410606653394	21.2265753605494822	15.3079472120706264
35.0538072547109110	16.6498870726151864	16.8671147798370455
36.6836159495175949	19.9789545370475707	16.9531423374810721
36.6335010437046975	22.8383194815679786	14.4373255440343602
29.8892203631091888	23.3215224261297465	14.4113030977290428
33.0828238325189687	21.2828641266765715	16.8847076043635447
31.7083251811240636	20.1146883446668099	11.9816662656445487
33.2396275868319293	23.2850799792608107	16.8958092377877911
33.2810899117269727	22.4469120322992133	13.3198218188577329
31.6670901035554735	21.7410066875601515	13.4173535382543054
33.6343610252018266	21.0076103064720563	14.8353082085561709
30.5041505210683503	19.8179227202955772	13.3233913846533891
41.6525971617437207	21.0250023484146524	13.4155551017602779
31.0104749392880343	6.8406941866922528	14.9132485441798153
32.9103570984656812	6.9543063810163481	17.9655597044765720
41.2265721221422439	6.4322994146233832	16.1528180265229331
42.2760055284211660	18.9217063020000005	16.6450227446130121
39.6180337461579271	22.4146850838648604	16.8610068578788059
38.2742841558289086	19.5855287254554327	18.3548705125636396
40.1079426394636727	21.5291624425152861	14.9767007278791056
41.8654072080716304	19.4965387692708134	18.7244471108421671
40.3997150990994811	20.6070014521242584	17.6890775214085636
37.3850792847337843	21.2669396389854128	18.3434501723216137
0.5327388449213711	22.7625839295487182	14.9353421582916681
0.1610603771994640	21.2849372921412083	16.3765104034676163
42.5440474017782719	23.0843660841184537	17.5748824632761504
40.0532835277382162	19.2130291188037425	15.9834969970966156
39.5332690954950365	22.2567699968290746	13.1716274764516186
15.4141002408328216	30.7835015073740941	12.0527559242807722
38.4257353342006951	22.7026659262098569	14.9249954510345724
0.3157201841250264	19.8030016133961198	12.9091814373016458
40.0804366127567420	23.4631487665247569	14.9537857779122927
40.1633734007612446	19.8414647049238120	13.9250016161548622
40.6074412761399017	24.2574362417916092	17.6303724770962944
37.7355071331397909	18.2771051066455499	16.9365078919024796
38.0582519295340660	23.4485636331050742	12.8473845720660940
40.7220960925912223	22.5581578667555966	18.5190184708810861
39.4863366447662543	22.8083954711670032	11.4105182680927548
0.0192479246936230	23.6724220893558268	13.0404449980559107
38.5022359273371677	20.3821578749581782	16.7021486908064212
42.0575189174091761	24.0215119796397936	14.7106153524295493
41.4096346463045819	22.5578682899691501	16.1827749595717556
37.4912175584891685	7.0349842247330052	12.7132691596194185
28.5823962967278113	27.1861186244446174	18.2640855452808708
29.6474273935096164	25.0490140410168358	17.1035092568481204
25.3318687440354253	28.4406783983366900	16.6873987081671622
26.8420810082907870	26.4623708674311793	18.8166284700521373
31.1167150935119956	31.6438790800354148	14.4036949527977391
25.2668466223892594	24.1183277683253081	13.2958201731326096
30.7280933410815926	30.5865382051748931	15.9334444560208546
30.2014687238914910	28.1789168985721652	12.8051006538210057
25.9019108273325323	25.4779876749532335	14.5444922705501885
27.1337215641129497	25.3417887886851894	12.3538265476618303
25.2575875653819573	26.6630327682775068	17.4381200172686555
27.0023958485534941	27.0560936769201632	13.4619014031398461
28.6975676541438389	26.9389786086565870	16.2606951926599024
26.6505026456443126	24.4050304094890151	18.9822363612725731
25.4265147492403436	29.5607366437645531	14.9572059972755085
28.0996628446196439	29.7457614168710371	17.9346862366812374
26.8803674533406962	29.4236661086010400	16.2437215840559901
29.5072627090069552	25.9393861342040317	11.6310377921369064
31.4669301878581749	25.7011408815952827	15.0666339841809602
25.5377184891930042	24.4854643211146623	17.3735152404107289
30.7991278583995118	29.1632612759497363	14.2781453371272047
25.5106208505260419	30.1232303598657154	12.1808199960035246
28.8259776451945946	27.8793794978704845	14.2268313085465401
30.9133650819582471	30.4493750694505536	12.8399590820988045
29.5687973073141173	30.6621930159083433	14.2989699576092111
25.4909253904910216	28.3045226304619746	12.7329413261638678
30.2562003181259982	25.2395030576223256	13.3899146490178804
26.8824316812207229	27.4974244481971120	16.9990674321562665
27.3567518254510951	28.9772060649894421	13.0009721328197827
26.1074912267741333	27.5749975935566560	15.0300998924762546
29.4097029930696294	25.8702266929338265	15.0573221223375739
24.9137924012049048	26.8053208864684080	13.5955945893270531
19.0105470634587022	11.5711660723942398	15.3210505764881546
30.8445913937244143	25.7649261061730819	18.8053088860713089
36.6012795785233678	30.7076724063789293	14.8213500009877723
35.1657286164522702	26.5467792693168612	13.9085612574073618
32.2156378863345694	30.0527476389058208	16.8101300502194455
33.1827240815445066	24.9173498718143627	15.9166279334493872
35.3571014695217798	26.3632306024427479	11.7447201460868786
34.1634366942628063	24.1077870450092284	11.8250125461749516
31.7368303983040363	25.1257370947979481	17.0423173950698832
32.7792279078034312	26.8108816921481292	15.6992500130746109
34.0230751841459238	24.6997694911116739	14.1466882828514819
34.2922578999637011	25.4950733237110505	17.5991526344675542
33.1588247968917287	30.1999489056127111	13.1292194801776354
35.0643177558476680	25.1392626158421528	15.5669413649300594
35.3677105457303540	30.2318639422611213	12.8338897420984459
34.3743643545480708	28.4215005806550458	16.2059060747574506
29.1163103606302620	29.7351674901989860	12.6207543481801885
23.0778645102339262	12.2125781596387046	14.7340322237743013
22.6299848435372688	11.1568002205200063	17.7479294044438909
24.8275793660343922	12.7839402730707512	15.8405134471488704
20.0030828590457581	12.4746795212002315	16.9141196169946078
25.2443000492875456	6.9887827292913052	17.9169976872308290
22.6616747927365303	7.4520792784672976	15.4608458519839154
21.1705517328789412	9.6404320402483101	12.5952546188182417
19.4308403251928112	8.0590822531032735	14.2017080146726471
20.5396934456156899	10.6150063916677340	17.6327878067288033
22.4419976768916172	9.4368419650971145	17.2262697973046386
19.8529774385261994	10.2084079217756081	14.0197878061896741
24.5719854535098357	12.1818090618983845	17.8488163186857314
24.4850007565946086	7.7989277277282252	16.0098390241626340
21.7548425791964277	11.7702367901007641	13.2056871983049433
16.3721915407794505	31.2020972898744198	15.2112011380583692
25.6497304780028408	9.5118456828393256	15.4420888974313630
25.1336831688219462	8.1073459709147730	14.2222467102245975
28.6255040300796750	7.1937373006094631	16.9155990665496674
26.1901505947420681	12.4448850717719885	14.1758513149092700
31.3541729315566258	7.3297053974080306	16.9019377707694431
13.2429420153155171	30.3487912406724085	15.2925622023950041
16.6793910290655703	26.3486456235853517	16.8292590144095833
14.6988831436486294	27.0726930807551973	17.9698323537832465
15.2917654334099282	31.8925551754615597	18.3133613357673681
13.3012748448742517	29.9527105708174766	12.1219015827417902
13.4946634568410779	28.6621265725699530	17.0314383384748744
18.3606486980971901	29.7435903775704666	17.5868393551831801
16.5940547099074465	31.0181750712122586	17.3407728521517122
15.3086167257418921	29.7487166586150877	15.9238672678147850
15.2972384808248520	27.7520901299246816	16.4175544068250723
26.0054251295817522	10.3964627854657294	18.0487371702783683
13.9521027523218901	26.6315087639419872	13.1287619415976291
14.2770416459929841	31.0780825009615356	13.7237583788322031
17.8163741944311127	24.8526319573026697	16.2054610131042693
14.3085617083811023	30.5327634393741789	17.6302750625742917
16.7923936151565911	28.8616837492591358	15.2847007065715150
18.5262242487036382	31.1624423129227850	16.2578481088352120
14.6861986477918141	24.4047254531147253	14.1060901962928451
17.5555227712141964	30.4944875068138685	12.8205670515859520
17.1545183501307861	28.3682629973708806	13.4182232880937562
12.9151687104181665	25.2318447409779161	13.7661845564236653
18.0027032071773725	27.9278007368237589	16.5724552359771735
15.9320971067631110	29.7076172401354803	13.8622967436430411
13.2830177253682375	25.3624238838250449	18.0635444185314071
18.5088192590530056	27.1466601707957977	12.6013576837573567
21.3953036491294100	28.3551998777611658	18.7133889354214027
20.9527558842773516	11.8232211259706741	15.0779129202855326
20.6089922018720806	7.0452648014068142	15.8842476331207152
21.1335230661115006	6.8205992629144481	14.0959922554947408
24.3283121762344443	10.6072548527338348	16.7410791461009083
23.8848554453898103	9.3830980355996392	15.0377458351376614
18.0809080931870518	27.1696806314860666	14.8342159281753361
19.1367141241694085	28.6053532285619738	15.0182319858189750
23.5218169547875604	28.0513961960650491	17.5596922778651177
21.7413044987087467	30.7987067859540105	10.5607621814835770
22.1082579899529499	26.2785566697883404	15.4039606699353566
21.1066502311225825	29.4437024908771043	12.7220387593098359
23.9418180853125477	26.0100453026766694	16.4460423057534015
19.6655504607072444	24.5852974304831413	17.4628657740762030
22.2250797486069729	29.4814641825344701	14.2448748335085842
20.4037302185657019	26.7796691198032484	14.6496916404904063
35.1254991035512205	19.5199899104954895	15.5548687284685965
23.7075882298279623	28.5770823259057458	12.9229152304300605
19.7633933634826207	28.3312400166669214	17.8172671324054939
24.6872345628407288	29.5470212247181081	18.5500245413644365
21.9704928209331314	27.6475051379616765	13.6409792218470791
19.8263605919730423	30.9924053261130226	13.0990251069207364
21.8961851592713934	24.8124910850126916	16.9042678966613451
23.3170513593036297	29.3328598054133032	15.8082812779412656
23.6124089433318076	25.3295223094315389	14.4037615225665281
21.7427746736634795	29.0231395365169007	16.9668228898308264
29.6108386216055770	12.0247155466258775	13.0645153584340594
30.8927712223441979	11.5410626526767466	14.6383963022292996
29.0789569456136299	8.9496945182040992	13.6752022434911762
25.1782675506738833	10.2876713521293688	13.5288936222466472
29.8081023537549541	10.1917258258185974	15.4037307310705991
13.8930768722801918	11.9301958937930994	12.7808287784966321
41.9793219957449537	12.9866006833995957	18.0732632078712996
36.9722251477367436	13.8763353213774021	14.7963328964838734
38.2457760502042987	15.2026492698431142	13.7693648414366354
39.8339562268036431	18.3831019554637578	12.5797423023120860
0.0120231535842237	14.3800300697499672	16.9346722474528697
39.7552713722438966	15.8548425486214768	12.1693852046415039
37.1459913784643234	13.1100363482486344	11.1226919615067832
40.2046640789600502	15.0111279609056982	19.1412282278315473
35.4919597990349800	12.3786548724015546	12.6833636419615026
39.9188259389564450	11.9743719571776772	17.8754683204572835
0.4121420878893027	19.2091816536838067	14.8581986690914754
41.8105642609651085	18.6864949771204536	13.2739211337024301
42.4883438655199015	14.7902283252209994	13.7290410786776711
36.7536269766463732	18.3339691581084878	15.0535673642615535
39.0155088769167548	18.2597502908743330	14.6084991037098746
40.6293779948150018	15.7640114378034308	17.1322225731906173
12.8721229370293262	14.2602745625424916	19.7270627444901621
18.3566218925877145	15.7054215837611295	12.9125845306834979
13.7857602057827702	16.7359192538389188	18.9572486627513648
30.9300971777670739	15.1684277669853422	13.2566070306388823
34.6109588920792461	17.7672311062305575	15.2889272785817294
33.4367936230660447	17.1884817025755723	17.7041625028470939
33.6163677934973464	16.2738545554564027	15.7865300531969623
35.8531839151925382	14.9872765286109448	15.6540158324834611
34.3628715805469014	17.4689111555370111	12.5103874664093144
36.1423219093928054	15.4732803685666571	17.7542763661778622
31.1451145944541068	13.2422057748791282	12.9527080791639282
33.7917718903390636	13.6810170396784176	15.4344155440624426
33.8486139022944812	15.3454322577580591	17.8095566159759819
32.5955627138138553	17.9020022647299832	15.4211522581740859
31.7566648957303386	16.8742935958660496	16.8349539219790465
17.2366420128527515	16.6067816098230665	16.7242800268837470
12.4090229354229482	14.5082924188082512	13.7697230969826236
13.2574011947453858	18.1246294000083239	13.4483982434383478
13.5817163594347328	16.3536690746971693	16.7838607069237504
13.1925692663475900	14.9926125678957245	15.5307060272375530
15.9823433032194480	13.4479275528233142	17.6049073286181539
14.6437710106777565	13.7966634437728359	16.1229726475550379
16.9859103744909028	15.4452667967231250	18.0673598631992860
13.9868423307191012	14.7889439598880070	18.0568753362990293
18.0396479999407227	13.0968284077112891	16.4246025467556791
11.6945107393642598	16.1014879698746434	16.2438164432926051
14.2350453859234243	14.8371357723950776	12.3623097120126442
15.4489386680878216	17.0607933975926684	17.4686513439787845
15.7251199632661702	19.0761872066366287	16.5775718712820783
14.7899375135593321	14.3077686455640816	14.2694298923323490
12.7651290416019911	16.9286272213246249	14.7123310487326364
31.9234882370169721	13.1463105607741930	15.8132121492538946
16.3012310269611085	13.6594295471212899	15.4181753413407119
14.5301559005238961	16.2200586706254199	14.0284076088039402
15.5569554270884733	17.4978855786423892	15.3621036168024698
38.1650586206860254	17.0600931462874676	13.1496258311504786
0.1661337033442768	12.0785648602371030	19.4661101500335327
40.8488237430617431	14.1771789915159374	12.5671275343357998
37.2124128538405898	19.3131229249549179	13.2217442042136604
39.3513079978821025	17.3404775010744423	16.7684405639987979
36.5341706870881708	16.3025233841060810	13.5281308698738414
37.0854557872827115	13.7026423474364272	12.9255897000526190
42.7755658314771381	12.3874632526851567	16.3385313803037242
39.0639478855630813	11.8865963975992557	11.0058373201835025
41.5818114592102290	13.0250478233565516	14.2290181946591225
40.8310015793588477	17.5746180997026222	15.7791072209232937
19.5723847604933887	13.4583508483583731	15.3622672433539371
28.0986401967617709	13.0753779383398676	15.3539826980220298
28.7699422504459079	17.4756369644097163	16.3379067929517738
25.8167517983651038	16.9881857354035297	18.0074412614089177
27.7018339233526056	19.3048928908103363	16.7507972961288765
27.5153174779862653	16.3383584513083733	14.7914927922548802
27.0240850945408297	14.2515115401734391	14.1236790921765056
29.9228235452789981	13.0538961025241207	14.7118210312395608
29.4407737306947261	11.6915142003418762	18.2399103933699323
26.4700860739858861	17.2131464471361220	12.8604637239454096
28.2129448590198777	13.1966771165839791	13.1079931663640536
20.2506581763866258	14.9848039275008151	16.5603854046934273
22.0387268171068271	18.4987079418766385	15.7604216607704402
24.1033794988911296	17.6766097915716713	19.1719047567054552
20.4985386425620284	18.2499736998033733	14.8459611427566767
24.5567797890645529	17.6545735155930714	13.1898744541745430
29.1109023192825873	15.7734315669695313	15.4130378639040373
20.0382505624399805	18.4371410859132077	16.9550316373057761
21.1043412248237168	16.3686819012645195	15.7727950183318342
20.3311765789365602	15.1700179498071623	12.5807768487438647
22.2581758618458352	14.6891329574907363	16.9439588604718985
23.2050518838199622	12.8023663895169335	16.6981762230901012
24.1869888546926965	14.2687144355036644	17.5220893298966942
24.0110040066140975	15.8587995114441664	13.5304631333182073
24.4706831380411600	13.7881373884476766	14.1764369278730609
24.5227923647910053	14.3637176666422572	12.2408477653452845
22.6953932575398198	17.6167545637909519	13.2583350094006338
19.8913580772165233	15.5104653668562076	14.3893108062877779
18.9554549640339580	17.6700471770623260	13.3877978410181111
22.7397199591897063	18.1043916069804283	17.7837805692848505
22.0673689194070342	15.6603975644259172	13.8399181999564629
22.8699933007649712	15.8924693360784381	18.1816605149892183
22.6548508559265187	14.0413170787568777	15.0887126494611170
36.8494073554202686	16.6464001810895255	16.4290523870710565
32.2984959619242389	16.7012765265416476	12.5497789135299485
32.1745488647507472	15.0174576641011779	15.8612297479155870
35.6452190341093100	13.2968724752463352	16.6657956750294574
35.2852820118617174	13.9755767114760978	13.9543234628849273
33.5843811260864058	13.1931800534153734	17.1767920783624959
31.4655087431592051	16.2751145482514126	14.6619801118532465
30.2215257286169496	14.2661936128564353	16.1484544870834732
33.2766279388994164	16.4000334597879736	14.0368461797550950
33.8780782756039827	11.8174434005101130	15.7476682539775421
34.9780906823615609	14.0518458494632572	18.4806143480906009
32.6246997137046790	14.5458451364551298	14.1475859619316662
33.8825045479103650	12.6134056113794539	13.8064179533314171
20.8589721624899482	13.6181729199353434	13.6267196618352848
17.5194846784949902	16.7767399611996844	14.6558878038084686
16.0973292450231042	15.4783786029927981	15.2119455306663127
20.6889197870638917	16.8809728934683498	13.1413589005284361
20.8537301914999453	14.9374659684555553	18.5088998611983477
23.4408403945592383	15.8632161238360592	15.4214860350173186
29.6059829918280464	16.3800021217673688	13.5838579911120636
30.5901534661477790	18.0072233538316375	12.4553066060699784
29.6488711092869579	18.2183701979818231	14.3710712077628617
24.0445411193752143	18.7396697345341536	14.7786953629499038
29.1044119571660858	15.8053435057242062	17.5204888566347279
27.7150303819277966	17.0325003203779275	18.1162811530014274
25.5995362272747364	19.2640976590160129	16.0408843898351314
25.4831956021525983	16.5673073100288626	14.7056580338450278
26.6723137236927137	17.5877560954427068	16.2224696105753843
24.9218965021584893	16.9567700656473903	11.5505952241735219
28.4556936125902986	14.2905601810011724	16.6857428573642075
23.4873986005559097	19.5497395143981905	16.7325296817897922
1.4385540852706427	14.4049236611273965	13.4919276330657336
1.4103814477583714	15.7712762380219420	18.4209786179248241
1.7790664466204993	14.2255592187832658	17.0342527530236438
0.4045957645860591	14.3038261656265338	18.8942159141754153
0.9362849840626108	15.3595053339342513	15.2330879629378853
0.4575863369193975	13.4824803950914429	14.8870001861206092
4.5567988812313969	15.8576866218165531	14.9290655507652552
1.0700061364945268	12.3926909285575633	17.8541945197803678
22.2123831151899438	23.6787218563045911	13.6792714585050241
22.7019135055530512	23.4818725457096846	15.6292656269939716
20.6922607734479769	21.2155475306445709	16.2350346041044133
21.4420721250961392	20.3019428253083412	14.4940516068243266
21.4605068762664288	22.3963904825251028	14.7146395527841296
21.6403078708721139	22.9774034132390419	17.2279297812094789
19.1712284542375535	19.6616570383029128	15.9596674545083896
2.3496285044052501	16.8796041493174940	15.6414744935886283
21.0483505411363865	24.6571545351021406	15.0784878974664540
22.6940598648577740	21.5769510478558679	16.1836462610839469
8.6904826033997580	15.0251975583177089	16.1597234881073462
8.3297508531606894	15.2850773194749063	17.9860697208434992
10.3904138293505817	15.8067833662488653	11.7332695703433103
6.9974403292580165	17.3891967586832479	17.2949453375790156
15.9409482698480733	22.9585175335992062	13.5620389520826379
17.4393293812404835	20.6177858913871503	14.4181723544509133
19.3364754484553778	19.8842878379225887	17.9312736036464955
14.8749843822422978	23.1361880106932034	15.4564051509146339
14.6561272248451111	23.8123163488288760	17.4616846046447236
12.0852912227607820	21.4569103310303539	15.1004909244980841
18.1533945545781421	23.2949166079176777	17.0023941796269469
13.2010064722481708	22.7130621170805469	14.4075758209825135
13.7287355021732882	20.2469233134046860	16.9714468826398850
7.1282282674169286	15.1436097164015191	13.9888008567140769
34.7033145677663200	23.0728701300292371	15.2289382824448207
31.8964654642223309	20.0682422020326250	16.0175769872369038
32.7047684815943782	23.2148243780958303	15.0051843435916030
3.1164692363765534	12.9163257406586993	17.5959370820668077
3.3325031632843376	14.3182839909623940	12.9738431736995850
27.8799301376435160	22.1986911647573280	14.3080078894265146
26.0252086480075633	18.4485539450631855	14.1758250745656600
24.0962666355471740	22.6114379923134372	14.7811318862787999
27.2688905392414611	23.8758934574485551	13.8192816725389473
29.7380788979702437	22.9479948072079090	17.5668156506072215
28.8338645671129861	23.8818163336960154	12.8772650439548375
29.6284185201348116	19.1616735809785688	16.1660657614303211
25.8368733511585766	23.2406886590502637	14.8349153328329404
29.1387235956380266	20.2847201116250417	14.7356635141962009
24.4929748488491192	22.8117429589693828	16.6719537350174427
18.7075304816260228	21.4447077405951845	15.4306649438719212
2.5550193999228239	12.9344760418608136	14.3394753481872907
6.0227773714843567	14.5367026504326233	15.3682503627193512
2.1338229047388659	16.7349208819165653	12.4025758539668871
1.6361157847775749	11.3192673683294736	16.2969863132636021
3.6237327024967096	15.9949095745852414	16.6739732793693669
4.3672928947333496	13.6401219119819572	14.7638199805865096
5.7690355999222556	17.8264121893609939	11.9176939563292557
3.6504595204678627	12.0239675991905859	15.8765651628318416
4.2863010399572916	14.8499836466400001	18.2416596742864243
4.1450067929635672	19.2719564522645932	12.6666384589470642
4.8826075742423871	12.0409544636528612	17.6166512913587638
1.3210235108953772	17.2581225460952439	14.1605438453802215
1.7739654539219132	18.4906282348737925	12.3037827676952052
4.2205777377640024	17.5963650337897839	15.4445897292546697
1.5353817178923546	19.2526723537322759	16.3291186116727332
9.4406633684110233	24.2069513720208889	17.5397310218844495
10.1243232779615848	20.9503914404898204	13.7109694606634047
11.1279536986595424	22.8910110003042249	17.0383640639040976
10.2669385376821456	21.4088891726186112	15.7483536603688172
17.7791629445535477	18.6278823457432345	17.1743018052483833
1.8183577382602349	20.6843826836412177	14.7349081590706081
2.5537035192977844	20.1037849507636146	13.0266454331702253
3.4395887976583532	22.5734884927834401	17.0244466087676685
2.9847978098894696	20.5485595255362767	17.5611581664437644
1.4556250413941336	23.6667297216316044	16.7774529801467693
4.6296095107249782	20.9771267353320390	16.4278947794674686
3.4291600945230880	19.5711823712957553	16.0814670807717164
4.3418109591535519	21.2211813477961151	12.3188940007493457
4.2882119673632610	20.2392577471034905	14.2225318855920335
4.3818009626630126	23.0518656303343690	13.3115477431264768
7.3677059973564543	22.5062438010271890	14.0557360189792977
1.8427261299243523	19.1222646261381222	18.2992146888956242
3.7853383676284151	21.9419201345817818	15.0433713038700851
5.6575217573148242	20.1607833059325756	18.6654581749455772
2.1091555562277242	22.2728730751833837	18.3783529348436083
4.3999633309984816	18.9868982355748415	17.6361031553207965
2.0002472148290318	22.1518114878329762	15.8539758103460962
2.8048544793976284	18.7350020535967658	14.5099597200600385
2.5441387053685447	22.0928580765550961	13.6330220223816347
6.6677096973310412	18.8240200374526765	15.8759035875722443
2.0734204731547448	24.3787589515699139	15.1612474907825234
16.0481301430403533	12.0239233983378444	16.2236052451862385
14.1642754488814138	18.2329622295946905	16.9298690129253835
18.1005907407861315	15.1180016698768149	16.0532227775920582
15.3324184784155158	15.2382595772342899	16.9626316432586428
11.6475611482792711	17.7157667216091639	12.1016136134588059
17.7902336085431791	19.3134676537292940	12.8814583106336329
13.3691882383589640	20.9259695220403792	13.3116201647589545
16.5630514616558493	21.5972924217081257	16.0340276473810306
16.6794203683045836	24.2719652480951531	17.7614103036555555
18.0740061173400051	22.4712225552756415	13.7206210334462924
13.0004793053338759	23.2799824985104920	16.2736322522921562
16.7077416942543948	23.3668595456247452	15.1629422261065745
12.8329321029682184	23.3846680178352422	18.2372452727304548
16.4657285255276769	18.7145516015516371	14.3580635604967117
9.6441347114857727	15.1721444044649907	13.9452378413479998
9.8286980189086943	17.5935746307102683	12.3822039517992888
6.3075643069931520	16.7157399326474803	15.4042263267529922
6.7835852502684215	13.0791344941174543	14.0039126006359727
8.8601931140876093	16.9887996454304542	17.5008136955650961
7.8975435615288223	13.3921967023165820	17.7391280963004476
34.8903770185242195	29.6989978737077109	14.5167362702134142
11.8212996329791995	20.9406877018855404	16.9992232542029775
10.5097784244867896	22.7046508447788042	13.8923979074447921
5.9851980782302308	21.4282016346868964	13.4716754706520323
8.0478998296374034	18.9759012970923457	18.0757386778228941
8.2035643442552200	20.8225896103184738	13.2788147916041552
9.4787258267953138	19.5667991860828963	14.8025413909127099
5.7679783128796203	22.5179519678853488	15.1332339154350208
7.4581476278370333	23.7499392183790512	15.3849171705761698
7.9971598305957921	18.6069492449269198	12.4935239557005531
11.1434861428801586	19.6608527212002393	15.5705515154514131
11.2190027755185717	18.3822911943024501	13.9305346622585926
10.6726440457506868	24.8618053324636215	14.3234970815170612
5.8814623834009652	23.8923702905752648	13.9820908490202669
7.1540300175860381	21.0063826461077667	15.1266659180445249
8.3796359138420602	42.3687625132437162	18.7742826164528118
26.7089734192755586	5.5237668506453668	12.5662791843051238
27.7962011233235557	5.5999277926049214	16.0015310311255483
28.1773378532793402	0.2879882788665261	18.0333606151175552
24.7954010327115277	2.9241935113709245	15.7942015210861655
27.6316240622115075	1.2025777885063598	16.4549000904332878
10.3094212707999269	41.3201115609092966	18.8030673005713105
8.5338969287785815	38.5876626619540843	18.8339498978836595
11.5055332900864151	41.9405293204813390	17.1105403801626075
7.0432440475425828	37.3060316708196140	13.0200697913696075
12.0384941237081691	38.3932155891542024	14.1818283193497763
7.2277797127270960	38.1553514254449553	14.8844454968604492
10.9015453453206348	39.1519612348091144	18.7135385920671489
5.3006772238640298	37.8522144262130666	13.5435896217079588
10.2234253641528099	41.6742206425883239	15.8187572356837034
8.2733709690229134	38.8399103783253565	13.2934770113247342
26.5231452027031658	2.9300454882616012	17.2051489463663394
8.9699136091347338	39.6597005459746512	14.7779628407133270
9.8735659431940341	38.4269465355069855	17.4294112493626692
10.2092348280047389	38.1228199857991754	13.8376901491843931
8.3776912460007580	41.5199907969866544	15.7584963353275480
11.1996466507875514	39.8335558478723115	16.4975423102098802
36.6548548040219444	0.5646243078354634	13.3568194989994833
34.4992224387530584	5.6895686181844507	11.9680142377902605
33.3352995072615030	4.8625597485943253	17.8546918998556663
30.0647944994473875	4.0995072272842723	18.1599618462584331
33.6409722188354721	1.2112435393669976	16.2925502354500722
31.7767418294613542	3.5289620712372467	13.3627918746627898
0.3090257260205319	41.4898731876172988	14.6277688373188894
1.1276792409541720	36.5005768928498213	14.5055019067252875
3.1246347076915355	37.1079184554764225	18.2203277577793727
5.6102429981230078	42.9311431152177505	14.5049159385441957
17.4573061722662395	41.8934482672236470	17.2832349344261331
28.5621017583020205	2.3481795287049421	17.8090221637285957
27.4989325647717173	1.3834984669040362	14.3235095740303251
28.7244640738471340	1.7969133963899229	12.5168258327123034
16.1912642617599118	37.8589090026232924	14.0298564526621909
16.3340817444383894	40.3723350094375348	16.7250986830546822
18.2791948030263747	39.8786053627543211	16.9484558811509807
19.1983627302107855	38.7917050739859590	18.5592437508491521
16.4673094481398579	38.7526941771148969	17.5201598824150544
17.1860117158177310	36.7099101678737085	17.9184417512808736
17.2982220764607035	36.1435040569283288	14.5552943924415370
16.9350925322267472	1.1486362624090656	15.6342697737101339
15.5835701441599106	38.2174975634344563	12.3831445603033146
16.7595875475438305	42.3193616051217063	14.2624274267888165
14.4981672808383628	41.2569973865783766	14.6807533153035070
14.4155237522511612	42.3331025465119311	19.0387133741533425
0.5622581783633134	39.6640992809254129	14.8809446325350407
15.2782658041987407	42.0773486083421702	17.0364737639298447
16.5224572636430764	40.1540733684155597	18.9687699812544395
13.0351882033713000	40.1197870786810356	14.8635711023816199
17.6401120047569044	41.0562149692417933	12.5061692991588203
12.4807586645802253	37.8381035115304840	11.9768529476461296
13.7987341834289552	38.5346396639307827	17.2956724530857642
13.2296190108238925	42.3216666218614179	15.4051695005142069
13.5558092443446476	42.9861038254988443	17.2124232461364741
15.1912951414036250	0.8476530491204731	17.9386535592630736
14.9368985083722201	39.6446028363071932	13.9477104956856515
14.8765157332408151	0.4180173249024008	15.6055595117512311
14.8281254932385700	40.3193077228293362	18.1058600168419765
26.0799019461992287	5.1762370064974368	16.8280835093671577
29.5780784416807947	6.0223048442584997	15.5711826066078221
40.8505224339875568	32.2828848176202214	13.8599104731721603
37.9494531438348801	31.6628755488054701	17.8871679041971667
40.4180037805290411	36.4853550170913223	17.6912383421702479
0.1989318918657550	30.5604293749930847	12.8379494082274199
39.4531991999481519	33.5536959444521941	14.7241212707283751
36.3082377172858202	30.8186831276140367	17.1768930597045433
38.5468640056707201	35.6722956894037608	14.9178651447090846
38.2225785716872792	32.2156230728522033	14.8774578026006470
41.4489848337806706	33.8404139322891382	14.6041332768245606
0.0716380959375905	32.7818673644374741	14.7230663905735248
37.9302231685837512	30.6545043466205342	15.9664166978659718
37.6925657133634715	34.0761706212696396	14.8548331649568812
38.0445934054128401	30.4971261333324222	13.5022832662376526
39.3592063917830188	32.1563746366994039	16.5077656757889635
41.7724487636192237	30.5479232428754734	14.3358183106900352
38.2772296323514070	34.8473440470595861	17.4988944363710246
39.7034776103734899	34.1869334478642202	12.3858520319029584
36.9708425071344919	36.5224933089826393	17.8532333450366956
40.4902226898466466	30.6863815923052101	16.0485281507739934
37.2994954869654833	35.0133911393154165	11.3623540621527486
42.4711892637286113	32.2573261077241611	12.9270731705666702
42.5384769832427025	33.6387024326783219	16.5217793199600287
38.4671409875923658	1.2836519953303791	12.9520988491209863
41.9863777994381451	0.3025165822922325	14.0652979032330538
40.4237719679294898	1.3699963478833252	12.8980519935562832
37.3244344241367330	3.4480780157732394	14.0516254382379628
37.0422114060753600	3.3623109707245873	16.6027391667755992
40.8452905472701246	4.6937561658371427	15.6384078378807239
34.8351727066074943	34.7571048306283359	14.9463038753553548
33.5261555283019703	34.8740092666083683	18.4042912771519767
31.1112033779647419	36.9270900879828687	14.2880152282574464
31.0480044456296618	37.2996062637103520	16.6795573664373080
4.0812418395475323	38.7476396577549238	14.9943657144531901
4.6482861513821430	42.3638730040485498	16.7919372449019662
3.7731489595388514	41.0130758684191079	17.9702627171242852
3.8887518234842768	41.5544378452182670	13.1488567981120532
0.7002250632748135	40.2220325043887499	12.8588863136903395
2.3621855483618566	39.9126729350103986	13.6515403310670074
5.4380185271204411	42.3239719342557947	12.5489992998055975
1.8828625666004877	36.6463348333086785	16.3511681903685471
2.0777412689367805	39.9151599031977113	17.3047808069174458
1.3591678403134604	36.7918125140449277	12.2633952320236101
3.2118542020588468	37.8504093277365428	12.7752598068637955
7.1091626757489754	0.3690657808614916	13.2063961944882298
2.2242898286658277	42.0100378676929793	13.9210826785073891
5.7254004745491427	40.9178823186931524	17.4777817909492796
3.7510841893558613	40.5731524375881420	16.1017475865467148
1.7812616288659666	38.2241479966949811	18.6184355392881677
25.1831130339830480	1.7096758422140457	17.4327391109593961
4.5638421207966022	39.1752203926936318	17.1102067770023787
0.6924972795723087	42.5031141928863789	12.0148983610586324
1.9521324191011709	38.1252115299373386	14.5374899479193793
3.6360642565743890	37.0224084575046746	14.7718255391000763
33.3574009019237963	2.8316410209106744	12.8178957036563208
34.8103055432922375	4.2358007380735758	16.7765269501154890
33.2948473941829448	5.0072476405413715	15.8210003202396070
31.5698978889351167	5.3984300867967558	17.1464401587518722
33.2101393365917872	4.6365637881274573	13.2187197579648181
32.5250555527669292	2.2412268056922966	14.8937255623820413
35.2870272120068549	3.7601821837070579	12.7652096385199627
30.9712094357176468	4.9551442518931736	14.0566810589813631
31.8772919906921111	3.6630624607126858	16.6945447487345255
35.8807432961242796	1.6054811382067247	16.3097606524023711
33.9132260070848446	41.1075846851198605	13.6105814714804438
12.8544352626576472	2.7461197145999465	16.9640788135817075
17.1443833637783420	1.3428399896565859	18.3122363807347561
18.1063588000534317	4.5411381991480457	13.1285502999935471
32.7739674552881226	38.6349446378212633	13.4968448496714117
32.6478845116845662	38.5699156463628299	11.5829088224509729
32.8705330009527756	39.5025979191919916	17.0895523107598315
37.0792348800060338	41.5730747562315628	16.7381348602793985
31.9528454298991846	41.2190937178926760	12.7165628128071759
34.6493448468412950	38.4552834609421694	16.7759880546640829
35.9119560299114227	39.8357057695069869	16.6410128518382905
31.3829517390864545	40.6085833126136393	15.7479192247660986
32.3597083706872226	42.0186080778129778	14.5936622199742754
35.6570604792179537	37.9321632561644435	13.5837371110310201
37.3439816617857403	40.4048506723514791	18.2378875160169294
33.9995745776211962	39.5139756006537652	15.1990561027172610
17.9923533526660329	2.4281296021243040	14.5353327883308872
36.8737889329177335	36.2344130903553747	14.4904329260537850
31.3445181674520938	42.1991328322938841	11.3072236617626949
35.5752158975392874	40.2868703480163006	14.6797753911212805
32.6451193436584930	38.3036404793214160	15.6114294815707364
23.2330555599451962	3.8624160147547126	14.9852751954421635
24.1259731607435945	6.1148581692984738	14.7812790630794542
21.5228801877857023	3.8261152358997630	16.1444218786127962
23.3508706000989577	3.9591196152706356	16.9676804169272799
22.9861965147250515	4.7617826595121393	11.5899824789333366
21.7319281682783583	4.6696256172872097	13.9151685638012044
19.7537512697989364	5.7398338724127056	17.3261891316722512
21.5420192651057114	2.8118464408992803	14.1858982449866691
25.1868002003918292	6.2016501440343941	13.3082277822505723
21.8807401752391080	1.5590307992946533	12.6520228851284475
19.9335276671458388	3.2381686805057166	15.0481481639618142
41.4189495604461584	39.0771533031691476	15.2967497283160601
12.9455053077754840	5.2674910918312250	13.5717941521935082
17.8173008841858724	6.6752131477106040	13.7897471240894642
17.6533654863885019	2.7581672120761862	16.7086179471539644
13.7396499242017232	6.1286128552795001	17.7482212714859031
42.6454738340084916	35.2431867155251410	13.8780930135314975
38.6176084066942380	39.1619277904641052	15.8423988875269384
38.6632874995161515	37.7241411840532876	17.3617998472217288
41.1400311160661829	35.7105383050477485	12.3661145567235859
40.1871411135418839	39.1978389210589881	17.0821512252821783
0.3538726291679573	38.2067251799218539	13.1275352340405824
42.1805754307002090	41.4013280505071606	12.5884953528549417
37.0284338375956139	39.6362456770586959	13.0315349566344665
41.1676710627989806	41.0113812675497371	17.4403460920990909
39.2999348597019491	39.4929722172565079	14.1014381596603684
42.0667956344540386	40.7049048154113464	15.8670245878984364
20.0192948594534386	1.7048705689836821	14.1147655540946761
38.3765083920489474	37.7633238311728547	14.2613109286910476
40.6168072049486426	39.8860163779194181	12.4227687756698177
42.1320848573202298	39.7887623331368658	13.7644952718690128
42.7644822316443936	39.4482997771351123	17.4771337335828818
39.2499584922838238	38.5897854350394951	12.4822192138269941
41.3739583731770395	42.5260066491867477	15.5727313356386041
39.8843017539609050	37.7203055631002471	15.9204627715248250
37.1126375248285996	41.5010157142081155	13.6021651876586791
40.1568983293457151	42.5755652387890464	17.0596599560534123
41.0255345747273168	41.1751977600830301	14.1694030081193105
40.3736973443468443	38.8024343839885972	10.5412022660292823
39.1563740857809037	41.2840119266591827	15.0013903431062570
16.4761534136010646	5.2530577151959896	13.4680370447538067
12.6785651394109511	0.6550404368030149	13.2553725204628137
21.5276975780469755	38.6264152599281303	19.0835756307731685
19.6620536677261697	41.6592982384227710	12.1928349796607769
20.4534375731618390	37.8976172493556192	11.6207592028645426
23.8932037723318942	38.9871619472223045	19.0250329543471217
21.1034655978759496	37.6323658218035817	16.1518321062611463
25.0137639480749030	38.7891858209005846	13.7890045939013426
22.9401673085386513	39.7485070637590923	13.9418720140209977
24.4532973816249992	37.2585195814281960	11.9632920595063688
22.4777882812594214	37.7613154309130508	12.7630696272230750
24.2831901346494554	39.2554818247661288	15.6611365206763118
20.5211650389595910	40.8798813546516939	16.7008408541330304
24.4997941736863147	40.4566561143006709	12.9232414017898520
23.0164745069180512	37.9279774433256875	15.1755955627158325
18.4604559229947505	41.1746489223711052	15.5370108376972595
21.2453187126392216	39.1362788287803411	15.1357384201367235
22.8885443983061627	38.5898455202709911	17.2399857271079568
18.5388081540289384	37.8167019998848346	16.9101706196480563
23.4761820363372848	36.2312658136579486	19.8708055374206261
20.2320230853775058	42.5394537585575634	14.9680506928588528
21.3381955481658778	42.5095860801498233	16.4692875084253991
19.4794873127951114	38.0517409518016549	15.0378338908692228
17.6209612205505302	38.9396180445789142	15.5736645894363761
21.4816350329937187	41.1490517241573457	14.6852097790757341
23.3040752968475715	40.9293090175864620	18.6798412757004471
23.9422923269334085	37.0672848822043548	18.2092143997727511
21.1520262273922306	41.7527918676869589	18.1849526046292702
24.3746376776487210	42.5388265738628633	17.3718494440816720
22.2106424013005537	36.1556317470866162	15.9633864742284644
21.0904764854980193	42.7840792179206844	13.0786618619242638
26.7235695671412223	6.1775898411630976	14.6550129329931274
28.4370118542565145	7.4120293627057512	14.8954419382358818
25.3957771840393285	42.1412769113842103	13.9612733553552459
23.4375034048948017	2.5253482395236575	13.7232261897164900
21.1063655382606292	0.5705199327423389	18.1051917544946370
21.2028697380759645	2.6689833788657156	17.5353891690820625
26.9023369772175585	38.1746121873914959	16.8984770542986880
29.4939121301438973	35.9488243563797525	16.6488168891830952
26.3609806059964313	39.9438303511095185	17.1059252075891948
26.3105471633708383	41.3453411650672749	12.6295820194707673
26.9630579930603638	38.3336680961504968	12.8657764258281730
29.6437655892355068	40.2403135786258659	16.6227635238576887
29.1818443840089650	0.6496589513911929	15.2901841817906110
27.6161243268992109	40.2992424866727106	15.8267926529159109
27.7376268053145978	41.8351471866373572	14.0664278485772023
29.8189790516633515	42.2504607981456175	17.0122846516193249
30.6446905588625960	38.1277027772018542	12.9940185288325321
30.3150545811586092	42.2496390380148625	15.0251716028752451
34.9836970544542893	36.2024498675309943	18.2049972167443102
26.3630253883404286	41.6417068706321061	15.4840803604325874
30.6989628429060240	38.7783262733113929	15.2357751152505738
29.3083676061933431	0.0186452089785831	13.2035549985310254
28.2669323998941664	39.1617844239892250	17.6862363417481525
28.2121531580857194	42.0976504334498642	16.1723684083669248
23.1628763645772402	5.8956954155380181	13.1034286929110948
24.2383790884158614	4.3566309470805402	13.2885837816444887
20.7697031654714444	1.4927214931226984	16.1437739988585385
22.4524810073916008	5.5593592504624665	15.6446373368590681
20.6098038459768738	6.7512853268190387	18.5624921735537427
22.7140000857777338	2.3321144243345620	15.8398092681257587
19.3450821656301493	42.3484051743511785	16.6767422177450193
22.7466613089196166	42.7072482548243784	18.4248135876537624
20.9214743268674361	39.2143692615156567	17.4661630334417559
2.8246282214185956	30.7767491448667094	15.1917491022440707
10.8850363094009399	31.3206553196866722	13.5201767850647681
9.1425832201214892	33.2437054651396693	16.0753999609699072
9.9973506246266020	36.5413244503886219	17.1891358508826606
11.9059787886177357	33.4468287873121639	18.6292178562081823
8.0993659300119045	37.8569350336845787	16.8103781640131693
7.5525792002644421	32.1935885290320485	15.9378666149717905
5.5725242148697838	34.0365657331716704	13.5899585540508365
0.7258548213534374	31.9618123735410933	16.4999312413789276
2.2014981361737584	32.4206425113193006	14.6185498824210747
42.9147655860277766	32.9040469055757185	11.0237705370370271
2.0270845137887519	30.5986697618461712	13.3982807836171940
2.1405550923787509	31.5568514287422524	17.9147131643777406
5.4467378311052403	36.9038302033804442	15.2389605360801301
0.9943320948640936	33.3529594664273716	18.0229470361876416
5.4222590377096624	31.9834024299463096	13.0455218315496673
6.4295088144345449	35.6762872839804146	13.9014246604615419
5.0541706510373574	35.3735257777235645	12.2014589221165473
6.0490156516175899	34.5631610138731915	17.6997618564066919
42.0266156780881417	34.0275379257215818	12.6344671910477810
5.1806284654988657	30.4600599650999051	14.0923502447402900
0.2443947733179858	30.6180234295992513	18.3309792159773686
3.5211713579542612	31.6807396402607253	13.5041977333196002
4.1044203405234629	32.9334403692144946	14.7225811681375891
3.1390369412820540	31.7763033284965353	11.6653248247257277
1.4978103886460403	36.0848234628859430	18.1367833519527473
4.6490845560219318	36.1373042880115563	19.7557541807683315
1.2859488121377216	34.2916772953425806	14.2783609147136534
6.6685942810621643	34.8580544527457832	11.0326565115545527
5.8306256479616794	33.1634997096579340	16.4878496980813267
5.8834316828615538	34.8811913400223119	15.4715283393081418
1.0562974054560954	34.7509925600045548	12.5187109896737478
10.5278566837733862	9.7955911439044545	13.2808846944642127
12.5446898803246611	34.5731160631067596	14.4122056805678334
12.6080764667091199	32.2785022131140167	14.3598694659960309
16.9389277696662361	33.0363177520592828	18.4098728462386489
14.1560277137728026	32.8665187663642016	17.2616686333114586
13.3393938337321938	36.6651717792537895	18.4065663464476970
11.4077721863602690	36.5440179022970355	15.0215019058558745
13.4987910242276890	34.7619563882984579	17.4443318992921128
12.7055238332310285	31.7647274630955927	12.4509215106320088
18.9269345417702652	31.3554426178451813	18.7021157549595571
18.7140651840554675	34.3798560183230322	14.5843148666715869
18.3389287917770041	31.6442037986415876	14.1088778909198869
15.1629858814990293	33.7883029586768586	13.1217013573840795
9.8615179878376384	9.1285376336937869	15.4785493836710497
7.8124283044021912	9.3871307047642798	16.6690767814135405
8.4777721956719443	8.5454149487609428	18.3127572044918416
5.1577897006252709	37.4394313496181326	18.2806007305970546
7.9690751226628205	11.8026118942609326	12.5304852420496982
10.9671226013933971	6.5953690205762738	12.3865833399423746
11.2136415074551010	11.9123525032071438	15.9514926862208437
7.0445458669204140	9.2864275937505489	14.8444673941126837
9.9023547943467687	12.3734143125458225	17.4960309610703746
7.8571888280660485	35.2767295760384769	17.8723302716173400
7.3025128273849962	33.6537874019857455	14.6654328460481818
7.6247098304513159	32.8800485287067232	17.7086839122905921
7.9838491693485691	35.4943882362830152	12.4795125390832649
7.5181568401727130	34.3213942389734612	16.3585213626588484
9.1778790677726079	31.6103774372308948	16.9728932178036089
11.0825953891904767	32.1346142187426338	15.8968226393845011
11.6504905047171405	35.9077663014592616	17.5152706108972041
7.2999780583484117	36.2791311364631213	15.8486976217118851
38.6681474231644700	27.1054306553863249	14.8579927040814734
41.6493816485720103	29.1400950149155697	16.0199061559199230
38.5332919856601350	24.8903768029967942	14.7842903309578730
37.7127859337003954	25.8780495656906773	16.5166996053015360
41.2531182112858943	26.3030116759300725	18.4092889806235647
39.6797529546132921	28.9125891114317959	15.7559729774664312
39.1633023746815780	24.1984059505101960	16.5053002237811519
41.8961751400149680	27.4841434926239643	15.0443411093396158
39.4270046012139659	30.5251185427567364	17.5668892183956018
39.6551934158486148	25.8451673668443611	15.8673601593992046
40.0461817522994679	24.3251982124967689	12.3589258028310294
41.3645134716916303	25.4670761549243920	16.3659556385420757
40.7201986174780117	27.3736337640487797	16.6894096565494436
38.0528220782627713	29.0477614407668412	14.6832090356379990
38.9122863594115103	28.6170615074419601	17.9700522880979214
42.6958897038177128	25.8401349554232880	14.0383993877510793
0.1471899640265865	25.4872252085199165	17.7833193754522085
36.2841976200049814	29.1779650634541028	16.0064600739621206
40.0863098061040191	25.5056501833981280	13.9686822258854360
15.8595146582393642	6.4519491760971608	17.9920111170467294
16.2116408869552231	9.1090401632471227	15.5996643545798754
11.7800257690097840	8.0621305458601853	15.5293870724879319
15.7049682924190588	10.3975268149006013	16.9994318034109639
12.8454235157184673	10.4368871513918684	12.8684965107986446
17.2722225409506898	8.0700400590798296	12.2701149897166157
15.2506450436052301	7.5923767576963757	14.9931546140440020
16.5712942780940899	9.8591381003959260	18.7310459386465062
35.2187920633554583	29.3356925164167244	17.7091709560386583
33.2545806523042344	28.8884918028083568	18.0234350260682668
31.8060948332803939	27.3940321667517956	13.8240374206666807
35.4582598437433845	24.8258087670758307	12.9252660454460617
37.5529583438605883	25.0656420223300920	18.3818833633898429
15.9473114629344206	8.4701942564067014	17.6368863396992595
0.7806940999094402	30.7750346816204043	14.8355588562910796
3.9173486231226664	36.3763546003105773	16.7380295801479058
2.3207092514274765	30.0838155830506828	18.9766621708183258
4.2662939593023612	31.5949205979195611	15.9591773230250240
5.4374178477487165	32.5658713707654357	18.1725375680274155
5.8345762304086337	32.3259665237435456	14.8181649054879685
13.2863085200731614	7.2414550685142265	14.4003258860950254
12.0588728642192571	12.1917195740383413	17.7992193138608528
11.7727122851640136	11.5856089300007170	13.8231682428223124
15.4742440370975984	8.9477937728850367	13.5279040817188374
17.2472759586603672	10.6271721768761065	15.2121652132565686
13.8103781520261677	7.3112234696228375	16.1228855906507142
17.7350229147515890	11.8661656238582243	13.5583637927805398
18.1425296908064091	9.5025480520609378	10.9934526352168547
18.6325862420498005	10.6327748990541693	18.4564415639920121
17.1986904265301739	34.1710984777343114	16.3082252269008592
14.3902097200294996	11.9618151287516561	17.7508741826682055
14.3673965500134262	9.5131304845348978	17.9280234923464477
12.1052111090552881	6.1758019058435787	16.1585330553831525
11.3736743304730261	10.0582053426391944	15.0227773536359486
17.6709077886101298	8.8633831906096940	17.2361956294012018
17.0237356122326098	6.3809018159745738	16.5596875981994955
14.3226055735039282	11.0286598380811238	15.9995395912413070
15.7236559596913903	11.2013062252099473	13.1166521422602695
15.0896054083741671	7.8434127499887296	11.6530862221882074
17.2855700004158805	8.4341277707031903	14.2906618754926225
14.1183224522595108	9.1995487759098928	15.8709133455261835
13.9986026641293417	6.7054358273021419	12.5305602911547211
37.8581819007890061	27.9627387922838331	16.2432577651597860
42.6195468740618892	27.1821295773768838	16.8747446070890561
30.6236053044697023	32.6727313548648297	12.7908051191678407
38.0236576610107164	0.3560549987742214	16.8638237839827880
42.2533008346260246	4.7537432659298782	16.8696344453314175
41.3072829453397929	3.2818401406621533	14.1902781558512139
37.9589953480646400	1.9942882530502632	15.5666603029642125
25.9974847755189842	33.8551264613874707	13.5846530720141647
28.8237974772196495	37.0904042647631869	12.4988071367852669
26.1163598904509300	33.5911273662246259	17.3969600206951291
25.3929806076499958	35.6489622584239072	12.7641746443364941
26.0597918495784988	37.3791848166517582	14.4379638870212670
26.9234737411992704	34.8450135157717185	11.7263303860278523
29.8251122965499817	31.3573202526091990	11.3872460686273378
29.9655514633518436	33.5258832380660223	14.4595425836209230
29.2155643611399043	32.0830954616424862	15.3669424518968345
24.3753416874688540	33.9733176171235485	14.9635917820098694
26.4334018200452654	34.2680788556477651	15.5157036667793573
39.5045507715296722	1.7206322742173152	17.0917331252589157
29.8138526404351865	30.3390174430777044	19.4232478495985674
27.7064723152027135	33.0718589877111171	14.3051489478060940
27.9232835730576596	32.5406247923681065	17.0655399173398195
28.3736198008143852	30.8649720275096797	16.4411150507971477
27.6738257172492652	36.4569597207923266	15.5195559917607113
29.8032253168998693	32.1696355980485436	17.4136125260990795
27.4391758613717762	30.6782987870343433	11.7374865224461065
27.5396581099685100	30.7352445118937183	14.6730344359555005
25.9163999755748442	31.3559319351901493	15.0320696264945912
28.6057318088333723	34.5502777689188818	15.4257301829354159
28.4517172705674639	31.4921110516821798	18.6194050408239100
28.7738451854524371	35.1339444048983793	12.0057245614699664
27.3725651991855408	36.2941782083363336	13.3018545371101098
26.4497269773715438	31.8297650514465715	13.1382269404183134
27.5274588654367811	33.0627268751818661	12.2144720975860359
31.3845941757854092	35.4525022733758348	15.8669631686984243
32.3450573185717474	34.0169497359764605	17.2928319819829213
30.5288944265093782	33.7899162752754378	16.3624271097184391
32.5624152533594753	33.4585736476165252	12.9086585796503748
36.8853366734827048	32.3426181968919764	16.2005377093071736
36.4174473329287807	34.1401669069755442	16.3242246466972070
34.3649215428643515	34.5872831990553919	16.7558382886636075
33.6767566611803062	32.9815828270174976	18.2130845550263949
36.3516788069200842	34.8433406133772721	18.1730767287526440
35.6691821560881124	33.4098739216475664	13.2969911096270419
32.0906350311415451	35.1907211661482648	13.9619512879270822
33.9916327714770148	37.2902729611232289	12.4276214384964483
34.1108853243663006	36.3600507644448854	16.5469806648592090
37.7394972410505787	32.7253967577439653	13.1137002766468456
31.7944469904332365	32.2032971295396067	16.9196728077468030
34.1676033240970867	34.4610643627641835	12.8816147780480588
24.9686404897007570	31.8722552823255398	18.3559543586784955
31.5969371188600228	35.9333496749936998	17.8099734383874306
35.0020490595566258	32.9126921038804170	15.8915229456404301
33.9630054325245894	32.3578688788347293	13.9612786280489001
39.3651799745396005	0.4463137715143381	15.6020264862870359
41.1774181277617757	2.9849585749421137	16.6154377838942153
40.2850378960642814	4.4781300047099437	12.7434451617952966
41.1970816718914747	1.2206584984155320	16.1986257654937447
39.3826256215347286	3.0890176762030515	15.1831590543834221
42.8739268749505626	1.8411897826843933	13.2018704788778649
36.8859380719336514	2.5571596488312442	12.2814056916070484
41.8139954358160182	0.3777895899415360	11.9963992461387505
37.6883052505769172	42.8307879688974822	15.0778032978159011
39.4987184941795277	42.6781000951368910	13.8301667035117486
0.0111355581803849	5.7535577634152988	12.1478397134174525
1.1390621834695593	7.3851969562319040	15.9820744657216540
23.2454921102445304	33.0671926513527978	11.8622480267444210
23.0074981056316687	34.5418813714645836	16.3160674603922224
5.0986557271546848	9.1416221191037472	14.4435203655357256
3.7683548420766906	9.1210681239595726	10.5528218848734028
5.9659304883923765	7.4658558737511216	13.9920398569590354
2.9613070619908290	7.5526605118423067	17.0873253983086997
1.3777039107000550	9.5457747802973572	14.9917380108274880
3.2499036742927543	8.5074089920716354	14.1532326890584450
6.8218320590919141	11.5510023186427571	17.4626500429448832
3.1857063790484141	7.7779467802829281	12.0583159635087362
0.6068106133743157	11.4703568850789992	14.6141026538276240
5.7362141431574249	12.5543266248745091	15.8114613181954944
3.4502752764047639	9.2602104086835961	15.8563570785460684
5.3715376199053386	8.6459388972249496	12.5046110612828656
0.7464209904283166	6.6524698680346512	14.0870992551200018
23.2879218638742209	31.0753858018822271	17.9399602261362112
3.8421926177034926	9.6175177686078026	12.5870328456242024
2.6901084626919953	10.7786546507107754	14.9229302037480362
6.1342641527610224	11.5233977557048402	12.4843494378346112
3.3124981857828493	10.7333985545040829	17.2452745992546568
42.8410283743787303	9.6304072491529222	18.4304823710021530
16.0614420823403137	32.7892231306392929	16.7860037199113883
14.0945994037420412	36.3635706181549168	12.5643264345043431
15.3259330880457085	34.0627161788538260	18.4413312446054505
14.6392985437957002	31.5779491530960108	15.8392316990186508
16.8245039460014532	34.1777536757325748	13.9606228576683531
17.5702914335101390	32.7236310871785818	15.3772192203859603
15.4889311870161404	32.9778386237649173	15.0148429343292484
16.5517770396399193	32.1875243582226176	13.5640401555679730
13.1939415916189766	33.1829626526486337	15.7811960960467612
21.4777742832224092	30.6231127123803830	15.8325607783220992
30.5610758840472130	35.9032814261107305	12.5357913847215556
24.7956913890272617	34.9834148482018463	16.7467789317804936
4.6886334573499040	6.9178148194423645	17.5577987623737073
4.3625739046153003	8.9053961383841482	17.7301708794234294
42.3958433000059500	11.0675782850967970	12.7516531716631292
1.6394878092693408	10.5017201104808358	18.5589165323926117
6.5111441610309519	9.0869806494512488	18.5700372033046293
6.9089180847602574	7.4526875714797738	11.9263338342035752
4.3165121301512102	7.4194279134876497	15.3602795652343804
1.0094181845961594	8.2401737429586710	17.8686617189232422
22.2526237465203920	31.3043722861415645	13.3218391751779475
20.2261916964326574	30.4707827177428392	17.3251489915471666
21.1225953680674401	33.6889966339099587	16.3729145189602896
23.9840397856179095	37.0260957821444237	13.8143198085931758
20.9118425702042607	34.9725107550490009	13.7047722085530204
30.0965363402208510	29.5628828445168352	21.1778451556623040
19.6116802493838733	34.1935262813161671	17.6741885556865270
22.6990086133654785	33.2474437853616820	13.7963621029740793
20.9206458364630059	35.4423015794986327	17.0304445833654192
24.0248485774370444	30.5031482467111736	14.1967230184751756
24.0089793013888197	34.2705471146440104	13.0344569503346683
21.4502773319525453	33.5224641400689478	18.4885713243192775
20.8500919575147812	33.1695347351835750	13.7883988678163760
24.2866049875382934	31.7572361765908902	12.6212848138570379
19.7916423110792614	32.1564968676072382	15.2079182471481911
21.6375074936075151	37.0159484227947289	14.3225505380382945
18.0654442069116321	32.2582953296354376	12.0289441345832699
22.6150903343091159	35.0557468575901225	14.3824905861375978
19.1067882614184938	35.9496793335998959	17.9070977209006514
24.1916231907264816	33.0072252313570260	16.9952826688782785
39.5911772521037193	25.1168876567782604	26.4125079558915914
36.8857327268148936	10.5932895611658449	8.0851055435558159
34.2325313630398043	7.5122823153770009	11.2326941898608652
34.5163509266617581	7.4895846879779109	7.4223125484293337
34.1676242739310538	11.6844677276561004	9.9070524916728040
38.5148885464746300	21.1850740718067243	26.2097545945363315
42.4044958279710258	23.2537842127858241	29.2755720864624855
36.8312416313851969	21.6093609146146974	25.0267691196181623
42.3643585680134720	21.9681367010340196	25.9180858928361033
36.8421703798483335	22.5495458824352824	26.7985004895824197
41.9210368800890123	21.3020204078806827	28.7996280464870438
39.3787227299743918	20.1505609496423972	27.7800780229832007
42.2570400147721799	20.2160343187086617	25.4032804673230217
39.9036610389334996	19.3936111041426678	29.3831461370535543
38.0177679375550852	20.2468967850993380	29.6612865143110440
36.4534862202422687	22.1124046468209698	30.0286039629531238
33.6466039517443889	12.1171505572852265	11.7046455967573504
41.2215501498507919	24.8074445631372811	25.5884434400460847
40.9807603072593665	18.7991630103972938	28.0164841078063276
0.2676255917667740	17.7769118201933836	26.7513666443910836
40.5348488024364855	21.2897182264013942	26.2333796780729500
40.3380542551756989	23.2267289147542613	25.0631321474355602
38.2675994123357341	23.2635655149246965	29.9052683710950760
31.7707766795572297	11.5394606579542156	10.8288925513859215
34.7319738077687035	8.2331983870789873	5.4535641480885708
32.9490984063621610	6.6452539529305303	12.3057391838105978
33.1575902214475065	10.3400543381723811	10.9131447519640812
32.1503585398977236	7.5965262103322599	6.9471372154302644
33.0130386325658378	11.8168593178439245	7.8788755597028297
31.6719785604631454	24.5499779388350703	29.7580470209850247
34.7142183600001317	18.7457644183475516	30.8557853157010591
33.0693670208620034	19.6481562075238401	27.1791236646188352
5.1862292042254916	30.3715661903417917	29.8397661853720848
0.9244724048695331	26.4457646543698317	25.9417332639029610
3.8136017876063999	26.0051042647318482	27.6118621011300931
1.7439607289794112	28.1787182983701712	25.9734044082093583
41.7677669571076322	29.1452784933181341	29.2124673815910114
1.9211931650243261	26.5010981435021158	27.7429963385867673
42.9710955633433329	28.2484167139947751	27.4364744055088359
2.8795648499759188	26.3114704984475587	25.4356599167877775
4.3459672674145002	29.3285436361385266	28.3299211312273869
3.9162249448789073	27.7637202922125859	31.3753044213509007
5.5648860049385291	28.0461994564592914	26.1668914220083160
2.1967971100665413	26.1333536643251456	30.2408007634680409
6.2857538070212025	23.9810811404485804	26.1782324576606094
0.6772317241443071	28.8051583708208980	29.0596475657500548
3.3539540834061095	31.5449383159883538	30.1274485357829214
3.6158113944076220	27.5854720076690185	26.5949227586813066
32.7765246819855989	18.8409132619823438	28.8746052533065338
2.2410091836431585	24.8562115050459660	27.0276636308917908
4.8716688329312881	27.5940316087028528	28.1049683810003899
4.8705710386719216	26.7971383832250858	24.8123971277843758
2.7314946515030099	28.4748023353756494	28.0159538651812667
37.1846584154183759	9.1880493424099114	6.9698073849973357
31.2136477364389151	8.8066570708479723	8.0252172587028880
32.6769810853514500	8.4654638809208080	12.2263552455969826
33.3222394194726164	6.1148003740830399	10.1299201123612868
33.4227144608785238	8.8963939500128379	7.0245290920127861
35.0754043283176458	10.7522606440592767	11.7087882387690758
30.5574938780894954	6.7220138284391053	7.0231248544969018
35.0513497613311458	7.2726327816592340	9.6085186054096194
35.1557624561120718	9.6019025746974780	6.8859603642218019
32.1705401739229586	10.5437136221661731	12.5609060454107553
29.5638871096509419	24.6937491110514138	24.7183341314889056
37.2920821338843638	11.6233473217446814	9.9415197780925340
37.1904246491803931	7.0884682208996734	6.8070825796931409
0.4025266936034043	8.6419514319739701	9.6758199914487193
42.1632742815978219	10.2510595021713460	9.1350518965775258
39.9291467441141918	6.8661399251596693	8.8480088547498461
41.6520861734629761	7.0942767215570219	7.5450382732800616
39.1105601094409039	6.3277781568760778	6.2561102049740258
41.0533627841924584	10.8849231772095223	7.6457346974831744
30.6046182375608034	18.1606814665609626	23.5057424247038362
28.9974690515365907	23.5062456249225313	26.5975585717332521
28.9972704883263468	21.3417643764358225	25.3909755040052794
28.5911222061056840	21.9086213801406409	29.9649274225110105
27.5980207571093388	22.6050581227001253	28.3647937418071479
29.5544776091756809	18.6096519900956174	28.9642100584471649
27.7902081626196740	21.3238657120004049	26.7280314068295404
40.0002111521064165	8.1501819801166757	6.9695626508171298
30.0532168460421971	18.2203759684312665	27.0849600776795185
28.5379124268921771	17.4880329291060264	25.0821371914842999
29.7769017223301162	24.6795206893227110	30.3781974287722996
24.7025820186123255	22.7108974199366962	25.5148538546583943
26.0202378498231681	17.9716679541307620	28.6657555174741532
30.3466792596125892	17.8457068309812357	25.3379675870239467
23.4708309305984031	18.9139981130782218	23.6489744017846526
26.8188716261812310	21.0898653255004476	24.8162224765470469
24.8141253579081003	20.9637685762205983	24.8949865404297590
27.7358773850627216	24.0341960179561482	25.3175400710146903
24.6977175208563615	19.9879743138777783	28.4790736838351002
29.6386692058372958	23.5280210794714471	28.3589953719214769
27.3963111006370958	24.2675205285547158	27.5687196676266026
24.8722591676874849	18.6682491059970381	27.1516099945475595
29.1797681671058946	21.8059547928632433	27.7678965451656694
35.8736218904320054	19.5728618293788657	25.0130283249742433
30.9463558841062572	24.3401715157685565	26.5312827719753983
34.1979433070796333	20.0949853184696643	28.6482102050596303
31.8582372244626875	20.5651753057122519	28.1539291528097344
35.7862794048996307	20.7079114318912545	28.1188157626558386
30.8285254711010630	22.6097333746731017	27.2452350242481174
34.9790738098784999	18.4648200235022273	28.6934986058802615
32.6856445738238435	24.7875823815115908	27.9700063798053833
34.3796145171670560	20.9319442832359996	26.3299051027779534
34.1039672196470107	19.3178677522283877	25.3501073053504058
36.2700980205600700	23.6779337851321898	29.1021640233511754
31.1650820638147117	22.3182695746400768	29.1479319685549498
32.9156837250853584	21.2869871195948086	29.6637262619624060
36.8256180711658700	18.0778996839148753	32.1907616734149613
32.9458996537047639	23.2634515120260303	29.2341889343835497
30.6566107900213574	19.8150999040865514	24.7296667762659226
3.6038415337051779	25.6929319250274304	23.4968158246561174
33.8746743997936264	23.3091315140754567	27.0388329718184011
32.4879738363921149	19.4591619213071034	31.3525946854318924
33.5806050346571467	21.5931890854967996	27.8269467562081729
32.6730671685973633	20.4829905921056188	25.0924345460843554
34.8499894020517118	21.9562745930970777	29.2517536763146282
36.0089141570920859	19.5557601518373403	29.7497336184088290
34.3009287267826579	24.8112146123550836	25.7324152827307842
31.1720639592705950	18.5715722791125017	30.1214108019546138
31.2081638449139867	22.6864063670358895	25.0951387615424117
34.6204674245058541	20.7036130711229340	30.6326615668124695
32.9614258619725788	17.7126196256690207	30.6633915838303253
32.3496516777997627	21.8359061935993957	26.3706031960225680
35.5487153305655070	24.3061429362693318	27.5012632931389440
38.7649374243279468	9.1293864240233127	12.5293022633656577
17.1416128465134427	28.4595296298584302	24.7779379639994239
18.6498500511750755	31.7721396982199842	25.8717855419964593
19.6502292952473425	28.9638391100289105	26.9905449635281514
18.9275461449783826	29.8971227863742115	30.5000171329126175
17.4280138455963360	24.5984367261297905	29.2988153855017792
19.6923995357869579	26.9465042896914468	26.3425097287501160
18.9558026975814577	30.8940443979956783	27.7146166971176093
18.7153564707217548	26.1984016279844525	29.1014644078047198
18.7994545411673286	24.6962064123712395	27.8844640726512694
20.4231427304513034	27.1944996121742122	30.0684111013503284
15.9777153704759929	29.2561291310726652	26.3510857062960717
14.0433728409054748	29.6885336081451356	27.0001748373882116
13.8627722933764339	25.4937246022655408	29.6190686756337449
15.4338923970174040	25.2099302388070754	26.7481978514878129
14.6727994700606619	25.9499533465594503	24.9060622220303287
18.0034774614711637	25.6490272945951148	26.0777561132491478
20.3457606042584693	29.8932001173432162	28.7633012919238098
17.3358251392978922	30.7945244027814908	29.2279378247144841
14.9316354074068300	28.0226195991296336	29.6267529220853589
17.1192269964670345	25.7585767817115148	27.7477248979045434
15.6198834831314439	29.8324415054010075	29.9648614600880769
17.0892657122212661	28.6646184153518142	29.7540091516977832
12.6509709771663221	25.6643037512733656	26.7560406791059293
16.5459511135690249	26.8669805445577978	26.0471176273537424
14.1122189556846855	26.6478064681224929	27.6887948037818248
13.3463131767272216	28.6811009980769178	30.6839345951583198
16.5264937043394156	29.2171690798610832	28.1197916253536064
16.1775995599510338	30.1780055310704682	24.3882590814333611
17.6409800903496645	27.8539550968065193	27.5068823500031243
15.3173156401762363	30.9350698355291236	27.8622162990099511
28.4960020635185209	11.8452409046818108	9.2494690735723832
31.1804416466406877	11.0471386902217112	7.1814689036255022
23.9509910456294612	25.5010049173542370	26.2496426931055105
20.8595525763897420	7.2880818824119444	10.3109452385951954
22.2116057480899904	9.0463457870242099	11.0059243832995239
23.0602060285364487	9.0865726628188543	5.2075442951020285
20.1420147288337503	9.9653674926550941	8.3655538053451934
20.9510676928925115	7.8020847274469771	12.0967523093628344
19.1249372888273399	7.8442410266760296	10.5479869537494402
17.8911790238268722	8.0615933456663331	8.2131957026502427
18.9905565768424829	7.7563051456582235	6.4393035345878644
19.8922136889146834	7.9802549336989888	8.5140549299846331
21.7065816785756951	10.7235125270548668	9.8046913870586536
20.9557206744338202	11.0963640487606998	11.5256516858682794
21.7707387587991263	12.4866716296196643	10.2819053800851794
23.8476423248150127	11.5725950727566378	9.7891030073816800
21.8409649827695489	8.6199952296223330	9.2544240939662537
23.7913489925751520	10.9454091920795964	6.2872474421144720
30.2659421673541118	9.8649477759909736	12.0588138159468414
23.4318553655053741	31.0282459632968930	27.4195546964430612
23.6408648598812583	28.1139693219226885	25.2780075495634904
23.2721147000777968	28.7712923126695834	28.1055093387283961
22.3641126132528321	30.4381401568775267	28.7496785097494296
20.7700191613942380	25.9306390771698894	28.1790671393391641
22.2958660376433535	26.7749248082136511	27.1139251358484223
21.2714721683958494	28.2137434036175563	25.6789855433729599
18.8034672661329729	27.9754676952558690	30.2705221751399733
21.4774310386714014	28.7587634530159413	27.6387727847491220
19.7866413423450709	27.4306550283630344	28.2075605932795099
18.8533143623316732	30.1591758627026394	24.4951788399347130
21.9235073884165423	27.3123283858131529	28.9597943286382744
24.6747204262787818	29.8446324801186691	28.6220983996160072
22.5946225665233591	29.3361866760008780	24.4988555511359394
9.6540717543945167	27.6283528739735083	26.0385092199587156
12.6873611670809652	24.3738633804899791	28.5312658955436333
12.4432627945503977	26.3699221824267411	28.5151638461485959
10.5080758012947744	26.6687965085378522	29.6375403951367424
11.6044858271126348	24.2412641070605943	25.4769041842201389
12.3573149997443803	30.6354478635475473	25.9139704284711883
10.8905934120441579	29.9566782577631230	24.9638118899423844
13.2761189141203655	29.1636573713176546	28.7079382211965211
10.1139961404108174	28.4674782743085402	27.5707868209819580
9.4609812519365128	30.5709963437225376	28.5116018139917706
8.8541597332581805	31.4062546899198445	30.4515890391666737
8.2478448454926703	29.5739854776909930	24.5387319463743161
12.8267034396759279	27.9263417348542617	26.9091361677540313
6.6704654702372927	25.9921649708631399	25.7257030754187426
11.3419723092426352	28.1825842182551938	25.5020984718450947
10.7452127369329116	30.2892524568683648	27.1576538956966473
9.4964327025509281	28.0260992502101871	31.4554383757339835
7.7654541116245888	25.0996082408685481	27.3011684932745240
7.8331929843369323	28.2598270831015412	23.3254634808636432
7.8718692010839293	28.8001235071318931	30.1367341041938026
28.3662337679799457	6.7877807460583321	7.5558576627737644
28.8734651815338346	7.0130870751690910	9.4952780355263631
26.4022213515537132	7.0352538008519314	7.8582404517897864
27.5617964513151499	8.5333076638923515	8.5205519687263216
26.9272674915949324	7.3529580489374800	12.6297219906914595
25.8118960501366246	11.0696987151683146	8.5157901360988717
3.1503896205036814	29.6144573564859819	26.5293543343866496
3.4325489108771872	27.2029717611021127	29.2140156204674604
2.6301021981909880	30.6804217128187418	28.0425294032610495
0.5208557101331458	26.8743287509653683	29.3719438850534402
4.7833572578424786	25.6064141973923434	29.4259588620445385
25.2829273105823766	6.7831629197807795	6.4053249229993137
27.0557461460101969	7.2834325391652603	5.5452649462521775
29.5525782156918062	10.0914866867629076	8.5660084592665680
26.1375203975928869	11.2676900667593873	12.0927353181805319
25.4973044363065142	10.4493701680576674	10.2116017157007466
28.4463418464259838	10.8220307251574805	7.2767184242350291
29.7039804747306846	11.6873157664968641	10.9490880968647222
26.1242366221959017	8.7008400660647336	6.9114344015941640
30.8385017927393008	13.4116276800066245	10.6199239165272559
27.5888829877645101	8.2710692967366573	10.6552485973466382
31.1166864543734469	9.7446126220133369	10.0074880605041781
25.5267929752716540	6.7780830469935784	10.0305560940280873
27.4340992974528284	9.9146341326428491	9.8225243777167215
28.8463109127468691	8.9478588809548079	7.3557533582845336
28.4969105950529524	10.0290612544684805	11.7880585942939486
27.4815915236004180	6.0133426102491550	10.8443053091804433
30.6513063543779545	20.9819202436966705	26.3707886028270089
30.0385329249749660	13.0299741063102914	7.5419069166537422
25.8083008285185826	9.0586956671109107	11.3553720091169392
25.8613667802214984	8.6093200279523945	9.2909448979150255
29.3179903144385463	8.8676396850060772	10.5455370187746755
9.8818686821712589	29.7367851692215517	30.8311878809921645
9.6244439587570536	27.9701548875353794	23.8985480214062989
9.5517768648916572	28.4744628897752357	29.4728901195077775
11.2545991969048362	29.8729181452061674	29.0221361252643213
6.9025521650346962	26.2980029387464818	28.5577619418748689
6.3457261609163922	29.4365000157464927	25.1558126470394114
8.1238681011145335	29.2370475699229146	27.9844353584237560
6.8186463017778021	27.6674481603046019	24.9038595347755631
8.8879103430804722	26.9804394458266579	28.1151430782726237
6.1331535007154434	29.4501654589549346	27.5433830593301217
41.9381313193354117	15.1340056583357327	29.1654511016819349
41.0230722640235612	14.7678958460044090	25.0354746175848391
40.1093272842809867	13.5457182212207954	30.6628053462327692
39.9027912355892056	16.1570227244807398	25.7082841729793863
42.5253389160920321	18.2701888281567761	25.1429633949337834
42.7184557244187815	14.0417008917908035	25.2243587786126291
41.6772145017526299	12.8415247416916145	29.3831900374304169
39.0100780473233684	13.7172972429613242	26.1551698275123918
38.0101583314416587	15.4202217069314678	25.1594381351854501
38.9098668398053462	16.0504978057643797	27.6770492316698480
39.3978084526112227	13.1783603305212242	29.0451685435762990
0.3788804577824071	14.6162187157436207	26.9374485227316534
41.4676934586524126	13.2971781552628894	26.3769993490212435
41.9685508418115560	17.3297209134860708	28.8975221359291012
42.1537615613111569	16.1408628015710605	26.0346851460978677
39.0449777928961623	17.9902039773561349	27.9978496245595814
38.4885713406720953	12.7686669044698906	30.8601857443589580
41.6886971804865141	12.7160094069193281	24.3329400211293780
40.6571181380382072	16.8919613360713079	27.2467876118760088
16.9477829655678640	12.1597532220179172	9.0739596171200052
15.8309213951687457	16.4978664486944702	7.3558981695027965
14.8696835139507151	16.2659965335852128	11.0951810525087833
16.8480007549341195	15.6229219735511169	9.6815393762964312
13.9910186299722152	16.8278402019616529	7.1681178643715624
16.4195955684557227	14.8496853187917282	7.9473448831666600
16.0687280286536627	18.9683785263918487	9.3870398642686137
17.8267036808743207	17.5419383583452948	9.4166156658113973
17.0061533965950424	12.4063412975682414	6.8351726956023953
13.6283292899807140	15.3153070980263664	9.8338712803482853
15.5122125656733143	13.1189364070786585	7.5882736404061335
17.1476992838040765	16.5275661252407033	11.2771834565272719
13.2912931246968498	16.5671437051304444	12.5218217002125822
42.9868312312331895	21.3624102986224429	30.3615134304754655
5.0263989096313795	19.2776729419233881	29.4525507537297422
2.6805537083707427	24.7091898475256144	28.8060542394436219
3.5148653694372767	19.4290550844214245	25.2328054623420641
4.6784850506886508	23.1482562641328791	24.8417082938686526
0.4793416792972985	23.5961906889704736	25.8753575931574034
3.9925517232075394	21.5562953320071600	25.4324177915003418
2.5701307834442897	20.8659903136454936	27.7260574437777016
5.9765477525980630	20.9001743146092345	29.8120407832662018
0.4278951434054920	22.4332848999514418	27.7262795238828836
2.6930019816680941	22.8267623465212495	28.0152251050556345
0.8254753121208992	23.0126383611108203	23.8858486885309489
5.2641382886123669	20.2083379425648673	25.4669220142763635
5.5021431712144429	20.4266422155998164	27.9527868913252711
1.9117858337510305	18.7336860072066145	28.1623919399118279
6.0454911720824231	24.2020524712228990	28.9731284631402737
15.1117072882195913	16.5501154670099062	9.0006061491071048
7.1787003704364674	12.9404966867884124	6.5364309570723655
8.3390564285931124	16.3379750924270972	8.3097346950137911
10.8894080595113749	13.8535323345153660	7.1585275473307313
8.1753112465020426	17.0322520792907355	6.4956444942885287
7.9698083471540144	18.1142723197242077	8.3765659802401249
5.4673283669433106	13.6913296754248002	5.9556482267161019
7.2689482696260210	11.5009645678256316	8.9997569866752283
8.6773077291071168	14.6462307222808867	6.7825802339061694
9.7065530664406143	17.6774484176292219	7.8518522476324621
6.7708753028243853	13.9337653094862599	12.1733747427139107
10.3273319600315290	12.4789881265376739	10.7922124445924918
10.4608151511120990	16.5808201799332480	9.5385159430038264
42.6013034041394363	13.3583394830519300	27.9579747639553204
38.5256639747301080	17.2606560879038646	26.2398689016858953
19.5860168612006973	16.1835987589087154	27.6881892375031242
26.8838149557969892	17.9543058601532550	26.6842918860080474
27.6972342862887615	15.1999284654713076	23.1997747513268955
27.1955541860559720	15.2075149916553833	25.5723267759808941
29.8100480696084809	16.0739370830887509	26.2108464658336153
30.5578282261825684	14.2998291492255216	30.7695228814701807
26.6886662216297843	16.3083629036411430	28.1704103446217893
29.0758876752208977	12.6736112485141668	30.3159995124206070
22.9330358733086861	13.4455100113088548	13.0835142454212363
18.9566133870088684	13.9344636138800002	13.3793541102028914
21.5694029150658366	16.8995813924991971	9.2340140866328237
21.8154962675328008	18.0413176542921718	10.9929958064362534
20.0831881908545142	11.6458248747682589	9.4483211360826900
24.8317679471794719	14.2532465275578684	8.1190987581767100
18.7106611485729637	13.2829194426361052	9.7245418376276085
23.1176162446294136	16.4460554040621361	11.9155083944895033
28.5139636612173497	12.2898042965332337	25.2395184878963192
21.8381855524351920	14.1627769014169882	26.0281758947227395
20.1387951161191907	15.1569962897370232	25.9984620953082626
18.7441890831140121	19.5569544893132807	30.0986663558783292
18.9375319454438653	16.9084637805371685	26.1149419689445814
23.2224064148578471	12.9581330902079852	29.7021535562108490
19.7984680548972101	18.4326200807374612	27.2040826619162317
21.0104275022293088	12.5601035404280701	25.5270642534947640
22.6398279073230242	15.9767817022845584	29.0331399286057739
19.3457414558649639	13.8682955870229740	30.9343444933352067
19.0359523545312754	14.8570284494785643	29.2695420450582553
24.1595198042563410	14.9342680721188845	26.4130652839678675
21.9608329947892997	16.0630676254029794	26.9329582532955492
21.7873335236636230	13.9199735449184399	24.2245052455256200
23.3036303242562290	16.8853546360029512	25.5581350461782009
21.1809197720880320	16.2085824641329062	11.0282440083047568
32.4961991255461484	15.0821140073325015	26.5437675709841159
16.1440331129309342	14.8418311098708724	11.4983888650987023
15.4618414449963950	13.0868911844677900	11.8139989899033040
17.3138850625334548	13.6264696988620297	12.6811999112979947
14.8512482356203304	14.8665077421013034	6.5389018163228672
16.8640805525443938	13.4469455902731898	10.5752391706004065
30.7518529362134672	14.2048038162168631	27.0515285550491100
36.8926095662552314	14.9428989458983548	27.4367977142751549
33.7665409775868923	13.8029083221311950	26.6420964369720998
35.9630893826357720	14.6289487155209006	24.5289256378776273
35.4760914595578924	13.4259927939195389	26.3853125284904735
36.6881695405470296	14.1539474187718195	29.1843076400070345
37.0961410938714735	13.7024931301114172	25.6171387922368439
31.5367219862076062	17.4149953960120314	28.7397320426454641
34.1791599867253808	13.7898486858259375	24.7934086716212150
33.1247433913579954	13.9214558370828865	28.5282794270897604
5.2529892431061489	24.3392155028219968	30.8910253272660675
35.0264258339032750	14.6934037578216223	27.9590506774145773
35.1574463474307350	15.2304777742839086	26.1270602563099779
37.2543211714651719	16.9358835352161599	27.7687327735990266
31.3340443379393250	16.4898197583287995	30.3256686497022052
32.3202411254229673	13.2168855075908258	30.3406249563368178
32.8505928766139164	15.6691192826543695	29.2890557628236046
35.0839618639808464	14.6975019250544570	29.9715968070915615
18.2438431385422675	14.7601470454001191	11.2784449205062582
28.9492943317547571	14.0849218107950414	26.5580498020600970
29.6651837510150997	12.8921720509158799	28.2185973039915616
28.7220123113234145	13.9896611763796219	31.7509892001748462
25.5920176529843353	14.8612599675870527	27.9175515535892131
25.2979443222892293	16.8090947224120697	27.0913056804833872
29.3711033247698730	17.7103899635380273	30.7835466550787373
0.9482787948499144	12.6934863518908703	9.6513873290748631
21.1283260717369643	21.0307794230214427	29.5052150607794843
19.2546389250137189	21.4697738643142202	28.8022228441013652
20.0790005266808258	22.0315757234787739	26.7851785634567996
19.5316145530886978	20.8091139370019427	24.9676264582160243
22.0820789389519376	22.9568085315417854	26.7717403790286497
21.6555142914836303	18.0705564997381138	26.5357201103064746
2.2762008112557117	15.9812665396743743	8.7982782826204620
2.6757781330704655	12.3624948064225180	8.9646571906564105
3.1157646278935096	17.6759985526782160	9.1644404058521580
3.8340059824554440	15.8715321403464724	10.0813995206428366
3.7058923189810016	17.5530931957593133	11.2943337771589825
5.3210213492956022	15.8357474992531539	8.4979249206235323
0.4546224790647692	15.6180397738921286	10.2298958275518626
5.0665661609003472	14.5218874704589247	10.7591040053066802
1.5360037238132496	15.2041997712621413	7.2981561323994573
21.9011527826548864	24.9385234833653797	25.8793551859254194
0.8841959685582959	16.8181706935994271	6.6615571918950174
1.5720102966770808	14.3561445346892889	9.2429339421240364
1.6666753088088142	14.9369417473102271	11.5594600725929411
15.5319040884245130	22.2640289985912538	31.1680885079218335
15.3549434114874597	20.4238965074202490	28.9842798710352767
18.1694054852468163	21.8224549467342079	27.1266412165048862
15.0310552719930559	20.2903464988687396	30.8430762548669435
16.7415002111213056	20.2337565379963351	26.7348265797137294
16.9341918342770690	21.8615340747871514	28.4740586570242158
14.2362731974778214	21.6142942807723593	26.7031019571895207
13.9603510562441340	19.4409369950281565	27.4470385467324007
13.9663644309001800	21.8888125912999314	24.7492203783213682
17.1608405952859329	23.8990499783952792	27.4385954544554593
15.9806075995111794	19.6686426766289451	24.8438778555412974
18.8670964145084170	18.8361038502542613	25.5044523830800998
17.7583138782734729	21.2558705725591750	25.3624886151269955
25.7657409083728020	24.7804425747295483	25.1607863046431106
28.9039475059008950	19.8155460839403474	30.5776343211414208
24.6257590763807883	18.7824190478338409	29.9035887524997221
25.9272897330483438	19.9576275380931918	26.4519421388169143
24.4242376949733533	21.1106871206285511	27.0179400609048770
29.2395195689376557	19.6185752714966206	26.0037374475252108
38.3558005101984136	7.9404092479555315	8.0236352797193877
42.0201921580656119	8.8991208246170732	7.4903085944539516
40.6059687530368194	11.5855697967683451	10.0459631452947438
42.2129805094272257	12.1090888967250763	8.7852612857183665
38.8980540208593695	10.2447281950757692	7.0700855046934601
38.3992151946150315	8.1442135625791092	5.6488079668527904
39.1422416799078405	8.2270156225618383	10.5217050114663930
18.8441327240833978	20.2074175890688892	26.6838032990842073
20.7274944661284799	19.6079406307501536	25.8451609125882342
16.2291399803318797	22.1472891984853391	26.6752719305602923
22.7014200546452756	25.0157537807188532	27.5455317615861723
22.8925246291466493	21.4037569707472599	28.1880213580161652
23.7738092400499390	23.9504693317362616	29.7819056332346044
17.9199781260907436	21.3778739327165326	30.2055761374672080
23.1618199296606200	17.4231074640492025	27.4591656653175704
21.7130167428116252	19.1624918297531011	28.0464068128107193
22.8558458862268559	19.8734176723483245	29.4625228162015809
23.0858908316213700	22.1787178822330979	24.4120037899827160
24.7166788533565480	24.4265385640598041	28.0480134757613406
22.1477851142828541	18.3858399094369780	24.7519897356551297
19.6139169428592517	22.4735568106204155	30.5788733146544445
23.9684981897039826	24.2341360574800930	24.3970199093939897
21.6332080732016401	23.0329418383890783	30.0269502644038013
17.7541194991903666	20.1813854154096042	28.4450815037946576
12.4797122639946512	13.7297411460002383	8.6689931314174622
7.9087538902514654	23.5815593399464731	28.9643358376004407
12.3546598477686906	20.4528297593964865	27.4130629581272736
10.9312675394586325	23.4141298199631578	29.0418999638312840
12.3563117391982011	22.2138956831755827	26.1275859499105749
7.1314791137224480	25.0478976540370191	30.1728270533792511
11.1634483258522756	24.0978560863783429	27.3193794709468101
13.1584253176738972	21.4702236826323762	29.9119046902987904
8.5325192285282370	20.0457252266560353	24.4512840437914818
9.8360525407438608	22.6111522150583930	30.7502784893126915
7.7814096414673726	23.1001777486370301	27.0114946378966714
5.6572516653618994	22.2265351976197607	26.5240224089219865
8.6885354832592956	19.6781341844030031	28.9204605257792267
7.7525930793978652	17.1142184419454502	11.4614594969033519
8.7605222077930858	13.5797721854836961	11.1992410532161681
6.9864097324150878	15.1262828214340388	7.5532805510634455
12.2325668634862836	19.3954393551681683	31.5450114132859127
9.0600541057050279	12.6369277188986864	9.2048380795842704
11.7456139798003587	13.0375084142301674	12.2847908990271613
11.9862179936506408	12.4355572925971263	6.9037042970434168
6.9481301887315787	16.2421587335659616	9.4985571723443059
1.6493830897890713	18.6926465210622901	26.0570176791867993
41.9273381172909438	19.5019479433882275	29.6774311497393697
2.6428963622149739	24.1518690054096581	30.7206386702826251
4.3972247082882925	22.0260394896503229	28.0734460636864114
6.0638448871812383	21.6898300198087384	24.2969796620953566
3.0650014277016036	19.3317770014010613	30.2304750568379283
4.2394639007789827	23.4034549219029628	29.6395364646706092
2.6919127697733809	23.1927270091975579	24.3870987242498849
1.3482432704435627	22.1772140821672750	29.4929149500400243
1.5802348565400528	20.1191440399372397	29.2954912346104841
12.4863522339795612	22.4341434914453011	28.2149748163337826
15.3029812218913914	18.5642977610086497	26.2757426968694077
16.9124934858267970	19.4984438743590971	30.0482140456875157
13.3065987548871476	20.4299530364940019	25.6295957879971930
15.3495639105311579	23.0998887819960608	25.2784932150220669
12.8898290348791917	18.1742888187098330	28.4208415051132057
13.3473711373691284	19.5403491748652023	29.6554209231145975
4.6987563885850498	17.0159298972138799	6.7735221680966680
2.0711218675458585	16.7968426725229492	10.4701958757906315
2.6793678821241955	16.9878962247860557	7.3126271881065783
1.0461220757402743	17.2817224192809604	8.4891399917951169
5.2946813316969665	17.1170251501086703	10.0771328016481370
3.1597194090257852	14.1504538654971981	7.9020471177231899
6.1222098566761680	17.5454728401255160	8.3129003404297173
3.2564344794586106	13.7887097315891172	9.9315352599853846
12.4832521276049810	22.9397892028000001	24.1164726677798988
23.6645942892104095	13.0328482371665348	7.3001775458489186
10.2107831376021867	19.6155234733942052	27.0777876014754995
14.0363239336717545	23.2346055658039390	29.6218167165558981
11.8013740487028098	22.0642310088612916	31.5435015760670900
9.3101064650485910	23.5747044579854723	27.7858557484175144
13.3950985458974632	23.8851477725718553	25.4421014404821904
11.1232069470507380	18.7944203916656427	28.4813212659560087
6.7458884215968489	22.8513992643432466	30.4328734659433557
10.9046113206283195	21.3982838055219950	29.9836593782076299
8.9286417719484703	20.7124527706283779	30.6548468232539939
6.6170870958228640	21.7701882458990177	28.3816039907118238
9.1742437694631818	21.7258873451243915	28.9153357373933915
6.7625195429581098	19.3053659598424687	28.6466621977425469
9.6419876176399395	23.4177413261692458	25.7467119783819349
10.2228263894636893	19.4527626712676671	30.2977035406990289
10.6685298542617382	0.2553124111941665	26.7370083263705780
15.0873427427457454	37.6337449818302474	28.2549659306592993
29.2079299845217619	5.0078861908086587	7.1077412599161285
26.1998164742318700	3.6261105287901043	8.5309766770220214
10.0111578598097815	41.5980092655569820	27.9182432506425435
10.6652653941351527	39.6662332964094801	28.6948359401803934
7.0076247854724398	39.2730480477197048	28.9466882464966488
12.3014894841451543	37.9261183503180419	25.8093732421668456
11.1127126200669544	42.6337164164732982	24.8642913399555852
10.4303997721880730	37.6494372232896666	24.7998815960021304
7.9322141720713706	36.8310793356972539	29.7113451851753538
6.8385079017088080	40.9611269797471707	27.2456368296590163
8.9304989756024451	38.8845122664315355	25.1959014342557417
8.8398277148302782	39.4896398498983316	30.0824826342940312
12.0490105644906755	37.8357905467478233	28.2645356390688356
10.3396689337966414	39.0131564052633379	31.3595040255703061
12.8863030728153252	39.9867788494199417	25.8165446211333318
8.4385605429585464	40.8654114519329923	24.1606237466755651
8.5354554637370406	42.2395464789099506	27.0242301700399068
12.7028220576146538	42.3003039488574899	26.3164677844934722
9.1858297889249041	0.4541958676872829	25.4483014071783806
8.2769828366249172	40.5460511120016349	28.5269320981126562
7.2927383572609026	0.5207064555769938	26.5410411034104072
7.9994644258845877	39.2533017685818706	27.0817680119086148
9.2022990207934843	38.2284491968724822	28.7321455108045178
7.5717982658559020	42.7987020241306837	24.6497127386143688
31.4662057043347581	1.4057279376636400	6.6359227503087519
30.4503169961395876	1.6593415712606854	11.9199398826121641
26.2333162021195179	5.0875391472909035	9.9869255939549983
30.8974469075870886	4.2555267933457364	10.6519276027628482
28.1690426711713968	3.4643328694374436	7.6561959600520408
29.9582030953588827	3.6308857849309502	12.4134508005424795
14.3023083116382246	41.0045026250091311	26.3803175261172740
18.0485032340481375	3.7662361859864819	9.9498125084081934
24.0019690157891255	0.1015649546550783	7.6241993288395307
19.7242744924031648	5.2975213902482734	7.3292038960956729
18.7933684434360977	3.1715504936317007	5.3392864659507353
24.7041285203127146	2.0920205990793899	8.0095757961475673
23.2812609582171532	2.9199764935546999	11.8407336490763697
21.4120338868419253	5.9868358937036223	12.2099907588932570
24.7552610177187553	5.5394529119534166	11.4983226036595596
21.2327140243258192	4.5270106393427509	8.4030413392342762
20.5464956666866527	2.7548053356586508	7.7567763654628292
17.4092332743678533	37.6702997014675489	30.0710299697480608
12.7474774717110773	41.1519971847437134	27.7483186642821344
16.6084246191600826	37.8485965430581217	27.1925826323412601
17.8840151950572022	40.8584409684967369	27.4403747172680852
18.1013554901128337	0.7388649311794890	25.2432700888273196
27.6171736860782460	5.3744554409843577	8.4601332705890950
11.5088489488831733	39.0433666821170604	26.9977535240374245
16.1570615274376763	40.1682735917226168	24.0496625983698351
12.6901803806277957	41.2382458816094442	29.9147608705761634
16.7154046207808733	39.6871549046031475	30.5976947485771440
13.4384096158427937	37.5264989112156471	29.9717912036700760
15.0581781600593771	42.8557523920104089	25.6126197121391286
17.0842656027055924	39.5316074237450508	25.9483441006265849
14.6341180382386202	41.5544635540034335	23.9525860553262397
15.3425694036286142	38.4851935689460305	30.1378483171602518
15.4715495735665858	37.2860180813513153	25.8434264490551513
16.5928147065626526	39.1717631477951258	28.8366745728222078
14.6433415099810489	41.5590839277564896	29.8863486474971261
16.4044700013145714	41.2643336353371950	28.9585441049122423
16.2389942794894573	41.3643848806856553	26.7595547812163552
31.1123995463736662	5.5230513832692267	8.7380153516992767
32.2485765663563058	5.4324008105225525	7.3634971809680732
31.3425570678815824	1.0984015232551603	10.1751544474049904
33.6038222386050549	1.3438586259658565	6.7940567597598260
35.3305351733904516	1.1127150962186416	7.4161066032030361
38.2378079677348737	36.4319691164611612	25.3113135611508255
41.7249284564355207	31.8059654419249398	28.6843411280728304
36.4098158704108528	32.8177531516349461	24.2192282109521564
40.0935341391984252	36.0171592334923361	30.2819672641994266
40.6613272526802945	30.8199372527342881	25.7300362559076241
40.3776454441868822	35.6426612652176473	25.5736336711054904
38.3222231148096739	34.5776854567499257	30.6791356655832388
41.9406792892205544	31.6534871107980997	26.7214863814755468
34.4686924537025376	4.4838896602080425	10.5132327336688185
32.2197714708285332	2.7097541996566181	11.2390751457887745
34.5061415553680888	2.4506523137663172	5.5778896185157745
36.1050485113924253	2.6470924439806423	6.7618667110407058
36.7488479114289817	0.6659922285348592	8.7293978614967465
32.4006700028739658	4.4653124017189274	9.5847752919543847
32.7555770183746731	4.5333499860610944	11.4601329694619682
32.1924289371328811	0.7121474886596353	8.1536167661675218
32.2097132480122355	34.1770689721057863	26.3733885620900956
33.3756878066718841	34.2864587159762948	28.1365772092945328
34.2367148860383921	34.0663850423461341	26.3287223963496722
36.5056085178114174	33.4390034894221344	30.3738935344451129
31.8769062760702120	33.3006423947414234	28.3918289604462970
33.8593319242675790	35.9394515250499182	24.0753755022889777
34.2928528394780230	32.7182748797513838	27.7511387681946609
33.4887933315270132	36.1414345634650402	29.5771907153672551
35.6471105640780337	31.9137610935650713	26.0723215999919660
34.4378744973587914	31.0099107199486070	29.2139808535037844
35.3203242558177593	36.4799527604223783	29.3127740904802430
1.0442040112405031	39.8479827214764413	24.7650459654559114
26.6946510206959751	5.4540543625849711	6.1520076079828279
29.8593915014740112	2.9047489829044082	6.7226946743382037
29.2240794995203288	2.9829503866477274	10.8211736776391607
30.4026217562843684	1.3914180499227169	8.1892922713825982
27.7150446589815971	3.9093265990303543	9.8291651750207141
28.4201693994001019	1.8168555097764127	9.2184880145373462
28.2559032052510446	3.7130267301963769	5.7875253137852187
25.2626299288068168	0.4596081982698331	9.0670049926175658
24.9427982627768010	3.3888270922855179	6.6894804952231874
26.6702182362917597	2.6338195387758736	7.0528028978866493
0.7541787010816846	38.2326078667747566	31.1269093621042785
4.1525180748922041	39.1119021528298489	27.9333272234589778
0.1601613565219845	38.0022671603713462	23.1809382495872534
4.7508750109381239	40.7244107368068740	29.1878970827710518
1.5385790737263674	39.1654933118774125	29.6637422319455624
21.4699355738090922	5.7270809025251062	6.8259125337556243
1.1974542870367242	40.8606558915676388	28.2882424350988941
6.2414125041237973	41.8531329899267064	30.6546731265732681
4.9119464178049910	40.4223102794634244	26.3637809199536122
6.2017791970357150	42.1147202355008119	25.9739541061899573
42.9586252877625796	41.9768628587672268	30.5343179504350992
0.0408969593171669	40.2030323829482725	29.9011960873953555
4.5651243861447037	38.7650322545713806	25.1280277329558075
3.0744306374728256	40.2039916444813272	30.7243314725707606
4.9945715137461946	36.9922026366635137	26.3119671870894472
3.4342726825997878	38.4673237557450918	29.7001471732301212
3.2264185614356702	37.4454234433107445	26.2327675565645038
2.0797144886642802	36.8742895545747231	29.7720870419104102
3.3817987923229689	37.4636480685169175	28.0937019390383078
5.3723190973833965	37.7912256355929017	29.2279940356681109
32.5407362825022233	39.1321610502759967	25.1965315793837945
14.8999352471717597	1.7892564973237277	8.5703116316073231
14.7435510438021069	4.4284368987224045	9.4227336496756227
18.4539801233465681	2.0419150290519328	6.9662352284761750
15.5707650364441843	5.8646798664637805	11.1903694574847155
17.4513807936488377	5.1531516116498128	11.5003706877887684
14.6133295148858018	0.0097355429935296	5.4332741493281977
17.7456431579351985	4.1190879312997160	6.5398825791732014
13.1521416741797790	1.6262104116918470	9.6445648948473401
33.1846026111586241	39.0202477125972180	27.3727648412357780
34.8077840192177987	40.6967377705535043	28.9233464948184569
33.2343324990034077	39.3124974962249993	29.4956334561497719
35.2894919817964876	38.7560030423823889	29.4078289646201974
34.0975547218950936	37.7533908154857727	30.4759079962608581
30.7947899996927070	40.9135730414771359	28.1754812123342866
37.1333446323588490	40.6093412302196626	28.6089589644333238
14.3072778873553688	2.0033932687425104	6.4991504921445289
34.2788029149877431	38.5481468412436499	25.9895288496957981
35.8768752919268579	36.5993977501936669	24.9243218572977021
33.1236733399121022	41.1604860760447622	25.1699224070923933
37.4278465871103165	40.3614511092459765	30.5579428790299872
31.4249744498730301	42.4714860204402385	25.1319440446952918
35.4390288442329435	39.7186892426972094	24.7700139255190805
32.6313383720126495	37.6627192879845651	28.8242753580297766
36.1930002244067595	41.8817356407810379	29.7453608697170822
15.0135965403009504	1.0872451322882448	10.2779670087879573
12.4903776329734360	3.1952605152557689	9.0940056695525477
13.9695728385865081	3.5082050942053189	7.4728818721822687
17.1517738613753181	2.8653011044640952	12.6431113965185755
15.7205388929412262	4.3976874919627988	7.3019487791168780
13.4631918164288322	0.2109530580216046	7.1339226685751962
16.6627390572553331	0.6534464988455772	9.5962575204532943
37.1674563801696038	41.0376138700505777	25.1940241385631261
36.8914112759612252	37.0847958783440887	26.7109673270016437
40.5281270533056954	42.2458884751292842	27.9270013673097957
39.6243731600381750	37.7850108230512021	23.9590722308883635
41.4431514950503939	41.3124545212838612	29.3909354671534047
38.8900035613920352	38.6448350912492060	25.6666987511506406
38.0321087751070905	41.7614573248537937	27.1013340756048180
41.5316903371616064	40.8645343278323807	27.1760454652676913
42.8462678065069085	38.0576491624249300	25.3519464904674265
38.5429547141060738	39.1091552832032221	29.2759506964978762
40.1734102141479710	42.7608814227324245	25.4827485781868042
40.5708189077203087	37.3665204875445625	28.4223652114299696
42.1425568446983974	39.7534632576245102	25.5411919665131109
40.7955549315713810	37.8197573494678352	25.5820543629175354
41.5812851401770232	38.8087110513634030	23.9356174849063734
39.8103551211968991	37.8301330727088398	30.3636633573680292
14.1986217466116713	2.9144976529880529	10.6975866645189814
38.9134944070357705	36.9711247835663883	28.9664952915538727
41.5480275567503980	38.7944243508094360	27.0864180152617777
39.9113606305950910	40.3578297225695906	26.5886164605544089
39.2201471596354239	36.9755959420348219	26.7487572720827131
41.2922688848407446	39.3418213451212111	30.3954704386326888
0.3120700125759870	41.3231185366328404	26.4619402984800374
40.4742567818190793	39.4333655355029578	28.3662321021456663
40.2033217541710215	39.5625506933613522	24.7624351883504588
39.2376551261908872	40.9505077692214314	28.7448913672592923
17.0068611905197642	5.9165782193865386	9.8503388224155817
16.5811676777013020	2.2680727095183366	10.6885394752104830
16.2262865470051771	4.1184849208967105	10.3286362742123057
12.6281299633675292	2.0638213626799069	7.6428851837037994
18.5041192342817489	1.6897770309334472	10.4465661822522158
19.6143914690935119	37.6943086932121219	27.9299051569381938
21.0826509883107995	37.5915367855037275	25.0468827795145863
23.1605890365417935	41.2140416497727173	28.7777307738587460
23.1017251821371090	37.1430381139570756	27.7586883336707224
19.8415527156266087	41.4954912931230737	27.3846599853860191
21.3910429767603887	40.1195004081032138	28.8117284606804098
24.5325479452709452	38.1344913240019565	28.3553897789139455
22.9198414935783035	39.4058249590387106	28.0513917363127483
19.4199552535966049	39.5065778739581432	28.1652699985853481
24.3925676102093369	39.4322060815282143	25.4497186776116386
21.5734659137645153	37.9195737579076351	28.6903319929610454
19.0424673968457583	37.4817628096668756	24.6248641558805268
19.8198997087114357	36.5373293034923350	26.2297180036518256
23.6672129038039607	38.7274200495986705	30.2914498969680999
19.4837437345913820	37.6208011754459122	29.7705890068441512
22.0550722031081960	41.2239475092496406	27.0688598755468632
16.9725740752418481	2.4012724255947817	8.9171932525650774
19.6648861732307800	38.4859232068041734	26.2197139062964482
18.0807084451098738	37.1819373148720231	26.3472644877034696
24.2512097302425111	36.7170632980020670	29.6734469013894575
20.5139821241017373	42.1271614917256443	25.5045224636478700
21.6818421121855138	38.2197299298565554	26.7103470144949959
23.4398938775024668	40.7635651173140374	30.8540308446090599
23.2129561263734487	41.1659539942889694	25.4380586251922409
21.5506674575126844	41.8443857719009387	7.1338456831929893
21.3572553061717620	5.3487176863755908	10.4365317538112041
19.8863843694793339	3.3473508805568968	9.7506546583001317
24.4678634918140432	5.8380061953201841	8.0487319903541454
21.5563159064106316	2.0311596260900484	9.1191928007713532
18.7706975731495049	42.7518975970696715	7.3163187488785288
20.2046883669396173	0.9663755945051464	8.0635018819931243
25.1659850217487673	41.0031744608706319	28.7772110716748308
24.2322854424683136	41.2055390695520103	26.9695536282182111
27.6098795223679438	39.6739297783427318	26.3611205796504500
29.4733780962958924	39.6694513540694302	27.5233787561680714
26.3821223564500755	38.8304035531101661	24.5544574675337692
26.7846835104370555	42.2393275684049954	26.7827947066288772
27.9913597811564330	40.8981719558297883	27.9573284002293754
25.9124125821792113	38.3601811444177798	26.4882083144276059
26.1973785887114161	39.3389257111481641	28.0440009044578851
25.5408467526768916	39.2239651188859995	29.9261819405128797
29.5081123784616643	41.6148174468683223	29.2223740208571314
30.0470219618583840	41.4227864821238470	26.3137740964784967
30.4266026756113170	37.8062884347319326	28.8723623729926651
29.7469315784834833	39.4283323683203974	29.4255441422014066
28.6832619919764724	37.7694707741292817	28.1612487284341810
27.0227367872180793	40.2849797866070389	29.8392810209392216
33.1168371138506998	32.3695153956761601	25.6674186180382158
19.9805590240431989	6.0696210425529307	8.9647644570305935
23.3798052582330200	1.9655415299227013	6.5521560662326088
19.3326637753734438	5.2398019178735780	10.6921838128545001
19.6460530025226525	0.3288658583874733	9.7019133514279936
22.3150125424010675	3.5620115235246370	10.0139711722192342
22.0878192219445175	0.1865285770115445	10.9769885402614253
22.1402643939999884	0.8042427172818261	7.6604703636153548
23.2607351652783123	4.7215307875001109	6.7392803730160766
23.4388611612646791	1.5067757463837936	9.6258691958783871
25.4878152783080409	1.7486185540276211	6.0156504623264322
20.1906251320337660	0.6125963802489420	11.6371878127935169
18.9223929774790918	3.7508831925734820	11.6632069650570767
21.5302297353446015	3.8437468334215477	12.0692395457393129
18.8655854867534529	2.0623118363958093	8.6871821575943606
41.9255687600812763	27.3443754851152612	28.6499194161703592
3.8755077485327889	33.8581890271029948	28.3130270545234417
42.7838150549325746	33.8823238773963666	28.8677708790441621
1.7273874489434877	31.0748706618967354	26.1263164376807957
3.4588876727899418	31.2248823810756910	25.2574191839755606
4.7801903838380166	31.8853291449918252	26.3912448509859381
7.6064951976495259	31.5915736086067405	24.9223001228168002
10.6099635356034820	9.1831806271713177	11.2778238646466864
40.6959070429118412	26.2947784115013832	27.3354533248949032
39.0423814961588036	29.5998045328147903	24.8229557922813449
38.1436195591564058	27.5143855275571632	29.5785385373455014
37.3002766040393112	27.4810965536228480	27.9240227061173165
39.8237287110072558	30.7201153332399173	29.4860161998854871
39.0365595027906096	26.9571690108942938	26.8520476268310233
41.5655239960993157	27.6755597545691323	30.6044999337129582
40.1650828936838380	26.6726855509225231	25.4168012422859420
2.4136432075095686	32.4854934947488587	28.9134776305057670
39.3991047654142008	24.6599101151385511	29.4913667541657389
42.0952878538966075	27.8900834894220360	25.5335038189191117
37.6226209527991955	29.3624667770724841	28.4041946639198386
40.0472528510759957	26.6485041655738897	29.3100588037214251
39.8205515888055501	28.7397438415404487	26.2198436814102287
15.0914981083733384	7.8539075818850623	7.4579243916958502
16.4136068249834537	8.5159609487854464	10.4438038836551730
15.5253694071291033	7.1694814585118651	9.4253605970000116
14.3717043637726842	9.8077776472864038	7.7298911238191721
12.3707734383058803	10.2660817740461496	7.4932348446355359
16.1579419667091919	9.2342974467655790	8.4391313366320055
13.1027128764961009	7.5593806013309353	10.6920976339531038
14.5609810005505249	10.6083511123154874	11.3386843296119633
14.5657070736270917	5.7315289264552742	7.9608624770956142
12.8597429362164970	9.5003261627181690	10.4629099748527992
9.3780511450664399	10.6417113186393841	11.2568403189450326
12.0599706389694656	32.4366578013666853	26.0441596087145939
12.7026835962356746	30.5993279063116894	30.0114258566680583
13.0768031235887712	34.2609393026873832	25.8770150615136245
9.4145040252975960	36.0990497842275246	25.9175396349332274
6.3261397295715716	36.0241572657480660	28.6926254823053526
8.1566858058600662	33.5174991816079313	24.0498882431602539
11.0744579126072420	11.0622601780064844	12.0986142791134412
6.7792515977250618	8.4387462681939684	9.9716843300583058
11.6829597641338516	12.0630680379139026	8.6583512841404495
7.1861498059124287	10.8860094257278437	11.1045261624478950
10.7836584096981500	10.6470908767063985	9.9938057238646358
7.0157616206275977	12.6728679419621155	10.8045774314755629
8.4209594241849430	8.4567610102692985	11.4449875051289709
10.0301015027771907	7.4660572065530246	10.5974148303683009
11.4968317768104491	8.3771805591063782	9.8010584117010566
16.2535587670881903	9.6986186963832566	11.8765630998625706
10.6887727074605472	8.6464447375180313	7.9460914074476596
10.0440926228510463	12.5887550408346751	12.7903046075365268
10.6929518045109671	10.7201938191650310	7.8904416730495290
1.5014534009377538	35.3718172518279985	28.2678788179593603
3.7272747282359155	32.9835153050680177	24.9371789907996053
42.8434169879839573	30.2507198326138038	25.6057982413695306
42.1547130371231802	36.2817153319333343	26.1748171545933204
4.3505873352190712	31.4235981996530320	28.5529678663299293
42.9409247903104117	30.2255697138431039	28.0872901375923014
3.5216221463802770	35.6962390314148408	27.4550431314456063
3.0603986924420825	35.0458311976621459	30.7522516845616209
5.3161800373348465	31.0667863087874316	24.3545157817217337
4.4012450554958669	35.7529722820167848	29.2418882134406566
3.1529340072320111	32.3498026566586390	27.1143061451086993
28.9990327961053644	29.9772518804953911	28.9313298857676457
24.1229091878688529	8.5879917895667610	9.9942658774687043
22.7679188706158477	11.2637392278933479	11.2589746030051892
20.2903436156654671	9.1855829214673026	10.7650183509288926
29.8502071672800433	29.3200402418060122	25.0661766983635914
28.2215304797012543	23.9607461263088020	29.7832711773032344
27.0629387702718418	31.2009207782991673	27.0775783720022325
26.9977336329948372	27.3862403996928556	27.6495616167163760
28.6506353506703491	29.6994452486094325	26.9383509636061582
25.1639370786246630	25.6722637092588677	29.5322035795917479
28.3716134845954784	25.4033122631283526	26.5685051974864344
26.4704007846525542	28.9835568031124460	28.7652195136845847
28.5864999697531523	28.1525072855013079	28.4732665603686321
27.8940544166677924	31.1392074508651255	30.3400751187332638
28.6542619607786442	27.8621123378359314	25.8992657158407020
30.4058627062251432	26.8863982008782578	30.2417870778889792
31.1203717966274027	25.8845996508268641	23.8973172651279242
26.3962455327364154	26.9872940713332667	29.6356771621134136
27.6177277206797385	27.8726617459101931	23.8666281176360258
26.7939260694168695	28.6202809229139525	30.8247623201866752
30.3896785617968668	28.3065817122430694	26.5320672040090493
30.5075018833842968	28.2332223778077989	28.6631584984551608
29.8679869775786209	26.4164303991261029	25.4765421933283847
30.0112957160387630	28.8609503926924766	30.4360659290108266
31.8154919235164009	28.9127801194200806	24.8567960479033019
25.5018573102440556	28.5235832674735121	26.0186257603499236
28.0175281271230503	26.1355814272940634	28.5323246048076946
26.0796590930625634	30.6996975862537980	25.3418244360171023
29.4628537408398579	26.8881842140493035	27.4830736280436767
24.9894013963606092	26.6899865741229938	24.9520213019761954
25.1164834278253863	27.7211130644611004	28.3702738902213056
19.3629331159256530	8.9400110997845879	12.3620445084983608
31.6294523189784371	29.8041248967992622	30.8895534473213722
16.5600619201283159	11.6081390392743931	11.5506086448055711
17.9337873579185505	10.2032035460262680	8.5319991229516159
14.6286633383760005	8.9469116523337284	10.0300153481399548
16.2391373958784939	10.3425016025673244	10.0629152705746101
13.7455857154807557	7.8610881997427970	8.7243937232430824
16.2189848820935403	11.0786268494501670	7.7915757778086618
30.9231104763323259	30.1817897330135665	28.8574448027019130
32.7790490745982339	30.0181798094201220	28.9768797742673598
33.6248082761727005	26.5739526387247231	27.0099672238480935
35.4904165122465898	26.1371768032525402	26.5277305910102363
34.5898649849411726	28.1278290008233647	26.4891461677583209
33.4115249487141881	30.3284502043459625	25.7075531890053028
31.9635232674658454	29.1197539291621439	27.5730687355970261
32.3095761612492609	30.7350136379880041	24.1872736733354259
38.1037379924769013	29.6931440634161561	30.1292441821405745
11.5625009275031072	37.5402993361200004	30.3089053215515207
35.3699800166876344	25.4283143110245469	24.2188784670325283
35.8633499867396210	29.0081010037994282	28.1783258512411940
35.0644195883487413	27.0987731491475756	28.2028103532088856
37.7752686981137700	28.6495967434882175	26.4950284683920856
34.8877795923964911	27.6556177047963025	29.9391988059316496
36.6358937190816079	30.2110678382033591	26.5862338370886810
36.4793182962317175	30.7925719174238566	28.7261185594928818
32.2642600214365487	24.1457499795603887	24.8760355757193032
36.4081298610490478	28.3800763822412243	25.2282011424873502
36.2100968905336060	26.2744921275398085	31.2344540048384331
33.4132603129437271	26.0414248303946501	29.1025768822337199
35.1482268352248397	29.9497556916149392	25.4278470775785053
33.5552230008323917	28.0207519590546532	28.5067900629182844
36.6113759783370867	25.8417370179862154	28.5408462963277749
41.0005931523194462	1.5705210748955214	6.8892067655200266
26.8293337487407157	34.8566842441824747	26.0086348019063713
27.2931038905105865	36.9753947879069216	25.5858155472988607
40.5354101397146920	0.3012542091173885	10.3281239063829080
36.9488151984128166	0.9889024604851741	6.1432263262704598
40.2821061502076105	41.7234307624373457	11.4863596201982165
38.7831611925690538	42.9511152231122679	11.2754100261440229
41.4040289548158285	4.8501985958541969	11.0350266094314087
38.5299413042018770	0.8141533612900239	9.4834563594702121
37.5659908595676981	2.0186097699395598	7.7300400582742572
41.0310963718886015	5.4664498699445980	8.1594848156844328
42.3464498397251177	5.0859007155721772	6.8111149288176174
38.5659616282623148	6.2852544573783113	10.5296259575092623
40.5009615468728299	3.0973224562102732	11.4660345028276023
39.1302246132880427	1.8835668059003448	11.1758810839882425
39.1101676516522119	4.2597595524821781	11.2957596657956056
28.2697131364106369	34.7405066929665836	29.6468531482261852
41.5312921846242702	3.2783049070870707	9.8778968686814643
41.8643291102486828	6.6704865885414986	9.7063830150922836
39.8291134047868027	4.8352764953220868	9.6579749886077035
42.2450551767654758	3.4058470194349275	7.9881672611805685
39.4589628974320874	2.9085770422697137	9.7049130697470538
37.4839187573845578	2.2961711386237407	9.9939792714016633
23.8707079072848138	32.4971952999945515	25.9389474057559859
25.1674599070999037	34.0078885251941969	26.4033694952085263
19.6802183717618959	32.8621657206365256	26.9587227788197161
23.8826208372225963	36.3335557516188459	31.4508024356397229
20.5246643824553843	34.5465942862355817	27.8500981057461701
25.5033859771806775	36.3204051695231627	26.3254722318691492
19.1848713201920766	36.4605724777021578	31.4053630089082922
24.5758786524675763	34.8122614406537565	28.2419348958372858
21.5982124121616899	32.1394802943953124	27.6190907575995972
42.3022285925317050	1.1515602045270439	10.2050104491352922
31.0987045764637955	35.0947407564396983	24.6430558634610577
32.6864163903523632	31.0630370852685047	27.4677231069253303
34.6441708797162278	30.7354634347813800	27.3940571564452036
35.3327947559868250	34.7944107008918735	27.6326037178615529
36.0326814504495729	33.9655657696318727	25.5777133826110408
31.5181758188175145	31.4429004598065305	29.9784441400267205
33.2923170196186433	32.5491532613191552	29.5626470272422388
31.3059593465259098	33.2324039279523618	30.2913057216093549
31.4263525918808639	36.2495003091518910	29.6047280994077617
32.5292328042478971	36.5327354820921215	31.2805432982626677
34.3579348499273038	37.4843301872163934	28.0240766674771393
38.7314176517082203	0.7401343222817001	6.3588352447413206
40.6797298451741938	3.7992068730583020	6.9848315090418973
40.9318676535090233	5.9679117360328346	6.0036030201000861
37.2976957532930342	0.9907241148923032	11.4570878290051592
23.3938860293802335	34.9814749157513276	30.0379698692959920
25.3172949959005962	31.8363551612827251	26.9066657709823041
24.7211504940267304	34.1146281274466645	31.4205020883341000
28.4798887451769183	31.9494403897815644	26.3027317808180570
27.2684636636071218	36.1914072286853852	27.2356834676274175
24.7667211417604420	32.0459251854682421	31.4354443972602908
26.2316707853944990	31.1666789815519678	28.9580302572015640
27.2326304246839577	32.8396575495310898	30.0522735749032179
30.2525681268414708	34.4956592927843815	29.2165999546153401
27.0976132555919413	32.9478135548879507	27.9435161742219655
25.8825141089433082	35.7930639085584588	30.8510491110135590
29.7445942956429796	30.7976636120007754	30.6446951069782614
29.0654125900247990	35.9924646873094574	28.2966512702363815
26.8536168326401246	32.6878504309160860	25.8882988629945352
29.2205307206886715	32.8349097380810804	30.3841864751886419
9.5138833735526518	36.2079352573671400	23.7124598940711095
17.4181815140756022	32.8702683872885189	26.8271740507527738
17.7650190376470825	32.4541996317510666	28.7465925145056218
16.4606766846933930	31.2325971467919707	26.0632561002661767
2.0016287006813318	7.5572556946255700	8.2128666147634259
1.0048213623403917	10.7762549993781231	9.2765676960366594
1.0189363374744667	7.2522687172722140	12.1974296262269046
42.9923653659815344	10.9556432131911663	5.8868204082704807
0.2589872514331943	7.2759933618818113	8.5529967823382069
9.3784681544368080	9.0398802310683202	9.7532005964814346
9.0604447820628646	10.6184479435555694	8.8764179664644303
8.9948310804316023	9.7422775373716703	6.8495987272632579
6.8068760663491821	7.1178301205807681	8.4023131963687430
7.7710541001602174	8.9947711036677092	8.1552053710797043
10.2415290937422903	6.5370391042405815	7.0091752339906801
7.2254095317300386	36.9519247042971770	25.5063589773129671
13.7533928993235026	31.7688966384081475	26.6747256017356520
10.1612114150281734	35.9869690715775263	31.1732463420093424
10.4507495251716627	33.4063656850162616	26.6045405468016725
7.6457795568492415	34.7590780426392811	28.8813967305723303
8.4680892937078500	30.9556474963790187	26.6995506779019678
8.4258020450869431	32.6392342863789722	29.1337700750836035
12.3297193278723700	31.1820654711990599	28.0968844896681347
11.6734962431212299	33.6559625811531973	24.7613564053803898
10.3559514113964024	31.6034811425294997	25.7743405467293520
11.1264788662249803	35.0459055479291024	27.1520602773628568
7.6168473214675174	30.8675277014811229	28.5883518898030644
12.1433932429670435	33.0086206414451837	27.8799403692538803
12.8727694785001052	35.0361794392069683	29.2121867317042465
8.6381814765586533	32.7056993027596405	26.2935869663201878
7.3420396397526009	35.6823654374556440	26.9374644818739313
18.6378280482801415	36.1766221601210916	28.9578928288158011
21.5987042261926909	36.3368134127970137	26.9878719202261479
20.6552953962648864	34.1927564509632802	29.9517056086980453
24.1062450981863954	33.3046832130062498	29.7415545814173718
21.6250099268873335	33.2811675548264674	26.0051776468821956
18.4973949086978493	34.1756087490849438	28.0408204135023951
23.6985735348252398	35.5247593493605152	26.6056731527785857
20.7294175334299311	36.1068988204374861	28.7817229064107423
18.2251827114668998	33.7002094180390444	25.3359712073154348
22.1324472084894275	36.6194667133139404	30.3091374024345690
3.4660330014151537	6.9456788224619679	10.2987430843502192
5.1148933785448749	9.1512701871327504	9.1167299592377766
0.7057218405747191	7.8254503155860817	6.7543812901471512
2.4202867725067221	8.0624379134465389	6.0740470288560404
5.4535251815790815	9.8832996605404713	10.9843427264970810
4.1011668878911971	10.5290330910972330	8.5242686431673214
23.2574359977617569	16.1928632319930053	10.0937944504461239
13.9613374599856783	32.3426654500189414	28.6100558586193330
15.3674453163938054	32.6273152191325977	26.8511694924348454
16.0261534278646494	31.5030946765333333	31.2319220681708707
14.5138786896655709	31.4040021182218929	30.0065714851810910
16.2233271337427851	35.9229902459908459	27.0470007953306997
16.7459982450724603	35.6078054877068908	24.9209784568765862
13.0893624506230211	32.4018656663461755	24.5330571165331826
15.3199735316756112	33.1287007489892247	30.5172345226710497
14.8760342029641563	35.3634711474621142	25.7298171332529364
13.7019541668151330	36.7535493524112979	24.8539335238943977
14.4448158450672466	34.8413676668019434	27.5367998190885821
16.4497575443994393	34.0804545142235824	25.8641087291552871
16.4540820588831416	34.1026811020492602	27.9177716886161704
14.9750506473471887	31.8759665033914210	24.7917690112408486
9.1132730306981422	27.7969877947968200	8.4559187341786632
17.0674216943847128	38.1704496018551467	24.8027762260833917
12.6643391308796733	40.8725028506720633	24.0229328966267950
15.7616997001866466	41.6164258520089803	20.6085202020029925
18.6860679607647349	38.3496430521709684	21.5088843823971843
12.9567499582742016	39.6564991067797976	21.1448715890873871
9.9384527630543129	25.0783260751263875	7.5255493315552835
9.3961962885290067	28.8570738282173700	11.5532868297291635
6.6605374885762618	30.7742431726283030	9.8773549471152577
11.9614619299148917	26.1500707306496913	7.7889047970997254
7.7323298657191444	26.4174770698421781	7.8011116835210332
10.4303595612508957	29.5993206575549834	6.4995242821422687
9.6758306672989320	27.1381355102514163	10.3897603966973300
8.0302641704246760	29.4245848452718128	9.2306395254684386
8.5714901587528747	31.4121791587270565	8.9059871634239673
7.3741542184418742	25.0185630278747304	9.3569169752000629
14.5389760975605515	42.7862312711946089	21.3919004776413360
10.7025502232545371	30.6539018351351551	11.4886293624681546
11.3946013037483151	40.3741602939813617	22.5784177719170067
7.5956258478585372	39.8288283811590347	22.5141170197048126
9.2908177800462184	41.6966705595981182	20.5548393320246170
6.8626364745715911	37.6899491150308421	19.7336178302758114
7.2752225441443912	37.6694454103032115	23.3095680718710483
7.8469938595934376	41.7735030617732548	22.6585066773174084
7.0940616107099501	39.3972683448963039	20.2822889239819233
7.4294176170901265	36.7543666924474621	21.3369040692960894
9.3867140703271286	40.7529154498242079	22.1167722267562645
9.8659505774513487	39.7650103602243661	20.1763050329084237
11.2512500205217787	39.2900754843264366	24.4837554737499765
7.5878233886151865	40.9245585250430324	21.0699889708970325
10.0633231648336690	37.8411028700829917	19.7789796979727797
12.1170515309642290	38.0110702100151059	20.2831632738557843
6.1008366559202631	29.4513062609617755	11.6330223337531784
19.9308218326339990	40.6092012655172780	24.0400789256102208
19.9538549534309588	41.6011246663593113	20.6159592300926455
20.4512072811810732	38.8817743619720844	23.9443954224361768
20.5703788289099201	39.5382593269127227	20.8660989205573202
21.8651731573484014	42.2917672568974510	20.0493072283865068
5.5421655538498324	25.7445518296082732	7.3373993405671358
7.1092100460393386	31.0854185085549162	7.8888289531628768
9.3776517022587047	27.5178978123188820	6.5207488670492344
5.8749194212796843	28.8179759390973622	9.7190044481667766
6.7242213523616421	26.7029451039859715	9.7743184411379449
5.1456185843988003	29.4814573182985384	7.5062864510902543
9.7512767770384468	23.9634254113955940	11.6725025193821885
9.8604178705867014	29.3270631970635307	9.8538033669940486
11.0205600857191772	28.0147469658906729	8.7947606085518082
12.7756354635441056	24.8226343444576756	8.9624397202330162
10.4555681708793067	42.3716539628756408	22.7628337346697691
8.5609213491177361	29.0374483603433511	7.0962440861710672
6.6090458613671164	26.6998037503117871	11.9715666729614902
7.9155281619612365	27.9921234261509184	10.7175543339670423
16.1761021304347530	42.0320129367265309	18.7264698521972441
14.3144743943716204	39.5275935813050694	24.7191936905242002
15.4448888395561301	37.8957938872966764	23.7564603236811038
16.3717043953318750	39.7233802150328046	20.9105846361820795
14.7845789481543193	38.4808174052903098	21.1857794458789108
13.4795915999163114	38.8049059427937095	19.0557045756434604
14.5073431373827209	39.5909276430010095	22.8308792987489291
17.5239118706818040	38.4879087665764175	19.7964406070169581
16.7701897313819863	38.2022586970822431	22.1741996946365845
10.9953915299781038	41.2196307750728366	21.0036861295978383
16.0981617511248274	41.4120934391515547	22.4508394440745107
21.7488272505304501	28.7586403720772772	9.6679702888987364
4.7576655640190619	40.1326027008686239	20.7336754880177345
2.1174841889312033	40.1559244835921021	22.2623522365688302
2.6088309936750154	38.4690592494219956	23.4212990260249541
1.8861263891358593	38.5614159786154431	21.3735336460454910
0.5270155951948063	42.0114439289481183	24.6075008909439177
0.7691194956338315	41.4700895250265660	20.5088609915150357
1.1294552560764175	39.8123732229801917	19.1997591668761984
6.7825865095959310	41.0921735245700219	19.0398312693655605
5.2828498137827848	40.8826191641423051	24.2162440618599604
6.3986842177777685	38.3074990211442383	21.8418982684673644
3.6757080655792604	37.3195106521012008	24.4496013717003926
0.0891712943197140	39.6615206842316042	21.1734843342474406
5.1494764038830336	39.6394873153425848	18.7603677706027305
20.0613845849813970	29.1522870694272740	7.6200939183886041
19.2342137135694458	26.4938465810400565	11.0568850031126029
42.5217020934918111	37.4947013249963277	21.1172014554190675
20.7009260519358129	27.2234305094937810	12.4155285120154968
23.7879910896965079	23.8904717673306592	9.8356735523924108
23.5522211634584622	27.9134826030180356	9.0863982721342715
23.5207131110639587	26.1437600175157527	7.4109663005455246
20.6677230616922358	26.5675734852530177	9.4586743611556159
37.9961627169187253	31.9975476099034140	22.9758159216386915
40.4411803726064321	33.5254211832592404	20.3876142771133111
41.8402555010756103	36.6094136479157726	19.4893028571896778
39.0554611518913433	33.2307959533282613	21.5184480723331077
37.7032867787711510	36.0127118368328922	22.9472565381720877
41.7104713096213686	34.6736261628400513	24.4633069048945693
41.8520025688136599	36.7550887462373623	24.3205909684877675
0.1998259064651412	32.8989777902960796	21.0195224711310473
42.8333611399632446	31.3218745029359233	22.4350109192543883
41.7182374304121026	32.6350565744226984	23.6360813009934709
13.7039382804568977	29.3703301889700050	7.6781409039206130
12.1980907222245971	37.3491820287202927	23.7506185398985252
8.5156777204462788	38.5407375184808956	21.2269688111892094
16.1004327210086693	26.7402645308718903	8.2468871738558196
17.3564079825364530	27.5471417539040431	10.6909983530461226
17.6172023992652633	27.9772671658656726	8.4706559072125618
13.8662735242767727	28.9878770359804960	10.0143324577055033
16.0631912105261243	28.5830513255224758	9.8620893102708198
15.3370738146884786	27.3136340807573710	11.5432954230751363
18.7194004474725091	30.8150075056026722	7.3485787277176167
17.1428220408629528	29.8949082765644363	10.8916144520290370
18.1665854748037425	24.9355240320931166	9.6968758636371035
18.3893281925419174	29.1406619133211393	6.5225071850508076
14.0932693615407025	25.7729555274470705	7.5525977983764818
17.9395631938735107	25.7691964955449144	7.7123369278842118
12.2707430158910249	29.1082591135407363	10.8842117252094219
20.5209755281237172	40.1611882806686964	19.0660650782789567
11.4371725878602959	24.9426245108099067	10.5624345781340025
4.8084059529187186	42.2117794879383510	20.4233622460375379
3.4934192257336454	40.0983170937790732	24.6083351549034752
5.1326410558535711	39.2301010577291507	22.8138421967350844
6.9113312708884722	39.1820006947537181	18.1914217784364212
4.8653652735557884	0.0921523378217086	23.9387842140167351
3.7775138002391526	41.4964535945486119	23.1933801714647352
5.7760450118226663	41.0142993987003663	22.1636537132374762
3.4421318146850135	38.8106883118547117	19.6525497219323775
3.6718345155571184	38.7820087906130055	21.6804110953452458
1.7269562612077627	37.0423665126310127	22.6085413594181084
2.8920298363082728	42.2801660273509796	20.6526122295872518
42.8921426467531077	38.3990987495722536	19.4965128400149297
2.1343226591169508	41.4895722488135092	23.9323815550732419
38.5412633760370298	40.3494797278597588	20.3117898016448422
40.7260930094935247	41.8343160652385393	19.0397336590118478
41.2060680227786378	38.5384900430666377	20.4242479663590082
41.9515615461835338	41.7102274403679374	20.8839051712347228
39.2580397466807653	40.8730280524144547	18.0977523169861279
39.4034320903044488	0.5357039770916175	18.7184634840472484
38.4367191732749305	42.0021295296683590	21.5102908842997707
38.1075081516881013	42.6813365404918841	25.3058284096670150
40.3304975694356642	40.0194182497236852	22.8942873446621249
41.5597990592938089	39.8703530008750704	18.8749785680992126
42.6966225952185638	41.5092954137493635	19.0508940637935993
39.3056678225511291	38.6444505554639264	21.1476745531263113
41.0085090295892059	37.9699187435619407	22.3143920331279872
41.0603767904618877	41.1264256490820301	24.4051962271959546
39.6944381509137827	39.4318334227645551	19.1537960780476375
39.0506162810395949	37.0782742387894757	22.3230202305494139
40.4520507006003101	40.3791693741023110	20.5035263612774372
37.6858010221143402	37.6853902365301394	23.9922333063397062
38.8517851433826422	42.5664231189051279	23.6225374251154143
38.2065671610398638	42.0451519770858866	19.1719550683788675
3.5681106195544472	30.5124533780386606	8.2569048204335616
4.1848591168424214	26.3011790503835172	8.9582415719613468
2.1121840412055879	26.8083633958801499	7.6670973752625073
3.9862864642686930	28.6674248814547568	8.8683275835660069
3.9449870604498538	28.7744599186917007	11.4663760638834447
2.9481741212517441	25.9114498883920774	11.6572195116597346
3.4140584404080663	30.6640169777547307	10.1079006208008355
1.6035051610977040	28.6915218308316078	6.5950362890686849
1.0634428158613869	28.5749985730921203	8.3451732886597778
35.1872463415574614	39.2499513818316998	22.7848262283087557
33.2330413918110281	42.2771697046746340	23.7314129216738756
30.9464399619784096	42.3691668216907189	18.8497862795115481
0.7243070138188654	0.2409157924541887	26.4450210440933837
34.8385449745783760	19.2926155375372979	11.8665709434877584
33.9696697466585746	19.4373372800308744	6.6787599723672111
36.8566968500609704	22.6487713233223360	8.2796054285739125
37.3353878930500187	19.9019760950054128	11.1411499239680989
30.8888631686039794	22.7457396562762746	9.8891443841618045
35.3605628815988879	19.4363336683565961	9.7198477925016018
37.0972846555952032	22.3609165043325220	11.2447648058985443
0.5566837880003818	22.8975176274498473	10.8284349324987499
0.4941556886786362	4.6501409581355704	24.6640950627207260
5.6659869399272935	3.8583124496929213	28.3486524239070974
3.8545895769898260	4.3468290539028294	27.1878645928137175
2.8440240477930363	4.5272028581403507	28.7646731246946139
42.8666854655701357	42.3114342585934224	28.3506310309525276
0.7651871092657461	1.5437362461895250	27.9587162728353036
5.2364697399898281	5.4146855201664081	26.4911933562497808
31.4315720109044783	41.1931454634759788	22.2456751483891431
1.9819941718602325	3.1523571869158062	27.1519281567356572
2.0117363683764240	2.4724888861399772	25.0384526769928186
0.4514890711844566	2.3861478726089422	26.3443486685948898
5.9435258470841417	1.1216142953706991	25.2277590634353714
4.2937297009348141	4.4353388674825682	24.8665507220082382
40.8724117702844936	19.7540718272174516	11.9132167225101249
39.7167386185157696	21.0336483080060965	7.0170308603265186
35.8614038532869870	18.7901401093197435	7.5491085438651355
38.6995923016451258	21.1453549655170789	11.1780852184183725
41.5873072577911813	20.7589322320588998	8.0646820888295032
38.6004454169714677	22.7344497419868787	9.5558391826401241
41.7126201047359331	22.6349415798397047	7.8894569625300983
1.4835476462197079	21.3802243816138393	12.2964085084122949
39.3894792485081098	19.1276379994742030	10.4663302179212252
28.1821868831500097	39.2210855231985249	20.8495262199663749
1.3187553240802217	28.7675558744699984	12.6043897908459943
1.2861839251538074	26.8744453425248793	11.0722168777029815
42.6195887928965575	29.0597515941329476	7.2725400561340905
27.5151687960447084	41.4723496599584962	20.6776095479236481
30.6574107605321267	38.4878183430593239	24.7673033323418288
25.7755951120592712	42.0818479193593475	20.8438676723346710
27.4803150764925057	36.8458083123446656	23.6470448325494900
26.7522161758427224	38.2053799231684437	21.2010356386460508
25.5081844960915269	38.4048242848183108	18.2955903856581585
27.5238460733329120	40.3919296965400960	24.1343461559523433
26.8312384343190189	40.0478791846890232	21.7880590069507178
24.6308773032343851	36.7769529007537841	22.9110302604567373
27.4362287098410604	38.6782280688596458	23.0439525276631016
32.5014095653409356	35.6332557065944826	20.8399879228034202
25.4836865191480442	39.5213579287625834	20.2379988995604094
0.5365214113314992	25.6006067834754028	5.8256356301525125
30.7285966166248024	40.2382570850227310	18.8524831634532113
29.1584752184629288	41.2628344037959423	22.8245347474802749
28.8026569461587449	0.4123182315003159	22.0909326499951142
27.4071774230093048	41.8398150050831603	22.5545775860031590
23.5540925055040873	42.2439907413403404	21.5255754026773474
22.3386862281850114	40.2770017791730481	20.0470824536241885
18.8660060276386510	39.8551005612930140	20.2431557983814301
22.2734733627110764	39.4182992712110476	24.9199003281591231
20.1131506104440163	0.4475923461734476	20.6997565417641027
18.5041061112597660	42.7898774693914987	21.7121624199866368
23.3911340115687700	37.9212477914030828	24.2622019511126794
18.4000115009162784	38.9933325496464249	23.4261636857024307
21.7931798195781212	40.8144195923996662	23.7044612616689925
21.4730620911034258	42.1666966243501662	21.8780267643520503
34.1357438382719920	40.6405410039630723	20.0053950970410384
32.0716358175567109	41.1658297951941208	20.1292012106880769
32.6862295862905725	40.4265061446707463	23.4664254680277189
31.5661377082224526	38.2507193803296701	18.3142744291456765
32.3303882645428544	0.8470835507946745	18.0352000530528187
35.4368772583193987	39.5560472786464956	18.6444023406969244
37.5745180130322751	37.1015028449822566	21.2361308823478829
34.1929442644791806	37.9611438591528838	23.9994898186719823
35.9480967645181479	1.0609994873978261	21.1718687697704873
36.7455951333352360	38.5223630907339540	17.8361420507615698
31.1945592675088790	40.5094103620543677	24.7576657787039949
35.9798715376981448	0.0681316009336640	19.3502973720451870
32.6319586900136684	39.5444445684598804	19.0587278593157130
35.0237381900087428	42.1020238446196586	24.1003563686301199
30.6178634383294792	39.7802018172611795	23.0856245918536835
34.3733878616150292	37.4735172112727426	21.9657691161023649
40.2694233456426502	36.9125283267530406	20.6726677292499055
33.2131255264823508	41.5933820560497693	21.7378833841779056
34.8110810128105186	42.3941392831260018	20.6481349805002310
32.2266604117052751	37.1234945965409509	24.5659258834322394
34.2397139483321382	38.4778565109981727	19.9266406249915882
3.5602747166111635	25.4052682407670893	7.1971356729013056
6.1465590776800596	28.0700932527864282	8.1244705808726412
1.1677611655486326	30.4761755908823559	7.0377285636785931
2.0213902138345414	29.5810699872939082	9.7665946029827211
3.5354638225471384	24.2136402055027027	9.9031194901692903
1.0906871970983147	25.6781363934500000	12.5163953831496908
4.9888102562370529	25.0300459790016774	12.3716091231811554
3.5605095076878817	29.0418856897730713	6.6973936765583879
0.6111610236236721	26.1854005805921268	9.1398644274187024
2.3718695680217370	25.8467202484385723	9.4877431329135558
41.9736566942023757	33.4419408452967133	18.6050686807631109
3.6028655731599919	36.3343926765105110	22.7971778855566214
3.6535565713958689	31.3870011492603034	19.0249888109018137
4.0528943367452239	34.6081859007363022	23.5671163080362369
4.7383006158237526	34.9853590190417165	21.6949578389820523
2.3643493601131951	36.0665179293207530	24.2849760588362891
3.2390862609978854	32.1039348903851263	23.2013531096742085
4.8950734029188254	33.0479484577077471	23.0503708990984926
1.8225823021062988	32.0097752536454365	19.8050027318707151
6.5002941511562105	35.8763290336522331	19.4075465107158180
1.4858795134185838	33.9864191128783233	20.1040465123454801
1.2334967608377414	37.1978024368664464	20.1997684605958518
2.8148150774851000	33.3313640590895801	19.0669497725721122
0.3923600471963334	31.2640509678481990	24.2321346140166796
5.5338653469003116	36.8517867654685389	22.5200260587481900
0.3898096247105068	35.7311883784825639	23.5636783746620218
1.7794627538503824	31.0488616613859598	22.5042964059340349
5.2605979788705026	31.4543344894990256	22.1432658929453048
38.3233786888758416	26.8854025414287356	10.8811371643209078
40.6500336365912460	24.6633209435438587	7.8275609508813480
41.5067752963791747	25.8053621153223744	6.3936683919553650
37.0432769182338077	29.8428655401687415	8.6473754202154698
38.8096894892755984	31.1479104463018501	11.9555923260628827
37.0206963229492416	24.2259915171190414	9.1808822916040569
42.1952097866947895	27.5570748170199806	8.7137984105734692
38.1880877653611677	30.4876250156128812	10.0585508760751985
37.8866681685649667	29.2712333686738617	11.5706952947765647
39.2098507664066318	28.6935189205994874	6.3670020018003974
39.5399096817700055	26.2579363615577464	9.2298518880917531
41.2206269656958426	30.7913531910922380	12.2938012830974071
41.3225668111003301	25.9835368717581190	9.2364367679508241
38.2392680101499565	29.0255874116034782	21.4167117482144533
6.9598159101681576	32.5490801926243591	23.0646526278192496
36.8930602847302040	31.5641128128759263	5.2209239496104640
36.0046396741560955	28.8578377335913174	4.9566483179758851
32.9093613776330258	30.4515652081273238	8.5926172441177027
30.3325568937279009	29.3771864741092585	11.0178916887499589
35.3551041950656071	26.9190920463459555	9.9860828267965847
32.2634386431656495	28.4249370009856435	7.9229497906148643
35.6027199875111222	28.5316582124342943	8.7789536593171658
9.5417164116875970	36.7556184434806994	21.4545362624465241
10.2277062672360284	31.9034247128883344	18.7672969019747313
11.9769707257079876	32.5543492591030414	22.7179852871467993
10.2749547357662454	35.8563969455252192	19.3682027772667880
12.0445043758126644	36.3397800421659980	21.7593511929444077
8.7352754803889834	34.0430581041427800	22.4375770280925693
9.9590239599908692	33.5636094950985679	19.4525659385465524
12.1375828866322717	34.1861370079185818	21.3767843932087160
42.8555263943706208	25.8969389480899466	22.7423550556287495
9.0214625916662925	34.8384394208414676	20.5776107297351558
12.1612879764152346	35.8046960736721687	24.9653804740650394
9.1337370978708172	31.6898797134428918	20.5662903546077018
7.4160755013064472	34.1457315749234809	19.2156225097078597
10.4316944649791292	35.1276100504478919	22.1783052572344097
5.5331086614514886	31.0337355852445320	19.5135484468994598
9.4054744180835783	31.1541483185544230	24.0136344014506342
11.3981580089003725	31.7031545540751587	24.2240072218854081
31.8342378536176192	31.0396561907302484	6.3337269786338108
35.5723849212549510	24.5347195373957412	10.6592706519940279
35.2053450207440264	25.4571035536373209	6.4048129408741321
37.0771771784438968	25.8154679031908998	7.1531225688022726
2.1583895923480880	32.9718062247555537	21.5300249343688286
42.9366238623403973	31.2510542268297939	20.3132498331263207
35.7814954956920701	27.5047793046895812	19.8004361736515442
39.2840485641777946	30.0485791749714508	8.2630442911424087
41.8210488130057101	28.8046700515257221	5.4344929106578137
35.8816989110033191	27.1347688922385650	23.0474948226794893
34.9390952735532352	27.0483707343107262	25.0232935900838029
34.9414730695767233	25.6399908960772684	22.2650752474009259
32.0417222486598376	29.3579240264787060	21.4817606080097043
33.9921070166818922	30.0956208261118796	23.5116026601506292
32.1046104118276929	26.0429237775792188	20.1583134988981847
32.6752533708371047	26.0253341250406081	22.1806550116212371
36.1132835385498225	26.3546540686371671	18.0226911268839523
36.2079228215185083	29.2338035316764184	22.5390081784255116
32.5208947754351030	27.8835633382704593	19.7500066228884990
35.1644746660356020	31.2448890849374514	18.8192844594834980
33.9614380459693308	26.8615881463759010	20.8025330638720654
35.7128868820673659	24.8509152525986003	19.1858729985739664
39.4558393543057875	29.5181642310113794	12.7815908419394937
31.7511446750998587	29.6484591866488643	18.7734728300470692
34.6211890920369711	28.4498080901258845	21.8794306865005481
37.0031609062338021	26.5494672154176712	24.5155837602605295
31.3348874289460717	27.5175769151853800	23.1906831400981694
2.7760606902685629	33.4993850412242438	12.9961304495913996
0.1212717816335690	32.4094003097995795	6.6599404027275630
4.6278521692431198	37.0793500991000968	7.7941399625129382
1.4657899945268893	32.1689693723609835	12.3415314644448504
1.2249034121862978	31.4658282397044395	10.4125093333763115
3.9528254673851642	32.5172828586337843	9.4418196736829270
2.2272657331769348	36.3017713407704647	9.0594016868426923
1.8640376077938212	32.1657723787952889	7.1268138663110836
28.5977631702367141	27.3343256669751113	20.0610132694390551
25.0740515814242606	25.7060498385061322	19.5263808900276636
25.1973150023390993	28.9868030785681796	20.3003636604267079
37.7561629580755351	29.9584702925594684	23.1584486435682955
42.1323777596563716	26.2385886041305625	24.3952260003974821
41.4808406379529799	30.2675294547018652	18.7552685542285609
40.7740463446678802	25.0324241247276582	22.9675282454959131
38.6866716493908385	30.1494902073949724	19.3213903278233339
37.2578057110589853	27.1241592202012676	21.2754925127149370
36.8440853646982802	28.1930659491805429	17.9431470550587449
39.3822723119369442	30.2032083613856486	22.5754762594169804
39.0037441907297975	26.0552750627756851	23.6451860175694968
42.8971258266076205	25.9347572145555603	19.7699040938678934
0.0327034205970182	29.4286437167702424	19.8973999668585897
36.5886949862066757	30.9034559906734678	24.4241798670192551
40.8440146193945708	26.7757654501499793	20.1522694878783604
41.3611417524774794	24.7398363906485343	19.4659579222144501
40.7199603035216953	27.4855123396640018	23.7482300817962333
40.1867668843447561	28.3776253700151564	21.7809644024409828
36.1561274714348500	32.0703847667395650	9.6674588065772831
36.7089629635308725	30.3216673220416908	20.3566736970527522
37.1223600251230579	25.4443923724325245	22.8832016050713207
38.4956161031629804	27.5852266285551337	25.1234395425331698
39.0951621603969954	26.9881894604767041	21.1114450399118994
37.7728902894509275	26.4356703739704066	19.6857321230584219
42.2869854247045041	30.9033274656683048	10.6440351029113387
40.9080226215772740	27.7073886565620917	6.9840347406316834
41.0369547937357098	29.8182432118527139	9.1639400514357057
36.7806897315211145	25.8778367017375039	10.4395599215004324
42.3443511169358260	25.9265158846955188	12.0353286010069400
42.7565886509556776	29.1132288099458734	9.5522230078295607
37.4872643225924449	27.0226862990430519	9.0902046069669868
40.6606324329513669	28.0811421369070757	9.8577996944667721
37.6804215513641054	24.4988032464094374	11.1667828004144383
24.9846120867390589	35.5961668222195655	21.0193256663381653
33.1549163934459585	31.0763248075167020	18.4765748339267013
31.5412097564052445	34.4535081219764692	19.1648625172759495
31.8128476948717207	30.9193256057488277	20.1861501352119852
36.2527069394222039	36.2062376221784561	19.7681736801846064
26.9636062815832283	34.6526909503976484	20.3996973061654323
30.3153510764239158	31.1226941735573028	23.8659775864200050
25.7710214500364856	32.0243900106467123	20.4627494383385091
27.8813802758273823	35.4168168621813493	21.9616941132421530
23.8531305230144710	36.0766838566910764	24.7497366727680017
27.4141774492531844	37.8131682216505425	19.1994614149502105
24.4278406380211806	33.5742561128069141	23.8723110171141784
26.4000451405553207	33.9411915353283220	24.4557463281080061
28.7828380552435377	33.6781967162914313	21.2268968655941386
25.5935311970984358	36.6143289380580228	19.3423510309550721
27.8155887783131313	36.7146254442370363	17.5965158775527719
32.8895235580190572	33.9336850667449497	24.6441697064674088
29.3503413980842467	31.7054386387213789	20.8764818901262323
29.4771188890187759	33.9492015356118486	23.4202476275918379
28.2131256975725648	35.4480263542348979	25.0430279320016709
24.0038502175863009	30.9701330550651370	19.6379059677216894
24.9985402515234583	33.7801216426014435	20.8498747752623927
25.8002323123296939	33.0108411460226847	22.5151775000574190
27.0063069211687043	30.6323561183539681	21.4296534926886011
29.8801091858083083	32.9868553255543731	19.4033047625001416
25.3769504488464896	26.1030297258218518	6.7041797770154297
26.6440700580350089	28.8672862501612002	11.2275784271868009
29.1616151701573649	26.3053000954457978	7.3202174722911302
24.6796561216109573	25.1475753298894666	8.4626875693139496
27.2218496674715063	26.4449012357426447	7.8520698701320448
26.1148861859679755	28.0145412601265420	7.1356547678703039
27.2434230429222879	29.2608987934584519	8.4649692482690462
36.9706201200320024	34.1438605401311364	19.9116288215241326
38.5522958538833933	35.4417000541131628	20.8471492720922882
37.0838626334501242	32.6827638553052537	21.3228558402345918
41.0345243567615512	33.2981707143041774	25.5402840759762171
39.6855446512859018	35.6338085360268479	19.1629565661186625
21.5243729948286457	27.6251273782810145	8.2785388152179973
23.3198319422188511	25.6388436363431822	9.6494075445767464
22.2489867316554815	29.2436809502591295	7.8584431449876480
23.9752208077536295	29.0030034852289162	6.6402820447926700
20.3560734802395125	30.1259823918897283	6.1102319150298099
24.5211372403291854	28.5960776315915055	11.0596753263710212
20.9565263451728683	30.9208898478977829	7.7610274663550545
21.4888899176979749	25.9448566148747943	7.2747211017238742
33.4186989807780535	32.3116581358232651	23.4002383553839017
31.8078983244730757	32.5171562413774851	18.8226398927324645
34.1173451830900802	36.6682917803003932	19.9667883844020295
28.4237592190082786	29.1899164093549714	10.7198264545838740
35.4934545609903083	31.5725711546387515	20.8945946416630797
35.1506049297390533	33.4894431000609885	19.5371135898225532
34.6070647003243153	35.5622098462377068	21.4364672549923974
33.7507334848097216	34.3101968688807446	20.3509696537401155
33.2877502654151272	34.2941523076345334	22.7139979293861067
32.4414164190734340	31.1323959082001878	22.3142161558621339
36.2899521945554682	32.9383736195799415	17.8810493364171279
36.3413964520070607	31.1495084724570717	22.4708856688862824
35.4845564921808005	33.6034140788646809	21.3902842583106292
33.4028688239301559	37.7200779233167367	18.0729952097966908
34.7047834013316390	34.0158091177700328	23.8342455707381795
36.5964263101934222	35.4052392514640175	21.4509639743095342
35.5836326738214268	36.1162874278814741	23.0639738555201106
33.6294035598293490	32.9150092861505712	21.5255112341148447
36.0038267161631964	23.7666101660111231	7.1264335982052902
17.1261428547836339	32.1725691380006396	24.6936291639636742
16.8720371420187369	34.0294141580653786	23.9126047578677152
13.4744654379713094	34.9426555194640400	19.3053322580689759
16.3838731204778654	32.7064643313927803	20.6216717432925414
15.2557164812465551	34.7875538515425262	23.2812111525474847
15.4938481407560147	32.9114710653139824	22.3364950777229794
14.2172737435373762	34.4768328985753030	21.6161694871944619
17.5483267950433905	32.8880866310784512	22.5144570053048128
13.2922579303071622	33.2749537022127271	20.1826415166269690
13.9142607786678916	31.8243873144006351	22.7719431483506440
16.4009271537989534	34.2834010380141478	21.7760092234138725
14.6252785189895675	31.8035696199911122	20.7637826958874712
15.3526547524044954	36.7789363893615118	21.9172285596418028
13.3352446547053951	35.7114617436623902	23.1290388947927852
13.6621156552062448	36.7662152280897558	20.5033411750547181
27.8388001137170100	27.1237011404025878	11.4379128354703887
37.6680746995736300	29.7317798390427157	5.5553136832184888
35.8630418391502417	26.8934980724932586	7.9825167989691996
31.3558703518798403	28.1153147409557143	5.9498474643111345
32.0438277543821144	26.5941751474077250	7.0010563720863228
30.6177575510398086	23.9129844146285713	11.2793022839482777
36.1026760728219855	29.7458849842841779	10.5752758441729799
36.6492993043892312	27.7873139871594681	10.9984278857698961
33.9590754627907501	23.6548567088103283	9.4550266319122382
31.8954481156433793	30.2908665640040660	11.2966404748471163
31.5848618042181073	26.7775659123476082	9.1542287382587162
36.7204662653007148	28.6733056847025196	7.0114735153076788
36.7836090745464759	31.0685219859352841	11.5646496191564960
36.0031582925276723	30.3067321452115195	6.6383977521054067
31.8388154030485815	28.9022236258096044	9.6209645538898219
22.8039784981308031	32.7210106723388563	24.4522228762352434
28.3591230710189812	25.8323982535054277	9.7629219441896442
30.3123760494418661	25.1909512035561036	10.0101417074912202
30.9484292612868934	25.3987923633351826	8.0844091141085226
18.3932127333826223	32.8301878025981253	20.0091567971389566
20.2190054714209531	32.6416730927918977	19.8231978305297361
23.0019671173044671	35.0437664628093017	23.2371565085203464
21.7825916643623891	35.9802664466482653	21.4121306996319021
19.4426794784980643	34.4489078881246087	19.6560681403333994
23.1328304665260838	34.9450006806386497	18.2894239732176729
18.8829737554032633	32.5756896699086695	23.8837981017740049
22.6662715664433350	33.2026387293258836	22.5543035367054294
20.7954979406127940	35.0455925780520516	22.8227562233133057
19.0142883712387167	31.0747434299121537	20.7002413749365104
18.2672936239715860	34.4969926804175344	21.2852559948643183
20.6506442248392297	32.2533328346253683	22.8620008831357637
36.5589764113587492	21.1557738882005140	9.6972621850079648
21.0716632076479122	33.9411224114367158	21.2317017193150441
23.1476337617549532	32.7477437163339218	18.7419769593571139
22.1895204410842908	31.1280795647448372	23.2689601779007198
19.1033672210260193	31.0083919277130953	22.9311550955584700
20.1979510322002334	34.1669700719573655	24.6845453432041140
21.7987151259242822	31.4351949647154072	19.5285776335081884
23.0448526818389929	34.6506168211571364	21.3299973519022252
17.1890758133464807	34.4738826766755366	19.7983157236716316
21.7767192491381181	35.1386612924612436	24.7834730348577139
19.4000847474426976	32.9238238294307166	21.7692005466421357
28.4228798444329733	28.3404107648109864	7.1679412164461249
25.5190833292918882	28.7133485415774778	9.5365847222453706
29.3521482795738500	29.4331156793720261	8.9694617828428829
30.6004730519282795	27.5412425605225089	7.7550038200830915
26.3097047589520656	8.3234015785676441	30.4376161463533741
36.4422454408960377	18.0047674561426518	12.0490859528250933
42.4002492220663001	17.1408409004599243	11.6565264331843892
38.3135976657683699	14.8543715423512932	9.2984627708077383
42.4417044860287760	14.2036752950109477	9.1200471763045936
39.9120863184428813	14.8788680830931401	10.6311480878449753
37.3190175275660962	15.6149791216060070	7.6634064403590347
38.1249187912629850	15.1149062788987258	11.7688171228551646
24.1154181730953141	7.4691907551257550	28.9213128456177841
26.0521752126965751	9.7468945327577110	29.1634626442623777
27.5418303933968360	9.8690106311452954	27.7081413797928100
26.0172406373712413	11.4074125951326675	28.2578489280008682
27.1261445421236118	6.8482642427716938	25.4658715404654856
30.8915565686330424	9.6557586353610372	26.0620302482538939
25.4106857658267131	7.5426810755360076	25.1783455580348026
23.4872809685230663	6.6757760428376152	24.5276440535338125
39.1699755108714953	13.2595835811794434	9.5187558838933004
29.5078275120545683	8.9406950541072714	30.7866967154104607
30.2015345292051975	11.3248548629494028	29.5095907479724318
24.6456045064941947	13.1790665995943623	27.8458317338523358
23.7178837295125255	8.3841179673258797	26.9679290822073696
27.2457264625233364	8.0152087073163170	28.5522440533793223
24.1413022807978415	10.6411580606048908	28.3045041592486086
26.9684348987383515	9.8858786815651634	31.1282068789845532
29.4032333863814053	10.9284780574249840	31.2355803422160605
31.2762991684198397	10.6502312869994302	27.7656029502316528
30.1402661116267616	12.1364778025923687	26.5635721168934182
0.1395156312846707	22.1087096342278677	6.4918099383323788
42.7872906949059200	18.9553267236734904	8.1930440484304157
1.1273441724719349	20.4728152517529836	7.4305202921001348
5.6046295277762734	21.0656067382271281	9.0742101353467124
5.4729716621499342	19.1439029495757644	9.7050624089298196
36.8577620943159445	5.7697169992832018	29.9688837495305016
41.1753284531533339	16.7540479052394033	7.6967350052479873
41.3822592578513238	13.1045477491083062	7.4986796204058574
40.4753594933626388	19.4164054363103844	8.5796186380960986
39.2906906526049298	16.2664801662802319	7.1039676328259551
41.8873888709170927	16.4063960876877033	9.6662312879008319
40.0890785111462478	17.5168365014500331	8.9766452597429875
35.2938428296401412	10.2256397886095378	26.9516362492752002
34.3088757975480547	11.9281797922531076	25.9692888450375534
33.3348802194295999	5.2127201510122134	29.6279312497657976
35.4005723472628659	7.2423672716871970	29.5504011935021538
31.9786370605879249	10.7367768007148925	24.4083223712721704
36.1721472499600765	8.9591643585345917	25.2355157242340553
32.2075455580445649	9.0199568754003909	27.7088434711886258
31.7900368719579376	6.2284081369824609	29.6789655708384288
36.4328479429127796	11.7819874573283574	26.5165331264682713
42.3669990550939417	24.0606262610638701	6.7740969214161462
32.1131709648778312	6.6443591054807882	26.4041395424027066
37.1155936239250650	7.4899414612854516	26.2982945026378090
36.3126350959898971	10.3810641640367152	29.0433042036342997
35.3808159131671331	10.6996480412666326	25.0663979302447402
33.7465611562424002	10.2331864025502313	23.4699770203578950
32.0748257244486297	11.5976133537146637	26.1266254300949505
31.5160560292139742	12.5722709631379370	28.5118045914896854
33.5023438275776329	5.6241804855968134	24.9533591115213653
33.3312791349259641	7.3532388922036205	28.7366859082532216
33.5134562435746162	10.5087837704634968	30.3712621461063783
33.2233482023442619	11.0692216177657592	27.6018276931434379
42.3734907090072923	14.8273829486706070	11.5686633521678015
36.6366399546201933	12.2775517562026977	6.7292680956791147
36.2961352628958949	15.9191390606784946	9.1842470705226713
15.1949252555290073	8.1555480486606662	29.3283155757179905
0.2676827332094295	21.8044719352007377	8.9077964967403442
3.1018776979373803	22.8736115763423840	11.7060765371253126
2.3197268228244075	21.5663008591425971	8.2279563216464968
16.1951997055240220	10.6011669579565115	24.2721426289920146
15.2971501957101648	10.8328256298383501	26.2507644554896871
16.4022871927986209	9.2532520522081807	28.1710757928687485
14.1860891828111697	9.3034133221812549	31.2512038982949250
15.4629493954925419	10.1471828809927445	29.9604319545264666
12.2759835883169988	6.5907483368249373	24.9349486290994591
14.3979608517447915	11.6058808527337280	31.0459128074053581
16.4133990948344035	6.4550135058444837	28.5296955191783965
14.2050333445539252	10.8662727229645295	24.5067935002575439
14.1896158642836756	7.0142963290187916	26.1900756957957057
14.3099116186750148	11.5496416375899784	28.8898523933245492
15.9476012688059203	7.5746767274524105	26.9541678572854906
4.8797662389977816	23.7463221430270082	7.1673217731015058
13.3132185984784908	13.8789669464303795	26.4481276963588030
12.4622966514609370	11.4590681419803513	29.0327782891320041
14.2101911917116546	4.8994236236150561	27.1211276785986755
12.3586350979804926	11.1618777658497077	30.8169335072384492
14.3594647134299347	8.8935550706343030	26.7409489524238602
14.6372980237892971	6.4381345158420515	28.0347869673201302
16.0923729830152169	7.0712564598726919	24.8597313123330750
12.6770323088681884	6.2409494163758961	26.8566537185475767
13.5030807823450640	10.5447806505776587	27.3132696628499758
12.9829714969059502	9.7000135553524682	25.5670235115452371
17.1942613344681341	8.5901194270922261	26.1340671150335986
13.2585856584161981	9.8354415601379017	29.4528535953255819
12.4828881202592186	7.4129173761780933	28.5613171499683638
17.7393174306596109	11.6834632884936518	27.7886263169740921
8.2897856215974457	21.3621486362226634	7.3055958791326141
23.7471111836720858	6.5871619025168044	26.3176745931765907
3.9854417139157552	19.7602930725813657	8.3864274142961204
20.6345095287437310	7.5306381708636403	30.5871150241823244
17.6999813865459856	12.4863040080176173	25.8274795818642389
19.0175262402229883	8.8896585014242770	26.0921626131063498
22.0330994360479302	6.9403760789546638	26.0285113367379743
22.4362702106673879	10.1102393994033850	27.9239506174639729
22.6944096547843657	10.9936194597596284	29.8713290585398532
22.7258803456224925	12.0221873380844713	25.7645083853574093
18.5680174639491042	6.9177601192788503	26.6270686574451325
19.1872452006849343	10.7622099544276164	28.4445596408853874
19.1562369098654806	12.6370183089888144	28.9857528986132884
19.6069451894162761	11.8045278024250742	26.9381596914056267
18.0941632563493613	10.7262185336252838	26.1903890776929629
19.5019243199536909	6.2211370179930325	29.4122990052993281
20.3814783544595848	9.3918214125848589	27.6749633767778533
41.8108022574604021	8.7810089949053030	31.0321372297475087
19.6733689466943282	8.5658973997140908	29.3560693665283488
23.6947056483951997	10.2759352087921876	26.1300409591571636
21.3235578359002460	9.5511840165795707	29.5026706225912285
2.8723215115244476	19.9208423855734935	6.8529691943462003
5.9305496045388013	21.6709657144446304	7.0479546944301434
3.1272678084409544	23.3653820793450748	7.8127650193058811
4.8910179583224291	22.7090614844086325	11.2487182398886461
1.2436637290001311	18.6424581076698885	7.0642210151147431
6.0077861665537604	20.8322632609688760	10.9093422704623197
4.7333028197802003	20.0521641164979414	6.4121201493631057
2.3012573605487980	21.9509235965495897	6.2536311446014237
1.3617820599075352	23.8280094157155879	6.4593324810118249
4.0847510837133170	21.7064296034226594	7.0818228883364158
2.0524685067602779	19.4304769594167759	8.6753952698131602
9.6424451072912820	17.4834400880860983	27.8117671435297673
28.1097495276024212	17.7285487538768436	9.2438946897969974
30.1747338566382162	18.8825993929436535	6.7755944417064686
9.2067779646132699	16.1345738143658153	29.6947708876559062
8.5533202369579566	16.1590386351382271	26.7923177883384334
7.1012530243643450	12.5901769293981296	28.3959697271304385
7.6297506611166188	18.1275799486638718	25.2678532262615931
6.5735698464738643	16.3099753168373489	27.9651862591063676
11.4698921173754584	18.0805203103824859	30.1335743029678476
5.9571441189553314	13.8142384850298292	25.3821046906374725
8.1175701829896862	17.6950299678932517	29.1154176993850662
11.9072157614345233	13.6499206270692230	27.9209982015663556
10.4882392425436404	12.5249124860832897	26.6586109048423907
11.4051953161628266	14.0121556143763364	25.8764705075929342
9.2199642417725460	14.3403947646405374	25.8141492600221056
9.0907654681284260	18.0129871728801909	30.7443907213532519
25.3067722063902210	12.2477677296164611	6.9428000507063210
7.4821145231429860	15.2673818163879549	25.2428331537791770
10.4270014205694554	16.8377120086692038	25.8641187624148507
6.0888450528669136	14.3190222400135010	27.6528415816194730
7.9737097244408810	16.5892392333605834	31.1395155308899483
31.3501421860830192	17.6485714741151440	10.8140669089189920
29.9410758089244062	14.5682123575694309	11.7100151102534582
27.8815174501647753	15.7766570203208012	9.8988023567160344
26.1818349244056172	17.3284720774153200	9.5233249415953924
29.5246998250978336	14.3964439766605885	9.4078365948297336
26.4215206173556716	13.3187041561839248	12.1448972594232263
30.1829972761849774	17.0412894627316831	9.0452224911712644
26.7839648028732924	19.0860876733729228	9.3493958346574715
29.3952221795996209	16.8797876578871247	10.8064447834271125
28.7072735499054943	15.8687430228600519	8.1114622694269745
27.9470979478356334	12.1349281101994837	11.4120813485548993
13.3516694659744228	17.9342809273903647	30.5325369515001697
23.5335795441642333	18.3562219429283502	11.5236280062088756
21.3959943448693828	13.1449833530691720	11.9429890160250238
22.0915579691657591	14.6366561205856627	10.7280659993950351
19.8781573796695810	17.5969763423788343	10.0705615261066033
20.6850728408538451	15.2891979393287549	8.3327597283972867
19.5435474321882268	16.7264246746916960	8.2708489033581376
21.3488249937996351	13.6671455023852122	6.8866125245873961
18.6461898021441392	12.2905070984655804	5.7666963540275589
20.2660139535722372	14.1972795500770772	10.7010525293806840
18.8473460574176315	12.1113060213107300	7.9336031182072242
22.5576836095813711	14.3069720737456851	8.0716267932406112
18.5265664217680559	15.4220900456753647	7.2112621828178050
24.3482227031197880	12.6809433860141372	11.5527211642302934
15.6743033269022209	12.3463839755791849	29.8024054920573143
17.6116114798874790	11.7389578982486746	29.9358168123226562
28.2102328605299526	15.9061521692387444	12.1010960292760412
11.8298155041060351	14.6092011425190069	30.0946528947839340
17.3698591696832203	16.2894950538691745	29.5296883111208786
14.5693712061859770	14.8884008532104719	27.5224402913977535
12.7825925560498685	15.6107902357041297	26.8660247842776982
12.5190209387068343	16.6088270334357411	25.1780908599341373
15.3300144416944910	17.1403310161146187	27.5472432093423087
16.7257873946669982	17.1763149466421936	26.2216670660647253
12.8816776489810696	13.1189442000003904	29.7174363898861955
16.1680578951096052	15.5540221082509120	27.1238442254669572
12.9183927458391583	15.0415049167446213	28.6386298403635280
11.8132178751271280	16.5585388852988160	28.7941741808035907
14.5187707980446596	16.4918295717028798	25.8735565631428486
28.9514367248218996	14.5570371254939488	6.5702784553498912
26.5610568147050330	15.7497698599116127	8.3687633028630906
39.2272016201389491	11.8774488094598869	27.1968474475299296
31.3137980167836147	13.9267703614186100	8.5946543229558490
35.7331772413281641	13.9736580349693309	6.0690911782448937
32.4722650848621228	16.9670298299330149	9.6100525699072517
34.2784500714756177	15.4612124408239922	6.1958820453781085
34.0427995791973288	16.0001699367689518	9.5828265235448775
39.5118570056747345	8.0425491577380512	29.4982040681166779
37.8507980736349907	10.7126942000710681	27.6465491036133741
38.2781338190174978	7.7273102407893388	27.7451102569068659
42.3858182444854634	7.4651506789779569	27.4691929075089085
37.8099185948270105	12.8796008973680269	27.8049354189468971
37.6464241415052854	7.4428808903644317	29.6325734176339886
41.4303239763377675	7.9734905756032255	25.7353157115370870
40.3178028701430264	9.5401096351125059	26.6245895352131257
40.7003335851256978	6.8509527865604305	28.3342592264641269
35.8253891941754361	12.7481787444458572	24.6296936926788348
31.8472198596108313	14.6273847517985462	6.3928419187588963
40.2436484269713119	10.5813657949038422	28.2942616164248761
42.0008725278439314	11.3694830339904911	27.6182950088927193
40.8089002078676160	11.3913008637560296	26.2088635414576601
40.4788935471166695	11.8073109517959836	30.2726007272321560
42.1087508629529736	10.0376716728619879	26.0713534576853831
36.5818068032436088	9.0305509840542317	27.8097014666548574
41.2468896868371004	6.0123673178905079	26.8222343671208669
42.8095497392721001	11.7498398590989250	30.9015272463529627
38.8337278429634765	11.3116462107153417	29.1322309222726972
38.4563930112600758	8.8029711691163222	25.4496527661120382
39.4256694599137987	9.3033291416961443	23.5861154721971822
39.3875958515655356	8.1073519081770637	31.3263871522610984
39.3139116744611385	10.5793147522931523	25.3262787516124384
38.1198483445612624	9.3629888921534192	29.0507972938826136
2.8214455409004437	16.3617312896640286	26.4286330001535070
27.1618890603565184	17.3234944662150809	11.1431579834907097
2.3987748985481132	11.4257596334110207	28.5095495922697175
4.2658693202268170	17.7374328935392498	26.0295243141061370
0.4425756824535583	16.1598306254550934	28.1706370881707322
6.5457523016232857	13.4011190674024636	31.9200933906784705
5.0778392654361335	15.2583757352191078	29.1803768966646828
1.7464153358158969	15.2357664884959600	29.9664407898601084
4.0190018462453470	13.5316182656070332	29.2826385901559298
0.4706998643105216	13.5528782917081987	30.4730234379029525
2.2630248033253033	13.2224719347660997	30.3847109842073131
4.7131779990766827	16.3874570774158137	27.7604208726391555
4.1896154760048709	12.8187579686721573	25.4856893337073984
4.0303891937974150	14.7600422126696227	26.2447534507482132
3.2836539403488829	13.2934410345317566	27.3939543147814284
4.3216454121606187	16.1384934609221560	31.4924870221566877
10.5576438040537308	22.7060413422000273	9.2392079460876015
3.2160611324278090	15.1994854986885422	28.2115693931960578
3.4997864087808566	16.1149177206892098	29.8037536801671088
5.5234217086695017	18.0824184758279465	27.7166902556726669
2.8529924471659305	17.7234324762707764	24.6879541283705279
4.0087673026612691	11.8473531904993923	29.9615540689806359
5.8315215902818691	13.2612090750532730	29.4918895360677702
5.6052365406977565	17.4138174574643223	29.6100818560652144
31.8268336688409086	12.8921112083660567	6.7924563815959367
36.9186886529929481	13.3524486734562089	9.0672606932563777
35.7099747293416669	16.7059301544182475	7.1248679493020965
33.5209953136328664	16.5798800603811252	7.7109030471667630
35.3359854264469249	13.1005911147715004	10.7580710855210580
32.1902533643639330	14.9529293249799640	10.1992346888642302
35.0756391565660408	15.1801866847971283	8.0700481482882331
29.6309891477480214	18.6176649774739253	10.2826229077159184
25.3334619238358734	7.0415615297837846	27.1946569744945457
24.1718205692958428	4.9139327250738951	27.0931242832648245
26.4254747348065884	2.6048320842957775	25.4716097682170926
28.4075454022963569	4.5595824716551565	27.1619976611564447
26.5774408870987280	1.2543988937425059	28.9625014666473142
25.1638138783847509	42.9711653983509478	25.9296925146331674
26.5846198201820876	0.6430375013935197	30.8497235430722441
25.2992889804493899	5.7584667646355090	25.8150721092744106
29.7240124834950912	2.2937276571864573	26.4842923552534799
25.2677175921097046	19.6059983388033920	6.5737291446025479
28.7134524621377381	20.0732771522373667	5.6119399294180159
25.7395109576255834	18.6317252333707515	11.9799104421127804
27.6829084794210196	21.5384687126997179	8.0069784012412129
25.4927728978825563	23.2839331652341563	7.9243310913121334
27.1196558134637868	23.5116547832657616	9.1573143429105102
29.7120881847165812	42.8935940270299767	27.6338419083278595
21.0595698236380144	0.3689703177596241	28.9398769691191475
21.9658220853424773	0.8464059777799696	25.2919386543017950
24.1691057037107946	1.5486571168467922	30.4857583679910817
22.4638963699096408	3.5664330031966438	27.2929334282365019
18.7966313821149313	5.3857101570347359	25.3245416963059142
23.0036826199756419	4.5985239148798600	30.0849471806837414
23.2931704863739384	42.9543104394557318	26.7056457526553395
23.2088159864210866	42.5830479154293684	30.4540974241132005
18.1024295153100674	2.7991903414975536	29.8006458737634539
21.2828522342764472	0.0566967443214844	26.8629902646454717
21.1476463946141990	5.1964238986331388	30.6382075166105139
19.0918336512636984	1.0969110337905172	29.5983990457727053
21.8264870947733911	1.7730856893615941	27.4439236770869499
22.1168908412588543	1.1338731594648266	30.3131738176114602
21.3365166910844302	3.3341249044887653	30.1576254408110671
18.8333142580843145	23.0492109182638245	10.0652800709521788
23.9794322481924524	17.8389058276906063	7.2057515973156576
19.4954929843746498	21.1605818098615828	7.5122006328227124
20.4388880179387868	22.4833128216547280	6.1343183924564064
21.4097303535049335	21.8559884950278764	12.7762897621917269
19.0354463536937821	19.2085989390135836	11.5060216379306173
20.5326597758354694	19.3136342940512264	7.7962265574078398
23.6634109748807937	20.0757381267031434	7.9206686743077226
22.7885846735859658	22.9429543752348870	11.7411378033859926
20.2201897789177316	24.3688457443141928	6.7688550867985766
19.0482551116015486	23.9447478752615197	8.4371559996833607
24.9315198872269406	19.3340799514961255	9.2326558923998316
18.8098418623363024	23.4401192778794218	5.9105566031262722
21.7196464462402297	25.6575244828872435	13.5271487071206522
20.0825610093976472	24.7451463573399266	10.2524867214252229
24.4452695061241947	24.2863379884125088	6.5998396584750054
20.5412422767472513	3.5321218250681956	28.3035298316815371
21.9765637670635385	23.9258919499218301	10.1991790393629316
26.4966853146261485	2.3856510641590440	27.2924674975275288
28.4269599744763610	0.9464201654177907	30.1428843239363857
28.7751411171415299	1.4277337113849200	28.2520109955303056
27.8030325662044220	42.5536983345032098	28.6697521885727440
24.8357809232410531	42.9668899380307252	27.9440875652385152
27.8709106049665891	2.9492298972760462	28.7637890965267111
30.6764338839742905	1.9072501423867179	28.0484244241557654
27.1772527431754192	0.8661551526550738	25.5945439707642350
31.2787997785477927	3.2815938106011431	26.2721873392736001
28.0035800542177213	4.3020889187472422	24.9919969312764003
29.6979838472079862	3.4789035271479993	27.8455218361831918
30.5579952463509166	5.0827259259639463	26.7048628418784446
29.6575414960293280	0.4537668443878677	25.5891814404597753
34.4689363126124846	21.0491123830059514	12.7241454624778321
11.4016610101564098	3.1786911399975741	25.9647782219087482
14.1303205500105236	1.6751505927712984	24.7568275053202136
12.2685380617835573	1.1968215371392432	25.5779509652283537
34.8975945789361646	22.5110727749226278	10.8444440429483393
31.9661878088175015	22.0215182412608002	11.4283265459242731
33.8774838417490614	23.1612243533607334	7.3313803702575910
33.3424313432673500	18.7814045223629549	10.5952319588557788
33.5150274903911836	19.5089162905177602	8.8140585294095359
33.0862317062987827	18.7412318176735582	5.0710743680157497
36.5889643609738329	20.8179962532011302	7.5089309157607786
33.2498695158108006	21.4443763826082261	8.6024602335415850
33.5976571693483095	20.7915743773718660	10.9238199666667359
32.0882755296415638	20.8714890463671914	9.8237878787206920
32.2194899108113475	23.7192482595420095	8.1090948341788156
35.6919358373411555	20.9363365014830336	11.2973821521106448
14.2518114928457180	1.5027873791608388	26.7773977886934311
32.1410722983135670	19.9548730474447353	7.6518779050143726
8.7459141252969790	1.5228455641512513	27.9048984384275265
12.2827185499343408	1.7079441176345678	27.3033439943716125
9.6700386233716280	4.5540153179331808	29.4635360663743953
6.9210920390466510	2.1732839014765877	27.2299558265682080
7.5196723470764661	1.6870567367005460	29.6804058500193335
8.1119749057083137	4.1214166514304260	30.3416914087851559
5.8298361468581508	3.5819406138332788	30.4437062120146429
10.5407972176468654	0.9151436794736753	30.8953899879188114
9.7573553796213925	3.2172759517206866	26.7702408749153626
9.3245071467630058	2.3905594573500069	29.8315771147256292
10.0855639263968797	4.3596602632788759	24.9920044892745707
8.2251272429103661	3.1691286886721719	28.4367450923691258
33.3252536360164484	21.3024321870943147	6.6032438719025954
28.3047817157860777	19.3804829618132182	7.7183056004056416
23.7542011937069830	1.8361888622364444	27.0338102100555595
22.9237570940392672	4.8114444875826408	25.5841304831611183
18.3489520271705047	2.2251574350908863	26.7068342679912476
19.8792473063225223	1.0169129124431397	25.5095567642100569
24.8506206710429467	3.4909917907521875	25.9579921221670915
19.5141053679327854	4.3628678138319437	30.0256397785157567
22.4567679143503796	2.6917300444278336	28.9078128638791441
19.2720205105754196	0.4705286444244211	27.8935145921971142
19.0943430432481769	5.1249209814811216	27.5359471070881447
27.3481750559777836	23.2871291914014655	6.9910499557539625
29.3014876681584759	22.6114565204696483	7.3210164531637005
29.9552997457238597	24.2573541477519967	6.9843725439211761
26.2260222826621394	20.7158626250416660	10.5609259240008502
27.4684847687034051	22.4390212311426644	11.2123568848756001
24.8135535572224342	24.9877062511066477	11.2761596075108521
22.6651759246987865	19.3707362242916759	9.6525830527043137
29.4772286632766694	23.9342600406815471	9.0468059067294888
31.4697852713103643	20.4762211072154585	6.0019774531559458
17.8277526764124623	4.9985774938810765	29.1562681196833964
15.3621990366274126	3.5028673823913312	26.4739177627245184
16.1079141890736572	1.8086305092347879	27.1861988485044641
15.8373585114697129	0.2502017339032606	28.8835790565677755
14.2188018355119699	4.3450900531619965	29.1854419289475473
16.1378166566867165	5.4873816524203072	26.5811300421781489
13.2342292837926880	3.0896680763131079	25.8652286595801364
12.8831537747083207	4.7839420709497240	25.4577654594017453
15.7618887285383167	4.6689594916184403	28.3012402154510774
17.4135984276099940	1.6204560581360612	28.3608308938106894
13.2864579149755269	0.2223067459342460	28.2186734277933233
16.2790818896876317	3.1681800808164140	29.5663828809902682
3.7051755557478385	10.5924368890238938	25.3333275953471251
9.3200570792516402	22.2869716988490474	12.2322018386946034
11.2834141406302759	21.0026621259354975	8.1290649283723635
7.1831586505116736	20.6693524278999661	5.6813385771726441
6.9673734368424194	24.6626122600044368	6.9256345871960399
8.0126352252083510	21.0316934121027259	9.6302367379096658
8.7851742600356015	23.3202255739201121	8.0931229229732899
3.0507695449811578	10.0926880992371544	30.2372651210153691
4.1305759212003252	10.1493417660016245	28.7353540248026604
0.4883290784365497	9.8076950442298472	30.7506246585152994
3.4351792893270057	8.4553854126045760	28.9028815282171223
5.3272685697165842	9.0016976676832066	26.1995916504425850
5.4527134167340039	11.7158580963752232	28.5780827408456872
3.4819565342605423	9.5118755867975917	26.8621809616464517
1.6357698725978966	11.4266457733185867	30.3816718853351446
1.3888580058069013	12.7343861454755043	27.7978331982272273
7.0615842163815996	19.0630974004909000	11.0291115804412492
4.7772994262030082	9.6971573690664385	30.4414058539832588
0.2222785532675894	11.3870316762801291	29.0491999199757451
4.6612440436252616	5.7100162809741448	28.2710130280358705
5.8379465569020734	12.5161902752419785	26.7829066780977563
2.1672506459866288	8.9607738280310656	23.7369637404270435
5.3829439481992924	6.6125861320404997	30.1836887342052940
4.1560541345322237	11.4222737076266352	27.0344862264066492
42.5990115925674075	11.8305289568614445	25.8229932711191665
42.6550999467582486	9.3026297152293651	28.8788181047226935
0.6979910044935055	10.6489205896113344	27.4459642706106095
15.4718870703906948	23.0716391767674160	7.1082533977592153
15.3062348033806952	18.3719007377170698	7.6506629810212061
13.5928087735530578	22.2563240360139609	6.1347641077397990
13.8880985981121956	19.5934316631144974	8.7298571476484792
13.3867162611013111	21.3277269943980308	7.8039186562635861
10.8858182958254961	5.0082351442270987	26.6340464653324993
8.7799127563407602	22.8110893198126838	10.0706266449008677
6.7401771797023411	22.7316619556184314	10.1695612681689074
7.2096190170197776	22.1371370004769084	8.4897839575779770
12.2874307469075514	21.0750705644816279	5.6582401881339903
6.9937109382329146	20.1680193809633899	8.0802251410645134
8.7478069441508293	20.4097725526759213	11.3487218969716821
10.0582105146426439	20.5472802440523239	9.4492809377413476
7.4364389342489403	22.7513029538251530	6.4345207227993786
6.2784946835379341	7.0170334629980422	26.1058186410105648
6.7167499087870910	8.6903987978691077	25.0938080161934423
6.2929349469606120	6.5606138050738876	28.1763138730843359
9.1160263191254653	7.9151258799486088	27.4580106219897893
6.7977074955082095	5.8913241161551255	24.7942819664233554
10.5675307552812665	6.6003196610881831	25.6742190588588208
12.1785351141344336	8.2348507867958052	26.5429606952558395
16.7502306324169581	21.9449463521907049	11.0655588923597108
10.3826353746248969	9.6075485906469904	28.2196485740892591
8.6267313449101124	10.0311310057978815	29.3867232055933165
7.0339052453024307	11.9418968777144237	24.5243802491754899
11.0541346891574932	7.5945403880752300	29.6736533024118181
11.5045404235651212	10.4789932632593068	26.5078274677682018
8.3733091220482709	7.0793882778059594	26.0494933898942840
11.4812452207822595	13.1757507180931821	23.3710754502785854
10.8728601571337933	5.7101233085626175	28.7616515971806805
9.3515382412467325	5.9225230122755246	27.5585619308372785
11.0388341955784615	7.0943190092919943	27.4751512556513653
10.3687771106510525	8.5605087405953864	26.3162898657164632
11.7350289630134910	19.1798233760391739	8.4674822478883502
5.9061623483256538	24.3979371629510702	10.1861018268057819
8.0738522030082258	18.9357008327193377	6.7102819689028861
33.0455920423149152	3.4178636353262708	28.2424066058157486
16.7453383504250866	24.3327713487874107	11.3425408449064324
16.9352991897238354	20.0967998067597833	11.1436666623628806
12.1148748665277619	21.7499043549830979	9.5781099020687712
15.3501383239309686	23.2139791112308274	11.6599646435859547
15.4802864342784190	20.3463625561123536	8.1460163583875236
17.2361260155137579	23.1032267832319107	8.5120273420495085
12.5381561242390163	23.3169111299257672	10.3336351757634812
19.7026639590754762	21.3626241072019489	11.3926796207904264
20.3943895584034642	23.0750545837598686	11.3866799819408460
34.9609585688142914	3.5270790164702186	26.6209689697949266
29.6277027023965367	2.5129992531086174	29.7259199398031271
30.9442704172889869	4.1553539185859796	30.0321934734783191
32.6956048173918887	4.7582966832116931	26.6219472892463109
31.2515071861776867	2.0153841333328413	30.2552587801453186
35.9025089663319648	5.4552300916866825	26.6768749843805217
13.5499114864520163	21.5217840549699915	11.2044326398040361
35.1650394536082516	5.5073360207519997	30.5822113157040363
33.2369436331723236	2.4134264348310999	25.9687230561770193
32.8478834133592983	1.4122191545434006	29.1908616321528633
31.3437675414659900	42.9912164544471267	28.5490219599534285
36.9055660946728992	3.8143751617533841	27.2935768516364199
33.9165788077718418	3.2226284291445277	29.8211103588128772
33.2297611753871109	42.3925286913978070	29.3167316105558662
37.2121185351210286	2.7258806460949554	29.3581992110710637
35.3672284228810341	1.7085927588499170	26.7592231520228516
33.3981951991917612	5.9229511350089430	31.6207456397357198
36.2497125425618592	0.8570178720344219	28.7003049961664551
34.3272043873378365	4.7162155505536703	28.0056404927238169
31.1110848289639854	1.6620612658792946	25.3417442327394227
20.4432583181210177	19.5858564685526346	10.3113591261565958
39.6232713673919932	5.0327867200114351	27.6059815291175781
17.2775351546334832	20.5396689609079672	9.2786612613243591
39.5065406306735909	1.3180020222921855	24.8850014610686543
38.6671212104121764	3.4665451035602359	28.0911858990133538
37.0736588525620476	0.5149065756838048	26.9769035346124397
40.4449986801075596	3.4912955960248535	28.8936736797914762
42.2525671478956824	5.5053845584409347	28.4827544749348043
37.7212775812866283	5.7832360595796333	26.7718065302920891
42.3163617196010620	1.1126291622220734	30.7229514429995554
41.1743572850574182	1.8676092925755632	26.0048552827586690
0.3151025914660208	3.6870586138185448	28.1709433173876462
42.3232986448729349	4.2109918036741689	29.9009469047376797
42.7854711873352827	4.9486040242644984	26.5752578349448640
36.2766492843981041	0.6055487956844596	25.0575161982127916
36.5862975595946764	2.5760885906515161	25.5846977497477006
39.1512255773516031	2.1523591422000976	29.8540816823217199
39.1421963219818920	41.0706983455399453	24.8574132565520323
37.8945826617716435	42.7455585210639484	28.8461900601979444
41.9249811769358516	0.8160666199446645	28.0847081872361919
39.4963622128270160	0.2191365526383967	30.5616374022286408
0.7092067727034084	2.8028741077136026	30.1357390184614218
42.0921365220095680	2.4963793960070797	29.2583375140449569
40.0643106761756087	3.3182962700004532	24.9184403835261143
41.1335949483869712	5.5231091840831974	30.5946158707788669
42.0398113227005439	3.2631398168981591	25.1458035079305624
37.0347097330855561	4.4588539601424966	25.3296306605205288
40.9435185878013073	3.8291251876734087	26.8136071150977742
14.4701679613918621	24.1933682432007444	5.8403794006302379
15.4025522061998394	20.7266145051786559	10.4605571658071703
17.1173849806450811	19.0123151416666829	7.8844723125296490
15.1229934939521069	21.3934152469128769	12.1622191638310788
