Li F
 1.0000000000000000
    43.0000000000000000    0.0000000000000000     0.0000000000000000
    0.0000000000000000    43.0000000000000000    0.0000000000000000
    0.0000000000000000     0.0000000000000000   43.0000000000000000
Li F
 5500 5500
Cartesian
3.6092743963359277	0.2133616451913875	0.7485319832448235
1.8499877810950252	2.3554620648909590	3.0936917300899625
1.4548368986479348	1.9155952385280324	5.6050012067227426
41.9028404967211898	2.8223618882250694	5.2930334573206697
2.4803070281117674	0.2403983049097473	2.6463332676004421
2.3308021060478983	1.1022917434066544	1.2934361873070146
3.3522191262367054	5.7394396757504191	4.9001545120060053
0.1303329298951311	5.7973155584478366	6.0074205911440250
5.6389798244938483	6.0153178651536940	4.6562910390359882
0.5726640599445589	4.1856807704090508	4.8040168099739367
3.2452116559993893	1.3733432018441762	0.5579352707501796
2.6237712703675746	1.6466056860926321	5.3669123751370815
1.3025530801002956	3.0884842873831588	3.8460224661989670
42.8942839468958326	3.5486993403437546	2.3996107716566351
1.2877878119620361	6.4907637130473619	3.0294900586220548
3.0526992824557380	42.9184318237346218	3.6189577368939481
0.9410970972704621	6.9027703470883859	42.0711472926836549
0.5628959938595478	4.6368638317861022	5.9277425026709878
6.6617978581056674	3.2587063920255566	5.5725128732066675
1.2192592608537072	2.5868602094167081	6.6403473176580468
4.5148115612878383	5.6798427738520481	4.9130775667657778
2.1102985798176679	1.4048735403632444	2.4469758917049047
4.9241755124202795	2.0587864370354625	4.8489534065545392
5.9448175902443694	2.7828824654142146	3.5430429075059773
5.9644647673455369	3.8589916929396670	1.4678691329006641
5.5598523783827281	0.5962412484080144	3.3624817515158334
42.0821175066207616	6.6716201767497845	2.5641910872093727
2.4752356917679239	6.1838221309155532	5.5194314119128753
10.1137481133975786	0.0514681701001970	4.4870916662572373
5.8176496827564792	2.8943730398752141	4.7765823221438328
11.5850996378076356	41.9888493728782848	1.4846335863632740
8.6733967804588534	42.9251507219239343	2.8138447038719758
10.3970076926815551	6.5224192317660092	4.4620444286989542
8.5949883820574353	3.7707487037320448	2.3144029974401938
6.0145002776658867	3.2117922363825877	2.4466032996400817
11.5799845700440347	0.5573143624135501	2.9349149597914375
7.1290472177573037	4.3523395259147373	5.3668433699280715
9.4371989351001044	4.3572292244130448	4.3987823089585270
5.4170138429780819	1.6804700617692172	3.8044330929787384
7.1424074401600670	2.7503484609314333	6.5364225088179753
11.7338256627845698	1.8024276324926845	0.9039657404494256
8.9970228240661534	3.8526816420731236	3.3999105516516623
12.4224800530261845	4.9450609474917684	6.1521508613737526
9.9568489550453130	5.4370902621390744	4.1402794664804548
8.1370849153402514	0.5006085643314430	42.7446398682741915
9.0649905010015530	0.0453563713441618	3.9231404749362735
11.7081331321805919	1.4484795682164078	2.0867004497559409
6.5362243342237178	5.3130279384674424	0.4855552481187108
10.8491978349257412	1.9239597793823942	0.1326153530990553
7.9981463600943332	3.8036173767321464	1.3117112205521266
8.0063465829980949	6.1437816081673091	3.3924111339336869
16.2591968042196093	4.2334175661063975	0.8716728083649815
13.5758475426126548	4.8351448992188182	5.8629635064464409
15.2570960310916544	1.0784567428482288	5.5661627220255232
12.2879866315639283	5.1296727814088188	0.8777705275817973
15.4606588379734795	3.6761328901878785	2.5680267211608068
16.0629826903135928	1.4606013015346784	0.0230124335333537
16.9019621049584430	0.1930993306658803	4.1496015416753389
14.6553431828082665	3.1888919767994293	4.7146035394355126
17.9285288624397872	5.3969565491070499	42.6068857404075914
12.6354956805177974	0.7584500678268574	1.6923124808216037
16.2387705918037852	5.9993231149388944	2.7717069405105632
14.2404148503645747	4.5581893390560424	2.9527537041745342
17.2611102343377887	4.2345169758160264	2.9305985483099861
14.0924409931042565	6.1213975092519783	4.2614771086074343
15.3487401338819112	41.0778049106410066	1.8227450179843916
12.1265248172219096	4.2758815563474579	42.5149447175493052
14.2234364488569174	4.1062931509957679	0.6960982806564562
16.8273245765337727	5.2164068421650782	4.5859338000318157
15.9573938904908861	0.3457834990806930	4.8700106742211853
14.7870071027087171	2.1086348140672024	5.2186490446997151
15.2736228705360322	4.2676026891514525	0.0981815869149089
14.8209399701609534	3.7034839723338324	3.6218966350156934
16.5290436049787886	3.8636438265155144	2.0005437408984759
18.1100326353045631	0.2173489001804502	4.0676195211268311
14.2942833229039508	5.7528491518525726	5.3924311199857584
15.8330368614236097	2.9450655563141410	6.7395205041391346
11.2531603602285752	0.1808388620295587	4.0357753156181557
14.1172265830776329	5.7220835505256034	3.1571940081516563
14.5620706460127618	4.1381171869838340	1.8632495190822220
16.5030022625820294	5.0694536545633291	3.4306174233278064
21.5606593922366123	1.2017024846275217	0.9617486169360621
17.9173444246726170	0.4752957388537333	1.0557044146231718
22.1383322253335102	5.1830546880154786	3.4938395746135718
19.7078946402789370	1.4261521128943071	5.3719649131765541
23.1944143406888514	2.5515168626668241	0.9453964557822233
20.0456440104978419	2.1954966889604139	42.7311828354741650
19.4633153681785913	3.6939143363465652	5.1069743701340693
20.5346915720132266	0.3664900603835751	42.9854942299301612
17.1552504184857746	0.5789367943113215	42.0394596031027632
21.7231980793122652	6.3998750304977001	2.5345418411128220
22.4929374438675787	4.7123404012103833	1.3159339038942357
22.3387502627197101	0.4972948187747261	5.8027205792880361
22.7391333842301506	3.3805993737035389	4.4252994458896637
22.4110677804017833	42.1519935176733966	1.1091443587265195
25.5137138393161464	2.3797292856126546	0.9152077298032326
22.7414476649263300	1.2031662943274888	4.2119032441577833
18.6161940201643432	5.2012072637188131	4.3370130702494283
24.1391765505102533	3.4266287177786743	1.9274717996243438
19.4793234413005329	4.8826538720451813	5.1264620056237149
23.3129246058426389	1.0093017310761054	5.2895366567548630
23.0440935460518439	6.3562965453755913	5.3310116560250238
18.2323048817821913	4.3105277947441216	3.6356401049688727
20.4279535897747948	1.4710805012439114	0.5923147576855503
22.7911013699081302	2.3554814423317820	3.8783697546926197
22.4179926140376260	1.8280387098514572	0.3530797417978632
22.0210432913404439	5.2738796691999283	2.2876081021836736
21.9981063730883655	6.4063986521386704	3.7000146366958764
24.4158610395012516	5.0059267533716065	5.8821222159893942
23.0360476523516020	3.6448398303821881	1.4754890305981969
22.4060418322488850	4.5234941732611977	4.4527700923013747
19.4937480722031573	2.5684084954142339	5.4282484878366049
22.5736199338992272	0.1950670270267285	3.4735116587808568
21.2148766885671058	5.9592838513056101	5.4335107707913668
25.5816625745777237	5.0484410484178888	1.5827826619512870
25.6852379328935463	3.1187886880668061	3.9416674677937600
27.0409788166270282	4.0195988193795573	3.9848315209832106
26.7062218991499769	2.0594641125274840	2.5389443357473325
30.3462634970485716	3.5813742223772227	4.8798909044404661
29.1288457318181386	42.4270187901215792	5.2277629072308756
26.3406347364253755	0.3528672253440153	4.9772175705144148
24.3668750993934289	0.4610118855136366	5.1551981931535975
27.7928771527092913	2.6178988060494768	1.0674035020263197
28.7115779993146845	0.9659186662055348	2.7784159111152533
24.9947005029501597	1.2188574982672011	3.5756250709385800
30.7958460360592774	1.4502597244464370	2.3958846314058353
26.9192984127623518	0.3725519504375380	6.7342700883378441
32.0733015046814032	42.7638085333807467	1.5464198474890072
27.5436896333738019	4.5616952524276329	0.5574918015209013
26.3309314303098354	3.6515956498548019	2.0500423502036687
25.1180197370183222	2.0233621761754126	5.5492579855504394
28.9794711461656398	4.3080927702004344	42.8873010535826253
26.6198040728327960	0.4635764080401913	2.8311443807799712
28.2768016107725657	3.5688448535406319	0.5617869113233905
27.8265672531068198	4.9119353341144576	3.8269918710110198
25.7498262197451631	1.3006404480351599	2.6539426662630179
26.6262565305146843	3.1732972435096110	3.1650626582672041
29.9093882464971514	2.8925378760747389	5.7708077930694541
27.3224077147231981	0.1734434067087187	5.6306423038128521
26.5297160374330119	42.9166171479066847	3.8776615002847210
24.4544877282398616	0.2172396523442902	3.9677791446455171
29.6793100778486192	4.6417083722073524	5.0507012574996786
26.5715626283298789	6.8419643531425161	3.7175741400955946
25.6667871760914785	4.7538490567735723	42.1074575280257832
24.8754900337417340	2.9807917636980408	6.2893150321800881
30.1025105170882163	4.6689008519811814	42.6402120553208732
25.1288136434924105	2.1556142934838562	4.3371812456771890
27.5648919561802757	1.1794712752094261	2.5553763811056829
26.6282390501527679	2.6017121107117025	1.4114412024035774
26.6952078204236898	4.6148763490187683	1.3833613473263888
29.6020413272904577	1.5606398368016119	2.3362984895975059
27.2607746100324171	7.6914643188630638	5.5118192022669907
25.9941443652368882	3.9548400187137234	4.7417596925046093
24.3648895916933697	2.4202915193800707	1.2758168692801739
25.1422717557868687	4.0451344121219508	2.1352926226937745
28.1177724197598025	5.1491274744617384	42.6797570267254329
32.7158476116178605	5.4450081814088787	4.2693970301292437
34.1657066826476310	5.7208747938129108	3.4532423539279256
31.9513994747440329	2.5468847923683411	5.3549504977466338
36.1585322511373235	4.6623401706460381	3.6259930278354986
32.7461408736654676	1.7308744479761962	42.9937925826046623
33.0850014148417273	4.5919769005163591	2.3603126725397803
34.1143941409856808	4.1455531801988723	3.7488166180902676
35.1191787686469894	4.8578069603737024	1.8497881349169318
32.0439206904840361	3.1378298544568155	3.4310073901008833
33.8587061294671443	0.6755512307461785	1.7540362845354480
33.8526907192359872	5.0625386222275646	4.4895707593313876
31.2867205422203618	0.3264315345502114	2.3173410807773323
36.7707389486012843	4.7006392350413497	4.6635531612982151
32.1536733612147430	4.6230535120670462	0.5764419481341485
32.4278333384500712	42.7416334005460428	5.7826855744381378
33.0580011623615277	42.9047638618754092	2.2660931743856980
33.1088647888388010	3.7052921835222867	3.2195129641890934
34.2855556615193819	6.9054419577713322	3.2490529971068729
35.5868553861010284	5.3196706310749988	0.7541032098759618
32.9381608976261830	5.5855972079601575	3.0466749917834495
33.9384084256747229	4.7192658700271402	1.4970372531903633
34.9957046510319145	4.7775329425703443	3.0946547651349658
34.0504602559658167	5.2919219778502722	42.6157518425900719
31.4873653412702943	3.2649641572730395	4.5422760727687388
33.3796023105108191	1.1038243479489904	0.7406008610214543
34.9289002973419116	0.6745636916658356	2.2918860684791182
31.5147044690919209	2.3430429697256376	2.7328429845725863
37.8764208538020384	4.7874911623288048	5.1360252621015627
39.8456305607757315	2.7969535617500219	5.2732570700971984
0.1291203341828154	3.2075497061472942	3.5012708711347367
37.1735600337496805	2.0387412426361067	1.2538652564902548
39.0929849111669157	5.9350064293851421	3.6681017664653290
41.0333499628779919	1.5423286854508966	5.8810731927093336
39.8333014270186894	4.5402993391283948	4.0953174369036756
37.9971464375330115	4.9018734195419125	3.0023418262253001
0.0770127281386692	3.8076954572176476	1.2357331190125533
39.1878321668654479	1.0902914546536420	4.3655030581665955
38.1694260651750099	1.6875917650149204	5.8209562912397663
0.1814054248405535	6.2929494984664167	2.6738219067468889
40.2216873805298860	2.2183562022850132	3.7618287715484708
38.1941080690984904	2.0242366625555066	3.3782435171139595
39.3780917492852680	1.5316927842860244	3.1959681078988651
0.8268961717863583	3.1591884754547914	0.5713544772285459
38.9903031568480003	3.2006194251266775	42.7112641864853089
41.0888255106667515	2.7658805334027980	41.8957313443699704
38.6211530466735056	4.8574550955790627	4.1269574849046986
39.0485194044276511	2.5751655769538471	6.2488919359507173
40.0137027409881014	3.3356360306796762	4.1869976012713002
40.2445393746531153	5.6980211309318562	3.9233328977566790
41.1673759826182746	41.9323947572021112	3.5112921402651809
38.8647074813876543	7.4255180971061678	1.1852180588002061
38.7143808132135874	5.7710254397455731	2.5338703720765516
40.8683463699049199	2.9206293706235074	5.9748688431863535
38.3775783495174210	4.6419885799416072	6.3129079095086196
40.1922742839113596	1.5950452053105717	4.8950711401609244
36.9236005076793319	4.5019910373483700	2.7180304111084408
42.6526534264226314	3.4626958941935664	4.6096945967356957
40.3997072436398028	6.3452025559865710	1.0457256192566489
42.1342460164139681	1.6551519659522680	5.4437901727850404
38.2309712815664540	1.8454142676319261	4.5984729324259739
37.8433926444659363	1.7532705558858790	2.2117194809802330
38.7996420431854716	42.9842843260766969	4.5691003354028199
42.0725113748510751	0.7222617230346395	41.9475571462601948
1.7508251336476719	6.8955317553136171	4.7907620548638299
6.7207208448538456	8.0972760364673331	2.7917273180298863
4.2362184013681210	11.0341638654411689	6.2654549383288343
5.4184328246421680	7.9971770492035841	42.8031873419838007
2.7304735947683971	8.7911941835965841	3.6387044244442275
3.3882621753929625	8.4568467099447489	0.3659864062103099
1.1085115618287440	10.0243118339404393	4.9172545571116091
3.4331289505389702	10.9933015676342691	4.1501435652198451
2.0208520453769445	7.4087900082540274	3.0071446837094986
2.9327315553743203	13.3368874705507832	4.3693342025404096
1.2952674811447464	9.3181187286915410	2.5883457348829570
42.8514957355351385	9.0243510204927038	0.9491546610049786
5.0364742956138846	4.6904653226627682	5.3996575858181020
2.4624859603503917	11.8664390728796576	5.0490088584241661
1.2409962400885508	10.9671477823883983	3.6144324608259790
2.3591004979097798	10.9084982271865094	42.8730734922103167
1.0525041857475670	9.7810857652135699	3.6922787145923031
0.6917586641745063	9.5994141675752171	1.5972253347482144
1.3680305138180906	11.5322529928655761	2.5637110752586358
3.1309279629065165	9.9126421510753797	3.7623240796773834
0.7795485015853638	9.6852962621729244	6.0200211198826485
5.2882912245941895	5.8531011323523110	1.7146574485306636
6.0196496444369929	6.6691622724510866	3.7411457880774588
4.4887138591966149	8.7039817266803556	42.9941112314864711
2.4381189147565596	7.6664801577276238	4.1316924629201024
2.1924887429249917	8.5021500996309172	2.5548349595129483
6.2888706036535647	7.3731112829243148	1.9662976620448631
3.5428436432362358	11.3217323897530449	5.3235911844889383
2.0588908892888726	11.8160684227665502	0.6416462078291838
0.6855085081895206	6.6656499822003896	5.3276130289943753
1.4717516683900453	11.2101504068202669	4.7861241147481035
11.6118484446302990	9.3750389716790092	6.1309351720876579
6.1652264954018587	6.4974639694273915	1.0422111722364695
5.6238220508166741	6.5625818928981214	2.6095802317810750
7.6801532328274824	8.6882415543792533	4.8227009352116639
11.2446661931983076	7.8221566149136956	5.8575253381213255
9.1782264584610882	6.1082727071551952	3.4979544631625039
11.5110665581891620	5.7381737382159237	5.8484311046516879
9.5897882586667880	8.9852690796621388	5.0857341507799303
9.0242632038260826	8.1449470982485437	3.9289199836287936
8.0438237521036235	10.8387008067782311	5.6561300339907570
7.8509237404299528	10.9285698591720806	1.9805639268347466
6.5862428371937574	11.1264003752832501	2.9895198351099102
9.0575380982584210	12.1009955599178447	5.5458227694956097
8.3703679360421468	10.2887853810513601	4.0666054824117799
7.2140439724582670	6.8726098399268203	3.8525841223326864
5.9718283678056343	12.4203329967419887	2.1046638567551135
7.6383524511965941	10.5040421486322266	3.0723119917955315
9.7174644631732630	7.1965528116934792	3.6974888375732076
11.1247259217494072	10.5254623205298916	42.6686663606602608
8.7072204794430466	8.1311337330199205	5.1420681418368996
6.8857057289636501	11.6082123238892567	1.8168797242230363
11.2495970897625313	6.7667722562146713	5.2836960756740528
7.3682114300190866	8.0888460774144733	3.7859436261362118
8.7028996949675097	11.3150516554670553	4.7176677694421034
9.1968288364589608	9.3688872136503836	3.9811742404926398
5.6554991918672837	11.8613131733555655	3.1187393694214283
7.6712891234197231	9.8534568569432803	5.0883174770731934
16.2813606834691846	7.5910391088340434	42.8749815342253697
17.6920269567301851	10.2455730665112306	2.1601925746931245
17.7151335327581982	10.5314413789613504	5.2237773977608306
13.8174860467491172	8.5319989740791513	1.2756368469674608
14.4055110970596338	10.4912058055059525	6.2233081602054501
14.9171949885149342	9.0663900234779540	2.3761006943729526
17.6528137074445226	9.1867224243473231	3.8847793769692500
12.6313961823076824	11.3323519984675656	6.3428468413347279
15.7937660716635850	9.7285656886960599	4.4011356181620336
14.6489416104130328	7.2269733271927521	3.0708946688102143
15.7985893334854843	12.6509427630193514	3.4125521358465836
14.7310872534638939	6.9322389792501751	5.5196726883895133
17.0798749433400090	8.7360074960926273	0.7161075494219006
16.2802912167885907	8.0525405162398975	3.3740801219604766
14.9709687243145648	9.1819905775254913	0.2628104194701439
14.5072489361006838	11.2588694545120038	4.8069979155693554
19.8659361548117595	8.5549343914721181	4.9232783113620071
15.9064369633069536	8.4605536051269130	0.6260967340024233
15.7013348106328099	9.1161087408995964	3.3157574768983200
17.4938238537018727	11.7047243949410511	5.3475083480044452
17.4893749176808875	9.7968896136084656	1.0946264305106370
14.9231478170664804	5.1904546492240780	7.0790520491435771
11.3799200570546777	5.1116919192446550	0.1011467540508379
15.8486479723401370	7.0899451189408378	2.8084188675656048
14.1817240392566539	8.0665424097061535	2.3404787983766386
17.4906467701881141	7.8304368066850314	0.0005703611718771
16.9639999908031989	9.7490498516041875	4.6922005214914568
14.6489810201362438	7.1888094656308530	4.3289746253747960
17.7539169240407766	6.0070261811903620	4.6161540130578267
17.3816848731391005	8.0022394724602623	3.8751710425908898
18.2095668382424272	9.9939031028543894	3.1812265673616049
14.5089418141041584	9.5509035255936112	1.3338984567080294
15.1703616806038681	11.9790976090650609	4.1317509456070063
13.6153383961984993	11.2184286261369799	5.6418353931144036
15.0514276280267456	10.2164859911631911	5.2172435334173164
18.1879705311026960	7.7154459427884552	5.7437974285359354
13.7475508128480222	8.3015033826866524	0.0922340909281794
22.7150012571186934	8.7433815557258399	4.0473324294219815
23.4426813984070357	7.0624108192733717	4.4581312434329528
21.8051962798094010	6.8615642904383378	4.8485766166318278
19.9215356362299083	9.8758441162551023	4.9429484651780937
21.4892867462421400	11.1733739739706905	2.5256489656348826
21.0174233477176600	8.6775464439180361	5.1889979047759693
21.8519214971690516	12.4407291329532530	4.3544867315933464
23.4039271555094288	9.9679229501048763	1.5204996183146919
23.8876285920136162	8.1273206834464098	2.4984702425092635
18.9913306573928367	10.8716731687909522	3.5801222542446465
21.9868105991585736	9.3046342641381905	1.6995974153362012
17.7711370623238629	7.2135805476976760	4.7125263977843961
25.1739601923709557	7.1609697386605955	1.1624863457796946
17.8151371432070924	12.5241755433939623	4.4590356267655595
22.9085530094653187	10.8031651148154673	3.2441252048261027
18.7584345408159407	6.2754747105411397	42.5266239017632870
23.5760643487175336	11.9963547180333698	2.3435555912235122
22.1025262987791322	11.7171392355060391	3.4667348994763181
23.9749409138984255	10.6347775670959557	0.7007561652397362
23.1173765867566416	8.7815287071376211	1.8174791009654936
21.7991755261898703	13.2579754316171368	5.1704420241752507
20.9842224826338892	9.4452689545282347	1.1011954420705363
18.7550836561422116	9.9245656086123120	5.4067236403897487
24.8395879560435091	10.5359978111527681	4.9641684294699919
22.6049378618513366	5.2738135602925986	0.2684765796397001
22.3774236328060603	10.3662205893339721	2.2096345791880294
23.2517339618852397	9.8311000004970008	3.9275373619229645
19.1317229227625312	9.9191758144047171	42.9459018494237910
20.0810098440241802	10.5513695428193319	3.9585491025894179
21.9803577867399902	8.0901547617389280	4.7737730875807891
27.5389816874898798	6.1079864905892878	3.8703209441223034
24.3428981231204595	9.6241562850172393	4.4336704674978957
25.3444539849122279	11.5534772815034792	4.6961720840857248
31.1451164557911433	10.2712349134293603	3.0565335434530096
26.2755234279112813	8.8447443605843628	1.0109145163481594
28.2462272283360463	11.9879900346563044	2.1777051602084678
29.4587966956589717	8.9986269463751771	4.2751807186343491
28.8806904419860082	5.2694418180543883	4.4001375303561376
28.8728530953622382	11.0533682157738546	4.1408062815947879
26.3776845544360263	7.3842131827500790	4.7765109027949402
25.0022360817695564	11.2921646261506190	0.9140572027621421
28.3409028911021963	9.3509739296217393	5.4592354686818227
28.4197761027497648	7.3785022881468159	5.3010781210661237
29.8734601576372185	9.3285122649342949	2.1643763009740478
26.6063004618057235	8.7391723893428548	5.6151001504520908
30.5562177669706081	8.0107659901167878	2.4540943144203786
25.8404277953225971	7.5131101440421295	3.0555265199155146
28.5393320583585570	8.1039268524611678	1.1626643990473355
25.6992816125483223	9.8453860481260307	1.3758012036356186
28.4852845371265850	6.4139314439044179	4.5782617914091377
25.6075604276052289	12.4053603676377779	5.5411560838229565
25.7096838275179351	8.3851264759696935	4.8176144636654650
25.6358629468604526	7.9583708083095539	0.4011655891742743
28.6381904241785890	9.9013681418362172	4.4162930647371592
29.6125963812703397	8.2779678624180910	1.6277142971486493
24.9357950795854784	7.5421999808759557	2.2892628511957072
25.2195622445003416	5.9742473871247235	0.9145129353886410
23.5630957565608803	7.9473623964628750	3.6713295560846819
29.0694338673126111	8.3796402712257052	5.2462189496701974
29.9549506264028196	11.3634240571891532	4.5457409783377116
27.4201847164123578	8.4382185042739728	1.1476401110115424
25.0051002462661422	11.7507613732655365	42.6718603988296792
31.7025852807835733	10.0941209311877831	1.1924440113229020
32.4998788413401769	12.0495141175790810	2.8728589782960721
33.8957052286963929	8.2568184111863463	6.0561300315911559
32.5259104461994468	8.3507033359167426	1.3901392980415155
35.5462602976087538	11.5040901406858094	2.1174467985761889
35.3697415176329599	9.0684208903374763	4.6681704193667644
34.1070938739760052	7.7037754309468616	4.1202233868606948
31.0874101379217684	11.6241764764735631	4.4112997760756247
32.5347065433939804	10.7487795356066265	3.9414366240370873
36.6380907803359506	8.6619083760959210	0.8705814954465008
35.3952583421191633	9.4296458360995938	2.3058784758930200
32.1779256409847889	8.7580571075336096	4.4175638455672033
33.1474625842595998	7.4074466542313449	2.8366902836369232
34.7145475842420765	7.7743886735081942	1.4994582817893001
35.5073874310401365	7.5414388125049943	7.2290054928258556
34.7400501311235317	8.3136135444048822	42.8220889490464742
32.7153725968001723	12.1082305748876387	5.4263029569916021
30.9226044429788871	13.7434497519948238	0.5746313470071038
34.2314590863073391	12.3900877749124376	3.5374471107272298
35.5453688690268805	10.9452993016651288	5.8329781012571829
33.8919345291075089	11.3026099225459937	2.3146520514615223
35.1080676743408944	10.3016444008881649	3.6911882978007240
32.9388329633363739	7.9544556970589309	3.9419476325105176
32.3476729409725863	9.2907502033646683	0.6149150197884439
30.7687729846366587	10.0873295877170559	1.9165731722050405
32.8969440488340794	11.7217982113221275	1.7418865531693282
33.4522438752651254	11.4423662872237575	3.5137497049679767
34.7938567948779607	7.2606694107375631	0.3719106170928750
33.5840025697792015	7.9933537846952731	1.8252671086106294
32.0061141461932124	9.7078997190124863	3.6865603598234284
35.5091878602595017	9.1631921699414605	3.4763102411462801
31.6713851984302366	7.8957240611827348	2.0843403140518237
35.2468498510005759	10.2711501907054927	4.8946656332688150
32.0315820464993735	9.1242652800113699	5.6022622366983867
35.5641936446894533	8.6600140590406873	1.3992298830117984
34.5514406468875634	8.2997252689444316	5.0665545770548119
34.6915873965708244	12.3506592290859061	2.3506878035724896
31.5581849274111477	11.4267678612238086	3.2866424717353668
36.6557329733863995	11.1714342093760006	1.9751095182588085
30.1077532870166209	8.8738756563292629	3.2695717748913959
31.9798152937498266	5.8397574961410301	5.1115614648188332
34.8536033264915233	10.5462010734092875	2.4968217628933180
38.0200228118697154	10.2695131281458725	0.3740956457073012
39.4716067141753157	8.0488682675415593	2.0407071001524337
39.3001576194613520	11.2878113836511780	0.1842695532765665
38.0083714906142944	11.6794395779784441	4.8756244112089639
37.8569327557645821	11.4218225151164301	6.9005405060621623
41.0190965787942758	6.5890883585746556	2.0585507587275558
38.5098265233679768	6.9864611506934740	0.0944532435483975
37.2355636878673124	11.9572595202002976	2.6544400395299261
0.4951813135928649	7.3777180928479211	6.3068914684599653
40.3720293855792320	12.0857433816775490	1.7037038965924807
40.8210334053786639	9.7181537789383690	1.9791996940635388
39.2796557485411526	7.8430423157732427	5.4804777269501512
37.2429600805260819	7.6694589718606681	5.8694903657828812
39.3807696981291286	10.3829521969431600	2.0344408124722841
42.3283516558403861	10.6482090297154368	1.3801759548492341
40.5129891240135507	6.9141898566783420	3.8408641139401958
37.1618640982240294	9.4862168677068599	0.2398208854052253
41.8192955873473835	9.5808940266335831	1.3363281653250572
40.2167907909014843	7.5859525443618985	4.7890453530827122
38.7275600421689177	10.8593668401247108	1.1607882981498754
40.0912706736563038	7.1808288393163542	2.6702272712258037
40.4989340204157386	10.9316605536929874	2.0917303811684826
37.4468604603750634	11.8171230554247142	3.8541284620051823
0.0929346524442747	11.3375662392838947	0.8010723986356028
38.2099611557953693	7.3532645854579703	5.2822112960649594
39.7328249393383572	9.2260807373132039	2.0806638723994411
1.1660036175726203	11.3290363089497461	1.3860518769635852
1.0792012381883376	17.3106320181376745	3.7519672832160742
2.1633725802324264	15.0247547654863425	5.5698790470930533
42.3488626563979551	16.5316523040651617	3.7452668550421935
3.6880497417621521	13.8606654125229145	42.8114215286458233
4.2269373537446659	18.2233844176150548	5.3244135740096139
2.3009529578894150	12.9714869584610675	0.9526910865051313
4.7870007754532242	13.6240835378895628	3.3294999752837189
3.0709357740683729	16.5325853213805942	2.1845728455621010
4.7450712761590967	17.3663743142101303	3.0944828439348657
5.2250784818445899	14.4360779196707867	1.3697080984659109
2.8472684710449538	18.3508290526499529	3.2722021803897112
2.7063983641994511	14.4024957772090740	1.8222748701938838
0.9959855031560344	15.3015988611895022	4.0735931494692528
3.6994295925929452	12.8066672791038201	6.1762008705450713
2.2258353060891034	12.3279134104920622	2.8321776185853267
5.0425972716731122	13.1691224077547648	7.0223405602616369
2.7496092981199354	14.0857695960937921	0.5827889022121842
4.0758724775160751	13.8477407340632315	4.2907160601886876
5.3714798880577188	13.6489783502954989	2.2614750891712783
4.3121168948445323	17.2629102939079679	4.6020818576228359
1.7491184613657489	17.9040513683820279	2.9307948464752105
2.3670638824110006	13.2708988036779107	2.1291155330255909
2.1549412651627695	18.9216904495544185	5.6428842328949749
2.6914788192115595	12.9890613472139105	5.5571183230977255
1.7799204868741492	14.4954739548141784	4.5565377556725641
3.6065769517676722	17.5434267682857907	2.6953984918957046
2.8746348859834097	16.2952424169691668	0.6960407220449414
3.0583828935418191	15.3608669414105350	2.4132123399494296
1.2849956904302713	16.3925313218160298	4.4781784272743188
5.6268982065798125	17.3425273702918084	2.2707937299109386
42.9012441154669020	17.6092899973535211	3.6568583357726321
4.3097375555695985	13.9089008105770482	6.3787181205623549
2.8485512818775862	12.1816790260498262	3.8473092683614891
10.9038673574755780	15.2211153892583155	0.5740270285738800
6.5850794867353759	17.3773782102174046	1.5376042076323870
10.2143273387417377	13.2094753030291852	4.4197294410854733
10.0778989155504011	14.1458707756728117	2.2883936398142444
8.9915907152818821	16.8809292245164784	5.3973205525413395
12.0175589590841430	14.0433315863107122	1.7385861666480733
13.3440975943180415	14.1022195688319005	0.1852011186265067
9.3813304822444561	13.8210736695753464	6.4409158261184656
11.1262423155856602	12.7255734781999958	3.1423043797198251
8.7979260126493131	17.6374863003334568	4.0744613115841917
12.3552201925735829	13.4906249179610658	3.8733579308431079
7.1828108863302393	16.6444096792660794	0.6861485370814636
10.0805352040186094	13.3627973462111882	3.1708773279391229
8.7730342558469996	13.5034301959829364	42.9705367110187311
12.0630054499830095	13.3224664959842496	2.6784606521914021
8.0021095620496823	17.1237072463068962	4.8141040520665097
10.9214347404698877	14.5560744056420432	1.5572051540073018
7.3010401136245040	18.3752885947105860	1.2796237728902813
11.3367425895920793	18.1071770003024604	5.9690575527096357
11.3841809266647065	12.9019384840458073	4.3204214877315961
8.9950761116867337	18.8178930642879294	4.2824579650091481
9.8169468708870582	16.9844443084769914	4.4558730967785838
9.5698087652980028	13.1904613985473098	5.4480668554194596
16.9715386745158625	15.7930542920108099	1.3433396807968161
18.4316331303454675	16.9589511066982723	42.8706541103713334
14.0643221898719908	17.0669142840008021	0.8410939242727432
13.2975135553939321	14.8479814155869416	5.3037458070212882
15.0867610887844137	16.1816366111404442	2.2353859949742758
12.2503253501962437	17.7173096194352802	1.2462141090294176
16.6638027334225320	14.4527793265986979	2.2241579066041495
13.7875455473201072	15.3141486466089312	3.7517443204938354
16.3848823328719568	17.5220099374713776	1.5322568314031151
16.8405821188754530	12.5888135391016718	5.7893902266999788
13.1730906931879055	15.6685739631213252	1.7484864398159172
12.8867364171387511	14.6465150067173653	1.1372216491486222
17.5066712737060506	14.7094796062808193	1.3447927056676117
16.3203142954684708	13.4706310386319377	2.7722051798469796
17.0698481225715675	16.8335993715741239	0.7980317049043644
17.1597227389569191	13.4968239823247842	5.0127025592982459
12.9487453469746061	14.4845567720471458	4.1854624229366166
14.2247527383762602	15.5866127650282600	4.8404009640459797
18.0498387022261397	17.1071815084209611	41.6646191091196982
15.6754480457308709	15.1875338837090279	6.4513212146946950
15.1665849205596128	17.1223374970421496	1.3966705491795468
16.0976250657016244	15.5460934371300059	2.1518399847340093
14.0160698719028716	15.7159344485215957	2.6153716402389100
12.9824472895589302	16.7787946147396099	1.2835921352637387
19.0095095533520073	16.5175958783996393	4.7199802772499684
20.7626266518557117	16.2077726133326117	2.2733865859756905
20.0213265601612633	15.9343817222222768	4.2709971167062584
23.7872027512298310	16.3915465086886059	42.9258313744136899
18.8722053078707788	17.5987272074386745	4.2593193053278258
24.5266653176536735	15.0798252607167811	4.8752547826022665
24.7313702000468290	12.1828823928006695	2.6448658226409445
21.0644731803759235	13.8930203437842064	5.8450876549132964
18.9966087956048284	15.5423187523188790	5.4156105324315353
22.4626746069520564	12.5498032875494854	2.2954602686483909
21.5395746872632401	17.1804172947622682	3.7465596682931532
23.6396410956380940	16.5995666179026529	3.4292182824948596
19.3479708412831997	16.1212756747955090	42.5442262086504215
24.3416222464743193	15.6444903737134524	3.7983656050844075
20.7452931833674725	16.0352076661768557	1.1163739140596414
25.4449105936542743	14.3299814715451426	4.6290715842528449
19.0381820523988274	17.9608317476739714	0.2283429260020572
21.4475223681183707	12.1150977573603598	1.7586296867718219
21.8859081619392839	18.3188201616157222	3.9800821323660127
22.9000725220234962	13.5727670921813441	1.7402344205661204
20.5247442059908707	16.5802118357832455	3.3897083572736642
18.4490300150309281	11.9376079891428120	3.6403272807937936
20.0155376361902348	15.0354742274440749	5.0881153227117366
23.1065620515254295	15.4354737674821401	0.3140656494235650
25.1102422162609251	12.3162147715683279	3.7641760067524399
22.4629687776570641	16.4762521527523766	3.5334446020598378
28.4810293255619982	15.9638133818989978	2.6787853555914518
30.7888649599662898	17.0702553559949131	5.9527153365786676
26.4650954086068246	14.7493762678656619	5.1113617817814125
25.7176727717585081	13.4976170386872312	1.3125672529899002
27.7058554320670858	13.5876276484716811	0.7074475569182795
25.3645235526085706	13.1397880586077349	4.6066229578679101
28.7136009709653166	17.2037917454234410	1.6160438907122527
24.8849681019833220	14.9631131401250741	2.9744206485156788
23.8424058144484761	12.8577401323842331	1.3851692393502695
24.2115044360886742	17.8099075881133260	5.9334632404268506
27.6967147838894512	15.6826217926739826	0.5699852593717288
27.5453648818428292	18.0085972318743828	2.4573299011796848
28.6517730638548045	14.8838606509462519	5.3981726164859918
25.3584791888397945	18.4161117966380488	3.2417305176505358
27.2574318355665035	18.0848943805965590	5.3572979991781740
28.5627355503241454	15.9327018463162560	1.4366627912648737
27.4709153247362323	17.1078500139448906	5.9816072297240428
25.0967635425591276	18.3373591180462761	5.3816776323645366
27.0337241680681579	15.5440292300508531	42.5862026489191194
28.3530017928694811	14.5407084736413772	0.2656966508252104
24.2486290608653121	17.4000438892088809	0.3506509335100972
27.6104459313094779	15.0345589892021962	4.8392948308462636
25.3213497939277872	14.3126464552362744	2.0975411956303245
25.0646020758562749	12.4582994105465286	1.4688258682900774
29.9320946961300258	17.6699792167580476	5.4279218307455643
30.2732494816600699	13.1537384665410393	42.7724478301807167
26.5429759650010020	13.7359114748229079	0.4279153116370465
28.2929316673313487	11.6514357490691953	3.2824366557779689
26.4702871141487641	18.1185130693343126	2.9541471893128373
28.1572435725114580	12.6217010006541379	1.1908031902276435
32.8005328589888379	12.9452667369393222	1.6532845031353525
34.5617827612747348	16.9982592368035306	5.7805308424298243
34.2616213076988743	14.4117276500533436	42.3370351148822905
35.3675590731692893	13.3340705195011893	2.8464830254384053
34.6604591169511025	14.8444573666643542	5.6382729036834300
33.0722913606344591	14.0952194790087013	5.3023001665723513
31.8411753661438439	13.9163903866768326	4.1346541870999181
35.0023585144375033	15.5108029112668948	3.4667809842350317
37.1153788338214596	19.2084463562129422	4.3782874985907050
34.6267428865412796	17.7038338536874456	2.9577287551105278
32.0780552701579822	13.2115476349977214	6.4462231363191886
35.2337612615454958	17.9999560737427409	0.6577724103902739
35.6603651251523104	16.9877243530541939	1.9015377525665353
31.1802051150284747	14.2600069711345654	2.1159087492164512
35.4050850040886900	13.3255387191744905	5.1525543096791706
33.5528530913374823	14.1741838931301096	3.3633296720934820
34.7271748537637066	14.3812164824592319	3.0992977495616865
33.0088619405869323	13.1805345311737554	2.8893951721488063
36.2598682116471736	17.3215981160065589	0.9029811704601269
35.2005302137028266	16.5706626296866908	2.9568370529512942
31.0474849257048362	14.1644444888851062	3.2910149665618151
35.3708513859878977	13.9024099209995278	42.4796669800613031
32.8282103571842683	14.6148386398603645	4.2089263461236630
32.1470014019348724	13.1467141423637042	5.0935548313280199
34.6084843877386206	15.9470663788147160	5.2044724650732981
35.2813224311366440	12.6614092961430629	4.0837420084896916
31.8675777100066107	13.6111781725283993	1.3222304028036287
34.7725451033168369	17.8430399600408336	1.7597311882179205
35.5911058075144240	14.4606536066396103	6.2688848404670034
30.3370475279434615	14.6022594382858895	1.2692183244290867
33.4160425837050710	14.9411632429568648	41.6372540737036800
42.5747822998484722	18.6962920064598528	4.0481465914288268
42.4011193986163235	14.9716003562964044	2.4723562450005381
39.0282624341172664	15.2463021630813973	4.7366401066394141
39.7451814198507307	14.4027197623587906	5.7282574340812475
36.5724743027926138	12.7033719415395403	4.0020709008357365
37.8918481518467232	13.4343684183761489	5.5800959398296142
41.5135678145840572	14.9049617339316498	0.3558002961310430
40.6425501603428927	16.3099462634392403	5.1322866093525628
38.8677313257785144	16.2196207307366507	2.5841211484703415
40.2999711354269863	13.2383672614805228	0.5421437647514017
40.2254807482064365	15.8786983169321747	3.5188212045447305
1.3038048105557860	13.4479599468625519	6.5897323023548902
40.5016968658225522	14.5454141920636086	1.9094171029030507
37.9128729168123897	19.0057550814626737	3.3875217352054885
40.1562202645692068	12.0525217047662760	0.4778752006661075
37.7003910928360497	19.6056778129392981	5.3611297760462051
41.6723741412152933	14.8277844867622424	1.5532594691731845
41.1666951142955924	16.5059164850511131	4.0182204787725366
42.9352713522015392	15.4873921888698867	3.3904941350403197
40.3808530358669344	13.3318008700543569	1.7600049410293239
36.7299723118199566	13.2258311623034217	5.1236919507092962
39.0399627132836855	16.0570112478527349	3.8068166029554238
40.5933408796388093	14.2049014569548682	42.9311099867183401
38.1324499924548874	17.0763090440084220	2.0894514036134009
39.9628795999471009	15.5367604096483465	2.3540818628342182
36.5128720864377598	12.9511657587933176	2.7627766432405667
38.7495398725083788	14.0689163831848774	5.0031483681393976
37.6679124626028212	18.7020378094098199	1.2911917077851094
40.2921810634611859	15.1594826464963628	4.8895540361502512
39.7647373572661920	13.7280998945496240	6.8147617942971417
42.4947968048837197	21.1296684607389835	1.1751584945338009
4.3573599512256713	23.9289915358549052	5.8607290336238300
1.2854719161251102	24.8174574724208732	4.0826039172791493
1.0102364109554223	19.2725738458414710	5.7124758459702578
2.8400410775106470	19.7584978405050933	4.9746407651754350
0.6102268506485975	21.1010450606798940	42.7043357212245596
1.1995831121522116	23.5828075176314336	0.6442079836523548
2.2296452928274020	20.3562300852835421	2.9458876352490129
6.2127828566124306	22.7759024315113798	1.5472381221872322
1.2281552671494091	20.9717081157502889	1.7435830053353365
1.4510960413857632	18.6727315588719200	2.0823089683402181
5.3512850240199032	21.2685243322460060	2.9198660591659018
1.8392067561793146	22.7314512352425417	2.6406001649226196
2.8939301004396540	22.0846339062804482	5.7537655170153483
42.9386768166665007	19.1185032036837477	5.1338510626864755
6.7606144520393441	23.6012736281830087	0.9275586715290851
1.8619600614020839	23.4133603561898411	1.6133875800831949
0.0980668039808091	20.6107436952697434	2.0868253129179029
1.6347850455340149	23.9127622267676649	3.3550225385231931
2.3163474941082498	21.0243511894891597	5.4396678933120519
4.3232634921212707	19.0184294326709775	42.6504779837618315
1.8158106285782987	19.7810613140904827	1.9474668482836419
2.7119243947102540	19.5155677495461575	3.7072951450783207
5.4776438229566313	22.1688072148252360	2.2043084294465491
1.9186353112362420	21.5213581771731164	2.6522493412617800
3.9779773338800690	19.3779834327970200	5.3471693981155184
3.7885461976513808	22.9150733976284577	5.6588448541169294
12.7720501012042895	20.2007609891213171	3.9245786598461403
9.2190784799275072	26.0069484144531629	4.2186226104664541
9.7854222970684361	24.1896731812731893	4.2233476401210988
9.1686750166831104	18.8860886600201887	5.4740038786759273
9.2231101197481955	22.2538651776454088	6.9189618957753458
7.2434333996310780	19.3981780652630711	1.8886844742005722
6.3850342302583067	24.4950285056115717	6.1465447448021804
8.6568458961937917	21.9084465939342152	0.3538077873029619
11.6453724245566974	19.2305935313278056	5.4742742930810326
11.8598674616555773	19.5362632865815797	3.0960724488905300
8.3909675440172471	21.1219767491779642	2.2117500590757890
13.0645239760127581	23.1526250432356342	42.8231839470147833
10.9235645547434590	23.0504976658570158	4.6080697143669385
11.9276173153697496	19.7041085356451653	0.7223222547042328
7.1241498799173426	20.5339881059237221	3.1056715316397780
8.3847879518454924	19.6440882756193957	3.6858147730118569
7.7108354703882114	24.4792868422970891	4.3691223086635143
11.6928474179165978	23.7825489075710550	1.3556116973549797
11.4261192451584161	23.9142371097115323	6.0419413774569914
10.2147182417526743	21.0155470040909016	0.9349972942808710
10.1951035107556720	19.5544075069092180	5.8785844595852605
7.3685673268389635	19.3238555607234268	3.1036172560530226
9.1381824552010791	21.3502428967740698	1.3016933470544165
10.2912438814757259	23.2880226996318491	3.5953969460670416
7.2983413937770685	20.6540443237636069	1.8777133268800814
6.9281983246605972	24.1328975669942203	5.1533383797919621
11.4490390647812159	22.7137775471230938	5.6513501324557618
6.1157960959042112	20.8575582750115451	3.7343287108127554
8.3098036595344169	20.8262874279988139	3.3843956219956497
10.7767845155527535	23.0109056982513103	1.3725404888181656
10.8183273878813360	20.1554466126880563	0.3605316211474533
8.9172926186981876	21.3538697518080056	42.2696854091577450
14.9928598102394606	21.7104033478320702	2.7976625674467117
14.3708441466519030	24.2412196034938745	2.8014014324351679
12.8137296897289765	21.2027865017292640	2.3024580884641535
17.9639213381628586	20.6367093770775902	1.8129226443643114
16.3973615600445513	21.9643520864017745	4.6618483932385884
13.1857819528667530	19.5656593860413821	1.8205360273601918
16.0284351103082976	20.0888166307900029	0.4063767694574453
16.9020181960962965	19.1270947210433420	1.4160161769370463
15.1835489305430755	22.9362790298889507	4.4528562066949968
11.9492295540683546	19.3769770673310262	4.2935759493890666
16.9776010800380419	18.2863793057507813	2.2388795352143012
13.8632752543265916	21.7241970867244483	2.4993470190739200
15.6206241017432728	22.4544037133181469	5.4747797680195429
12.7741655209932343	20.5686331593125118	1.1741804419023003
18.5916883528157975	20.2735367398051523	6.4979537182351867
18.9914691061855585	20.2257360944407480	1.1255354569347127
17.8770789907882950	20.5140534808789674	3.0818084107856363
12.7298274055075620	23.6116750175449077	0.8262575461318712
11.9820515113522248	20.7619107073774991	3.0520689916018968
15.6836398410614581	22.1043647192097019	3.6801856199839249
12.1991105770625250	18.8559405185378743	1.6089387371624506
16.8697971113184835	21.4488960317303707	6.7196937735448081
15.9966678466598733	18.8424830329136697	0.6449441029509286
18.8673543058072219	18.7580987759464470	4.2043473569889995
16.9499384641262871	20.3123294334228639	1.2266339523012635
13.3523154641016220	19.6730716873151863	2.9854000179266307
17.5629196517917663	22.1012526308876289	4.8351652394340796
22.9906619408048449	19.7499294288100877	1.4356184666990968
17.9506641377240932	21.7089823454532507	3.1199765614586217
21.5798045729819670	21.1685434461618414	4.5674015069905893
20.2510329835616361	20.1782315432291917	0.9611063637215576
20.3164528793384029	22.6805676361636941	3.8120573010288972
19.2354422883973619	21.4670167215131826	1.1876203227905440
24.4907409057132988	20.4653374475309278	0.0970802012369495
18.2140217319221733	19.5736118421328662	3.6915996992591542
22.0002273279242360	25.0157304252452555	1.0300255730368060
24.5846701262040206	19.4032053411886132	5.1309752040137289
21.6460043140093958	23.5002485214633516	4.2699024933384058
21.5501927092382637	19.3698755947574561	0.0303041440022392
21.3557997821729124	24.4750382681419580	2.8289480442587811
22.0034547542980690	20.3501404420082714	2.6890342611528473
22.9807294940892000	19.0351659640435358	5.3847561521803842
22.6807525242535668	20.0181568432956496	6.4894840080733545
23.0134893035510295	18.4781682497256092	3.4668828190246885
21.5004520070554079	19.3671440323785617	4.4251061704090215
21.5047794278798463	21.8088682420660120	1.3342281872702848
20.3333020048218565	19.2839819205453438	0.1351024389898818
20.5976440197501418	23.7790459149224596	3.4859196028607760
23.8016283963965414	19.7927482838401723	6.0891366643094180
22.1595816706387723	21.4385603430610168	2.2290757364146998
23.9718417463737055	17.7561303166913014	3.1494915177392251
22.2305111032300147	23.8549130960692715	0.7615484013233981
18.4789723296680783	21.8383626961046744	2.0381899369672496
21.3834682093171047	20.3415713465103565	3.7330061198370097
20.4293486608066921	21.3937010844797619	1.0350393947468437
23.6103747890844318	19.1804856910778696	4.3615746822246892
21.2492116568000036	22.3155082159439040	4.4572071849588095
22.0450308581928596	19.8525318544180998	5.4251697492011388
24.0483173368844803	19.5974870701359585	0.8508394727730673
21.8337130665039716	19.8340178209417850	1.1086760365603365
22.3354505362595717	24.2758339437956145	3.5186987295994232
22.9951398697954623	19.5725655982366540	2.6490487957012823
16.8365178549352663	25.0996847438852022	3.8596303082853556
27.5310742165289426	23.0686888094452094	2.5956603527893969
23.9819967692298057	19.7128540801053695	3.3298595571024610
25.2202379966603019	24.4768235155571183	1.6199835758209682
25.8023677744960729	20.3407686035755439	4.1123060973038257
30.6580310217259040	20.0679606024099897	5.3122580802255905
28.7515581885513392	24.6312059184664953	2.2624018551298222
27.4445613982267709	23.3217367326750349	4.5239527117538945
28.3550456354951095	21.7487795537499125	4.0186580601702770
26.7673301951080553	20.9612184769142509	0.0678801939962513
29.3365338623477179	18.5617077716971153	4.9093438113230663
28.8711259564108573	21.3334270903602814	6.0681500271165190
29.4753246952869858	21.5770967353270109	2.3181804784673306
29.8170064428551491	22.3108395917517370	4.5094496233565957
29.4418039182637195	20.1057894230457990	3.5384039983724631
29.3941659362147192	22.1087320993476126	3.3837169620018397
28.3594898169292229	20.5319830620514274	3.9522385284086656
25.5940734726709387	20.9605940454474222	0.0930608140210667
28.7813536266102794	22.1267835323169990	5.1271064271215394
27.4790155815510282	22.5143144235475106	3.6336131366531959
29.4702824988774452	21.5294919359395251	1.0938335977209535
28.3915532289346935	17.1261618794309065	2.8066203151857012
25.1764872811938147	19.6289072158731734	3.3852446171001795
27.9375146965979830	23.8872279776189664	1.8712782185024257
29.9368884626779774	20.4480082657749094	2.4824113727070314
25.6957301255736361	23.8836533121082404	0.7166214059896984
29.9705384633171512	20.7041258175459859	6.1272368975228604
28.0034308596177155	18.0914920586724399	1.3316945493584615
28.1457387691348018	18.8127770397850149	5.0657852042995266
31.5766006970347917	24.7830158934606857	2.0558976531050472
25.2681246940910178	20.4242672693912333	5.1635914598897852
29.6424111891899678	24.9839481466010653	2.9371852364685735
29.9346874731110795	19.5470298831803078	4.5006554454235710
27.8161970551885851	20.6709438360131088	5.9846734281146921
35.5354194440337352	18.9506529638500396	5.8055291430012339
33.2652802876716081	23.4303251836724478	1.6259444442738795
34.8188412569420009	19.5973543092086260	4.1446896790094758
31.7353911874402641	22.1137129378803685	0.6671302522890733
35.1082614386951093	23.8420525578625693	3.3994126018219215
34.1393814793285628	21.7672527856866509	4.0623719760385217
33.6078296288619143	19.2369545752539146	0.5711310066510790
30.3918151817427500	24.6804442653476528	6.5639337097351751
33.8540416771735408	19.7243578730254931	2.8179396864229873
32.9033866589566628	20.8948673541326428	5.4022018034472072
32.3683731094756837	20.1585187944753912	1.1955703198631402
30.9805436714195608	23.3838140085414210	5.8136243437003392
30.3243201548863830	20.6921354784995621	1.3487747295855721
31.9501041490835007	24.3091026397749630	1.0350379414282613
31.7421990822037330	20.6031321380447530	5.5528482321437611
32.2043109374963379	23.0993913857081026	1.1549936235689879
34.6258226967716425	24.9451808747800321	3.7283790435517541
34.2863768050336475	18.7602934905136678	3.4204182898871887
30.7563834455851790	22.3657856567455688	5.2553197312701192
34.4177827751439551	22.8871405148447273	3.6935259810899090
33.3567398098511703	23.9447224726224128	5.3463864119091573
34.1715324308171020	20.5908386893608153	3.6583329475007886
31.4607373947078699	20.9401991029276040	0.9631848313393603
33.7547657934969720	24.2073719287396898	0.8989785375011573
35.9092252627946777	19.2994944000736339	4.5925988809534077
36.1061761963594137	23.9326906010552136	2.7567293637685588
33.3573782674156192	19.7399983520525240	1.7105496151272335
42.1158426289750523	19.8603642018802518	5.5830295787978335
39.4828892728663945	21.0222219483947761	0.8814350160080878
42.1008230809916597	20.2598079063113445	2.6128657125063612
42.3852638797877290	25.3853661495379228	2.7618450059770852
38.3832738897928323	22.2359566194183316	1.7440821086210934
38.8181344492677241	19.7430504650662293	3.5824773567510086
37.2230591119637708	23.8399215493587562	2.3642469662167827
40.2473565285885755	21.0488349577481344	2.5533517253042906
38.8163340706486721	24.0396924123673088	3.8966396861050359
39.3958214253239944	22.1463592508390548	5.1918897129572343
37.8886497562984275	18.2405205009948830	2.3990627679306957
41.2268976524594422	20.6386778232421122	42.6691348628488569
37.7813266282325984	19.6130894843347789	0.5375646131316927
40.8047353447166330	19.7843099663935327	4.0776019703474127
39.2710299622188188	25.2404357253065434	4.0910755502624587
39.8911208924664606	20.2624027269571343	3.4416886963579603
38.2713064443405386	25.3891307549808936	5.8476751482432858
37.6317388250265381	23.0925666290875000	1.5067012252111809
38.1697329423156191	24.3642019358171744	2.9308716368935501
39.9774832719052071	21.4309867719790184	5.9842377216528133
40.0561695547526284	20.6357921409200671	42.8799544478125654
38.3639562312398041	20.6913395006779126	0.5803547283264502
40.5669105009922717	24.9599415438506220	5.3406741108666607
39.3879495817643885	21.6149461609846512	1.9202467851861689
39.1506687491931089	23.1128285861914620	4.5643620627827310
41.2917037894019572	20.9020558429278900	1.9641427383366712
0.8239700865845369	21.6654221088235843	0.7572261247168750
40.9191959544999477	19.6364966964863008	5.2799437842679113
41.8543049623944938	19.5534965016776852	3.5464442339960960
5.5751255298320421	29.2959061105201464	2.2310918936502344
0.1817754327383438	27.6252279188761705	0.5310551168206711
4.4401931188328394	25.2742825689007908	0.8685978243422493
0.8288216431822285	27.5587887756358683	6.7261056933569163
4.9196384635990889	26.0910879524246759	2.7445536985006216
1.4285590201662310	29.4687317591489801	1.0975314923861088
2.6314021312473339	28.3764869726302607	2.6854687672026780
4.8909771855483939	25.8174890425993588	6.6898982575978643
1.9229740889977438	24.4046338362030184	2.2870976074037146
5.3201832363797070	30.9233225696415914	3.4673644349136019
2.6419534983242530	27.9787354096156697	5.5723037082008737
4.2318018740995722	26.9335054140142844	4.5493266583939649
4.4729389367893173	31.3380159093506627	2.1241104087549183
1.4321818421851404	25.7012623982675521	0.6897456751781812
6.6119535786515735	29.6677320439056587	4.0798234315533257
1.4000834316370032	26.4262743584460829	2.5747434341148350
3.3801609446957026	29.7275464395819604	2.1719030649662798
2.8541011198977966	26.5558218796368521	3.6605566337125621
5.0551026028440358	27.3034408945626481	1.2265403728196473
2.1056737113682327	26.4953445408417210	5.1841889373968320
6.1260231375763770	27.9851384355784703	4.4025876913011510
4.6583896097108006	28.6979835310397284	3.7171704920078450
5.8676561982011934	30.6425577661509507	4.4954086746444686
2.2299098004206752	27.2690209555391014	2.8861093042823347
0.2675605259206598	26.1528734722882881	2.9503275828056834
2.3258225993393471	29.2175029972365436	1.8611994301964851
2.4124116053853792	26.0481600451369459	0.0538837866185406
0.6279082163954194	28.6761354529847061	0.7581539312255451
5.2058482861789583	28.4119747277871433	1.5214678676034501
0.2251344182354819	25.1799452323981541	4.6142438646282171
0.7552286408102131	24.6393168028801348	0.2971614148116409
4.9068356630373149	27.9061681233605476	4.5867037651120635
1.7443438181909676	25.5032108417300094	1.8784545234697119
3.0721388483485290	27.1810852544214043	4.7913197476649962
3.6760964519070547	28.9506626444045487	3.0713995786458241
4.0707408695749558	26.2956288532001388	3.5255340954613512
1.9448095450806040	25.8446847179188559	4.1688030761538570
1.6256292118785960	27.4117472589188935	5.8436548774235026
10.8394639254740888	28.1279738170592211	6.0753226444098027
8.8008785665306455	30.3642932836302180	3.2020486223337348
10.9941432078544530	28.0552327816650120	1.6359965126175275
12.7594613758075166	28.1200891817953220	4.6578706696528025
9.7054142436909245	27.8852268648018082	3.4849167748212229
11.0210468242754871	25.3614341004604711	5.3903615060027024
10.2248869748676690	30.1958012783291707	3.5918373510441075
9.5168960158837930	26.9512009040032083	5.5971634696596144
10.5927299886584230	28.8741186545641177	4.7627444752306891
12.3567140955820065	24.9949582147515343	2.8853000790362224
8.1035261736207538	29.0847555702577658	4.5466111625563599
10.5819379185278741	23.4974454727475361	2.4508027077998658
7.7839305353319048	27.0037310969775071	4.4358787861563647
12.7640305622531365	28.4228384066556821	1.0587575595068033
12.5690117348566872	26.9448425656535591	0.1745303331932936
10.6415248530588116	24.2276255841571491	5.0923706750457605
13.1489261852116304	30.7735127086139535	4.7583513959610766
6.6510169826000247	26.9490806962774272	4.0723696975880728
11.2477718798070256	29.9594731369329281	4.6969062512176212
9.8599009841146028	28.0880535971172733	5.3713569653789630
7.8064088391731881	29.8806712381916242	3.6923286222590121
11.9482096702718579	28.8705995193876888	1.9276863829064501
8.3763964494151484	25.0234738981237363	0.4625501435782666
4.8453784061410579	26.1781064245865807	1.5522535758582678
10.1498675648754606	28.7216868290885365	0.9561651719698701
5.7939546183015773	29.0092059437718746	3.4001986032972753
10.7172443405729059	27.7543286677028931	2.7999174349017681
8.8024111510380028	24.8644144810613312	4.1096681776362205
10.1554076756492790	26.0916366042307395	4.9881898250634453
8.8402745332922663	27.0685967114155019	3.7625855036131335
9.7391895006112144	30.2188034063820083	2.3872944289764884
6.9939765518826622	28.7394356511984697	4.8497476185696913
9.8011759856927227	29.0669217693204480	3.8388001382117580
8.9529947541114687	27.2275449346392229	0.1015082710002932
8.3814079848467493	29.0484739374653778	42.9692860995565340
10.8058721690534085	29.2410297848938470	6.6031912482678328
11.5854725546681436	27.6031253013238960	0.6372016120643546
5.2796400574132614	30.4732633054317397	2.3456100514418070
11.4692835789003436	24.3915138124413247	2.3968671138776299
11.6847295681504377	28.1738989171222762	5.2040406112004991
13.9532737772651920	27.1126251335301482	1.8749737153578028
14.8907617797082281	28.3207268376937620	1.6386315450029387
11.3949203367718468	30.0782856770044233	5.9362019270582600
15.6764825524685225	26.1795368711396286	42.8905528651534240
14.2440877776510462	30.5321721902397414	4.2202486449482217
15.7500339209523972	27.2650005109667752	3.2233293024603746
15.5100947180784381	30.3674139109813765	5.4057505915727297
17.6975846657259481	25.3611477249034571	4.6131628228451209
15.9778189632195300	24.5052812112759497	3.2694324207822438
16.2200845792488266	29.3719525704184576	3.9656233135826278
18.2202326054837904	26.3126202126841342	5.7733231471768320
13.2112808397300014	29.2459408555021483	2.6475859604143723
12.4034178401272470	29.9694761834378269	4.2749943372475991
14.0736315540276529	24.6894280652299223	4.4290696859835927
16.9567919892105827	30.9663184943083749	2.3634930780365790
14.8142643348581782	28.3697757481968722	4.6211156510349785
11.6676763346357824	28.4509343532961196	3.0308109375359082
16.6700304944878788	30.0214423932396315	4.9335226395529501
16.3450460419014689	30.2651117949273534	3.1332702189372079
15.8510329162415946	28.1999984505021146	3.9435097141780613
17.6004511251808751	25.3015443274527847	5.8394865480851399
13.2453326995320815	26.5729156186028028	1.1031576167439634
13.7181552429785505	29.9546464523893192	0.0613965423447615
13.1399908417697677	28.1642704299685214	42.8905357431848984
15.0993696044270251	28.3426671231534861	0.4813897372914985
14.1430300278730545	24.7944096880644373	5.6257958794567307
15.1111232594759599	27.2677090486608549	2.2376015630317836
11.3305853247700128	28.7778016496211926	41.9719574208656496
13.8576972779857446	27.6699300424195407	4.6756459505767483
14.9578053804623394	23.9843587801331850	3.9177572077121590
12.0638305865312141	25.0193825429583434	5.9718017922654658
13.6942107922143208	28.3623631662143403	1.9135912909376602
14.8075156350813018	29.5563540158305535	4.8025376681123175
18.6622383239742042	26.2143325960294327	4.6478720625539260
13.4182274928256628	24.8014745595153130	3.3853197863101236
12.5762276917343971	28.8993961164553319	3.6910570493597206
23.7012420945700590	26.5617551816329502	4.6467565540334155
19.5222248342049944	26.5266899997916461	3.8730829220612271
22.9334629945661703	27.7893190986506156	2.7212061715747025
21.2425913058326401	26.6311041974874492	2.2815412824772161
21.1844282665402019	27.8961481074425492	3.3356907992495990
22.8806009988423575	30.7696244679249986	1.4110797862454794
22.4544873019550550	24.8953593988584743	4.5653875037234188
22.0922421243657539	29.1757958008693876	4.9492652528227294
22.9448674050761738	25.6637349500230698	2.9517060276145743
21.8380510701703159	28.8192714812642912	1.5549566730996556
24.6854860183310656	27.3822476614943895	5.9805509791919667
19.9951080152681868	28.8445398928516887	0.2139065943796103
23.3941868555960610	29.7102042746129982	2.9197579494324208
24.6928102104628664	26.2851987808695675	2.8927037019168682
23.4134735178538520	28.1740491480678195	0.0251894845406400
24.2364122728076694	26.7629137979762390	1.5234498789852307
20.4676396345503271	26.8895082085325967	3.2458913213826333
23.8331667299860079	28.5919811392342531	2.7329867451442453
21.1590404477537462	28.9277795602818095	0.5544405747005218
22.3881779199994924	27.5131622790705102	0.0229048890945416
23.4216437143589395	26.6787902129294316	2.4526648211434545
22.5510905535233128	25.4554645749732309	0.0183241989116376
21.7732074636087951	27.7606314145274773	2.2480646374764888
20.1712057043165665	29.3808552116355806	6.5751692027265838
23.5503008824990339	27.0533145919082791	5.7210340103096993
21.9389876020785586	28.5789433249201466	3.9254366303173858
19.5363680977742113	27.7184884142467247	42.9776347829013332
21.7415540127671534	30.2650417623032908	5.3751157562996532
24.1577736526888494	27.8174476154699519	0.9057636665917939
21.8635077542553162	24.1516823571225814	5.3054290425746276
22.8171790807178816	25.9365308866780104	4.1244391292392404
21.6217800353885465	25.4604545342682691	2.1160625714217591
23.9612424874292174	30.6226419398497640	3.4702310992719978
22.0079717837521649	28.5401509477598943	5.9900190070228856
24.5385773646095871	31.3753797220875974	4.1912562041950583
24.6481511038281873	28.2147900054730663	1.9512551863769885
30.3861582912769848	27.6012300980935237	1.2811671089377705
29.7512001728261524	25.9804609892164073	3.6351582516440311
28.2303766929520634	29.5666595225494575	4.7020289538922695
30.8585033563058140	25.0238721377618667	2.9441509845153671
29.1854730190391010	27.9070283997522317	3.2315087121044739
29.8385559727123102	30.7805333830439345	5.1213844321398376
28.2461873013640279	27.7307882084767918	1.6144238409286911
27.9165731695655985	29.2268443394259663	0.3251218820489901
29.1479057287252488	28.4715563243165413	5.3108591299634949
26.3265982488095851	27.3118854860318443	2.8685611209809392
24.5529349728111477	29.7759822718051801	6.4079528121009179
27.7359711490565175	27.0295380315566582	3.6550908679841632
25.8030525596296698	26.3650842828353689	4.7182105639093423
29.7116632524324338	30.2862263615261007	3.5501150326653974
28.0530008812256462	30.3727843600103817	0.2338276347464745
28.8662218344733859	28.6770276442640046	4.1295957717397558
27.1037260290919093	24.4069395137859075	4.3337191510199187
29.3796160305719987	27.8223201712932529	2.0345503063272545
28.8288746005577785	30.5636777886272064	4.3787510188341177
28.3035534723372919	29.1875425275680591	5.8471037179267658
24.6406983656991052	25.3863183836574819	2.0636578974544393
25.2707800688545063	27.2018353959265724	2.2733489562786162
27.7707758307511305	28.0743853160771764	0.5377822507047459
32.3363457267641081	27.4688820647293852	3.7506333611953382
24.7376485101426695	26.3093257953063357	4.0815673907156640
31.3123466622623141	26.9241822704002978	1.8213464823123795
30.1781419304981782	26.4879834114364634	0.4251147381631437
31.2170782202143151	24.5535183795639611	5.6334601910446018
28.9155630112210034	26.8157979523261290	3.7090611984383797
25.4451078850128738	26.4268760147003832	5.8823470735695516
27.4800153776809886	27.5251983540764584	2.5296220383726182
30.9810288832204144	26.0534835876232940	3.6017929727712144
26.5857258937028185	26.9402267482676798	3.9974024409613720
29.7814223488564842	25.4872730185992680	7.2103015155844981
35.5101318473828940	30.4422543621694075	3.0429663751985010
34.8638434798357508	27.9696099500829831	2.2566545894613772
32.7876751438510254	28.4032583510767047	3.0642862699477216
31.7838187967409667	26.2095930087663547	4.5089307712210385
35.1498539906892944	29.0603140479504560	6.1804921843394212
33.6891026146999835	24.7232538612079189	4.4406398129595877
36.0552398851228588	27.7227776012002245	4.6151057613632425
34.2664780393435677	24.8452035497209884	0.0463830969372021
31.7718086424738360	30.1257890884460906	3.8456480435870501
30.8446044534121881	29.8494674609999606	0.4587544683898955
35.7517439333938540	27.8475138328242480	0.3385730350318050
32.3845579257087692	24.6606963617461616	5.3846502206770062
35.0197316772333522	26.0024639219627502	3.3340329664903900
31.3922718332730533	29.2652128425035869	1.9201270499709306
33.9624378529137516	30.7625346038088097	4.3284701219426882
35.8656001175839592	29.5919482112457572	1.7360205154322321
31.6793027793124402	26.8312651213822022	2.9432029927070382
32.1791136318272208	27.7984172935404850	4.9153515547993569
34.2282605543474503	26.7206059736138926	42.5486509881852655
33.1773912899921442	29.4652018837520799	0.7093228366160588
31.3343771386007859	30.4063239537089700	1.4546809005678691
35.5901142627088234	28.4938304284842410	1.3656012364440004
31.8421112795643424	29.1918695075099777	3.0387234496198205
32.7142161414426766	25.4568498878778300	4.5478995863363485
30.8400865832016677	28.7166276500589674	0.9868662633272525
36.5426271739466983	29.9748153495752767	2.6796564882085736
34.8863659860316560	30.2900851362199646	2.0157062494121547
33.8331906660248052	28.6290422368674911	2.5064137078492950
31.6352418808285805	25.1687364390183035	0.2116141372535278
31.4752626304795768	26.9325686737979346	5.4145099251557358
35.1433572814283437	27.1603541786238836	3.1350729294350108
34.9901268675348120	31.1893801760522251	3.8708276199953935
38.1382353209638438	28.7829290632605002	4.1251399622004614
37.4483973475136622	29.3170927119555458	6.4740984779078330
37.4769410343396814	25.2216194033401528	6.7885852307529619
40.1779245606910251	27.2733510032970194	5.3157982676318198
37.4934608584150908	27.3556727756570446	7.2540626918697519
38.6786033726383707	25.4509502334096247	2.9828699979867177
41.9645177850588738	29.6161878805546799	2.9159092960917889
39.3817332709534469	30.4552641092207850	2.4610024054755413
39.3266203653679156	25.0534921947164371	5.3303093145750289
38.3606636789375344	30.2380659558607192	4.9894085911968125
39.4093532168301053	26.8920707140607504	3.7790142174951837
39.9234858726536643	28.7605272909925596	1.2675124693535498
40.3776826634299297	29.2116447186595458	3.3921957327890881
42.4921075281734986	28.6048557530570449	4.1906468642173289
41.4898733743113937	27.3584545523175144	3.7493925261853307
42.3412955093879688	24.8083764056423313	5.3157211523136523
40.9144936745676659	31.1610465916532675	3.2010925087941771
41.0321092495055524	25.5569554126760679	6.2770110735631599
40.5464749576742349	25.4494856659342403	4.1887022713837236
37.7476314366641859	29.9121793671401761	2.7162411318857158
0.1688116295804812	26.3337325266075624	4.1510017958196412
38.7745228211881567	28.1671038491698233	5.7057218429392753
40.4459452708629783	29.3463827639295936	6.3669082243987853
38.4760980862916000	27.6070222856698919	2.1965024138196143
37.7643146902562918	26.3579308847579412	5.3377798300416908
38.7404945155920046	27.7686903538541152	0.0365205393400752
42.5721980552869184	27.3887826720260357	4.3048175251961691
0.4132978975918397	26.4711981251662714	0.4107282856191689
41.4410810011247719	25.2216251015896056	3.4254394900062555
40.4087266993832088	30.2635761325822443	3.9653818157102050
37.9428646069582669	26.9396739378626506	42.7516628672794070
38.9311850061575058	26.5912776280802774	2.7333846547573262
38.9909604061637083	27.5441181210108930	4.6933254926019004
42.7179602198990906	29.7456197604140335	3.8754421497379949
38.0155196159607911	28.3236637607395956	3.0387420607678579
39.9874065486659944	29.4095173442937039	2.2870612037721303
40.3797400191933349	26.5537183928983502	6.3190274181513582
40.5631855369491348	26.7627486457190571	4.2451361045685871
41.7407601080880042	30.6839349685010134	2.4109799287902351
38.3500541358110496	30.5554758948812299	1.8562991986662993
41.4145218941466098	28.5550418640844441	3.4486739209223400
38.3200146460849211	29.9872125948582351	3.8177692926143871
1.8899471308597728	31.7204307941175401	5.3959440751007950
4.9321268211046947	32.9702181950742172	3.6948062123657235
3.6776212790685836	38.3913224130916575	1.8662406034785524
3.4566718591237522	32.3037970110431090	3.8549994997901651
4.2362741376723703	34.9314265978054053	0.5167813048212725
1.5243901859792588	31.9390341493106895	3.4751976366151340
6.1007997488401884	34.2957805300552252	0.0426759704361943
0.7245902226683745	31.4337839874915943	1.6876500303081590
1.3715301173199965	35.3766310842098122	3.6347776611902476
2.9469419430462218	35.8564334962430848	5.1776829642858528
6.6341974294676511	35.7555988913845297	3.9088480185075745
4.8765814844176658	35.6566083930434630	5.0883638876897708
4.0609723139262401	36.2339335895548302	1.4341127799997879
2.2885542308162936	35.0168659344404318	1.7911142315763120
42.3747708747965959	36.5411873933094498	4.0230288606303217
3.3208534097277846	34.4174609502732807	4.4226047894163694
2.3350114345930231	31.1824970300546234	1.4702872759151417
1.2981395373326836	35.0852770053732925	2.4305529885371322
1.3871137966526215	30.6794661963631619	0.8767751683096227
0.2178250915610182	35.7834790202191400	3.7089944569285227
3.3913364442414511	35.2195676944033451	1.4053244435237764
3.4403950952871352	30.8652674444375066	1.7754280450364601
4.5117012106704957	31.8642890587589207	3.2937336418250478
0.4132912242860060	31.7559956919670547	3.8457032709850298
2.3869558940048496	32.0381281798745334	4.3121596355248411
0.9205582934469529	31.9294112934732901	6.1754560888572243
2.3479975361418943	30.8120652015342351	6.0640794582435422
2.4048718059159944	35.2219797373000318	4.2723396191012402
3.8736719748394832	34.9862263143267427	5.3912669632686789
4.9119899280959451	34.0438527190951206	0.0972012112386881
1.6964463747134515	31.8020354100816931	2.2946897007457485
42.7931270941855360	31.5559833808811909	0.9606474117680602
3.8596957938304297	33.4493262082153890	3.9757306642708312
6.7337585897126182	36.5025184950644217	5.6045329254795950
11.9051877352811619	35.9276957499712992	2.3883953378041518
7.1077459171623429	32.5045324617646827	4.0865411644449701
9.5921169391843932	33.0904985101909190	1.8046091850978763
5.9519403739768686	35.5828132054606812	6.7543267388039707
9.8822289764806985	36.2488337286828752	2.3428486147546299
10.9856792962794803	31.8400910459376618	0.6500020403226320
4.7983860359411317	37.2867214909421207	0.3861292611010950
9.2565292163609598	32.2248603725646277	3.6297635155508274
6.3737652076427844	34.2171697915033448	4.1997715469811538
8.4846431353735081	34.7475908705263521	3.4552814193832693
11.0653317393785997	33.2155168531675216	2.6179193047330718
11.9846297807779845	34.7544112076507687	4.1507421062689112
10.1858375005708695	29.9157122480734721	1.3183571703044288
10.6918918514145957	30.6953847102472750	0.5751713182581694
12.0734906358006651	30.9405728040634287	6.4759136063176035
12.2031394715245298	35.9075310016022016	3.5498849458057466
7.3584740419471002	34.7892608851700302	3.8130625719264715
7.1477369870252891	35.6775431608575957	6.4094347370603044
11.8470922759996178	33.9598063058349950	3.2098781352679264
9.1977970946091077	33.4839788683404507	0.7338062617162960
7.1045460562385356	34.0731113359983695	0.6064218256131584
6.0603447437888729	33.0685695180745824	4.0738547480229759
8.0949036825269971	32.4416007154835953	3.4919642084161477
10.7956666535618684	32.8398949233907302	1.3807035210599772
9.4861243310044028	31.0842515434251006	3.9480873077076541
9.9228686745345787	32.9950124843803678	2.9627045315547003
5.6190405262943068	35.1650577043637753	4.2688042662153709
10.9420663720473588	36.3260924671130923	1.8048349635872738
15.7929586314008468	32.5724506896611672	3.6936520842906213
13.6619245855940719	35.5141127767287017	1.8731908307503964
16.4468616411582182	30.9876064766333954	4.1527766827200177
15.3031268148903816	34.4594891278610476	2.2482255875829695
13.3810852705742995	34.9575616514705345	6.0774643725940294
13.0051586425214456	33.6834257096305549	2.8998461777750726
17.6676334024868709	32.2120656069385305	2.9805517520687244
13.5831389790284263	31.4458182146978835	2.5732300208142127
16.3747433319236428	33.2816659843793587	1.9083560076852975
15.9146071194328051	35.5971178851117287	1.1288880831162023
12.7346112450147029	31.5283369164730054	5.5829997509061027
13.3058497567374356	35.4496616467542580	3.8600108050993156
15.8658595717311712	35.9389681293901972	5.8698720633681383
16.0660096281416820	36.7990124674936609	0.9220275404177188
15.6069797634581118	33.4623251975125555	2.8873301667508455
16.8217618377184799	32.1743642858513823	2.0485426799246365
13.6849495790523861	30.3399583216846978	2.9990212596792429
13.5374710229385435	34.8018872273905302	2.8621682362785257
13.3048318193286601	32.5831886725489852	2.5784860565584733
16.3088032007164898	34.4461177513008536	1.5037378185297887
12.7904889919795188	36.3536337656115620	1.6250456073420276
12.5260864262002105	31.5000674422579081	41.8239081457703890
16.8815491964436859	32.1015650620448625	3.9007239314518709
12.9945107914648652	34.9595864478214438	4.9181511877193964
14.8194973612640410	35.4248537800284424	1.6539680491265765
22.5263959278676005	34.1436272249123647	1.3547201636672190
19.0758084161560291	31.6811920262435258	2.3552504233474485
23.8392284054604353	32.8868172517857289	1.2945344418094598
23.7600274939064136	34.0825590805750593	3.1892224764160781
22.4130244188484049	31.2780943143149806	5.5281900879011499
20.2187786174192610	36.9090707049241686	3.4499903074404292
23.3961790473574318	35.0277252390056404	42.6355056535129222
17.5638117651294756	37.2193797553486263	5.6980093577126185
22.3940417071406017	35.9495313907925507	1.0006988933314780
20.7731344937562170	35.3818503387423249	2.0703743913073782
20.9148008683613256	32.7744419378983878	4.8293653104538423
23.8693955850046322	34.6516631485360023	5.2375380928083350
22.3137155789821193	33.4041650777202008	4.4733943777317489
20.7575170282716677	34.6471935311618324	3.4447957880554836
19.1127425249275724	33.8246619675311422	2.2002153277026841
24.3183066621598982	35.3104938818977772	6.1186667194173223
22.0043114911553701	32.3458051832473288	5.0132310325957032
24.4493166624773224	35.2010467397780928	0.3163355656725769
21.1432429845035301	33.7573755781149885	4.1767843322273110
24.9448343833371418	34.2253953669796900	3.3315961821087563
19.2822093497904241	37.6008941257623448	3.2260079784412636
25.3204846885218942	32.2879613362998370	4.3580612333843352
23.3377963970270308	33.6693008218598209	2.1237388176893681
20.7226711145398674	35.8732711585214190	3.2151981643878109
20.0900066477109362	34.4158602939529885	2.4157459093576370
23.2758877362735497	34.0993161086589041	4.3425556049499265
18.1404091189672307	31.0502814493978292	2.6615438876855362
21.2412568494456586	33.4518732796560414	41.9068651963311680
18.7065531027772067	32.7938225907827885	2.5859226494008345
21.8315474413539050	35.0920130300893192	1.6240480120621519
22.5758478007068071	29.7420621210287663	1.9183810410826658
23.4538907345803729	36.3298196022531670	1.5181612002722922
19.8198132007132521	31.8546430760368295	42.0540704177171492
23.3851186139020015	31.7845123995753411	1.1732159285457193
24.7680497082273483	33.1705096977746692	0.5719736701279610
26.3647966764553736	32.8225853054143357	4.9043525642880255
26.3903944137293038	36.2699050709640858	2.1956651963066771
29.2492639251660016	34.8438791647737958	4.4109439668282695
25.0802702577777197	34.2333654041179258	0.0015028326505231
24.4095035370167501	35.5761793342962847	1.4913468272756853
27.7420304094501091	35.2246305452301627	3.4460510002538598
26.9902524871607170	34.4968265759056081	4.9822343730250136
27.5951535952960434	31.8175664051062768	1.8862811446050420
25.6966553093061165	35.2374659434266704	3.4906963934828719
27.4928376105374710	33.3588996855990487	2.8680240770506180
29.2644141291151882	35.3167034132537836	42.9362279429281060
29.9166514699581434	32.5158974609817690	5.4764913631352607
25.5387931195771856	33.2473810328824868	3.6301581192982812
29.2592200777670364	32.0641983817173397	2.7397212114691527
27.9720964171507305	34.0525994115507231	1.4033543345071542
28.3336794501782272	31.6843203383796279	4.1689201075096669
26.8626027367370597	33.5383376373680804	5.7448050797577341
28.0806991298893642	31.8602949105550834	2.9905649134063013
30.0173778799144131	35.5824054207328331	3.9240103343827473
31.0143229647617815	32.7745646252693064	4.9914800811785716
26.8310024979399557	35.9527671038596139	3.2373174418141821
28.4907691557113658	34.6114135882097429	0.5041460522075256
31.5994027825636046	31.8419168600875828	3.0278211945307612
30.6603660378355869	30.3455324475809221	4.3149248589768794
28.8630973897446346	32.3274767779366456	5.0006582984269743
27.9241967179701334	34.4524926897690946	2.5586448739320020
25.3380305698650297	35.7547647347479227	2.2061190194375500
25.9121975495162467	35.0742499197221989	4.7680705871677374
29.9327404272474951	32.8762057688314187	3.2431288657368000
26.7314086946832852	33.3174328250863070	3.8105248073912756
29.8024511691404683	30.9985606762927119	2.5962079484920526
27.4331247665289268	32.9628311918652628	1.6642966703843463
30.2815103702298813	31.4495013475143246	6.0494198466214373
28.0687026470256846	34.8578201481321486	4.5397638727732348
35.7145843376853165	32.1294260440182740	4.3227410666470201
33.3354858860921581	35.0590541225651435	5.2031206438835307
33.5503750162672816	31.6027058688626639	1.5537646855364764
33.8006612913887636	29.6579120048661338	1.8043264225466014
30.8577931546320947	36.2505938316778042	3.4213093527846703
35.6261186018709353	35.7808576912885172	3.6998843749451389
31.4928981555442533	31.7183941591463636	5.9116136723197732
30.9874885280070167	32.6408909835393644	3.7414829405386723
36.0972101773795373	36.2857873712908869	6.2840422500065252
32.4910812627908996	30.4699879794216635	1.0093351441037832
32.7520859619645108	31.4462051758313237	3.0298685788350888
35.1432923654162650	37.2294846743272174	4.3786083182491611
31.7752468005136706	33.4980325103938412	5.6538936911335398
33.3109442042449047	35.3273043661118891	1.0158132556147723
34.8048013915222683	32.1180235275565593	3.0038776720393181
35.1520706132414773	34.0278224364363240	4.7983546412844369
32.4096573067283984	36.7548531666386467	1.6499000930132752
34.6652623188960689	32.7078065316108351	6.1980432354285071
30.9245113213559897	31.2471148180910845	2.2182270908909780
34.0557036910556192	36.8953145869144592	2.6054958438152935
36.0776011515659434	35.0680282281942368	6.4970016690188190
32.4222248364910328	35.2275075291021409	0.2668726805008509
32.8170214845747168	30.7326830102296391	4.0870140721391994
35.2210162233763455	32.8450681963850926	5.1408786384667904
35.6260576583836013	34.5685025513087751	3.8419815307350591
30.4379632415659636	35.0410544881775934	42.7222298081089136
33.0364023762650234	30.6321537431397566	2.1237103473522398
34.3663094151645296	34.5797004374876522	5.5124676326503961
33.7057747250705830	32.2043696450526724	2.6086497921260552
37.9328164091949631	33.8129893582668686	42.1821746490805367
32.2674777077158410	34.5610809658539182	5.3149550613105498
33.4487507685523653	36.1535279324451224	1.8496560349969269
35.8289089309105933	32.6942561780767775	3.2445665821665539
35.5531691110253476	36.6236534362328641	5.2985874137576943
30.6053016416490244	37.4599443382297750	3.7948995019980596
31.2417723188707974	38.4289904026188793	5.7860163131209319
37.8543763653990197	36.3723295418621007	6.9009645474564758
38.5547130079618938	31.3206993052134841	6.5164026590620452
40.0923963794562042	31.0851148642149937	4.7661176525822588
37.5981672676379830	36.9120137695126758	3.0483518360784885
42.4526570473347107	32.5023089830916234	3.7092830178466123
39.6064946043185202	35.9741424574749971	4.0783367631035974
0.0381051669079198	35.2357096583284957	2.5922417114835876
36.1900044624026975	33.8185380218261500	3.1361150376671398
39.8753740363229667	32.2353565017386288	1.5469664005431418
40.8222864279522071	35.7971828286626419	2.2054192574797402
42.5934035661591963	30.9187352014649228	4.1548881573886138
37.1350881274264282	34.5771067043795952	6.1895524141087508
41.7039302129813692	31.4645851217084314	1.4632661796363580
39.4890855099415390	36.7195690979433635	2.6472440018978598
41.7568037574449491	33.3546151181783515	1.8539902355962334
38.5850917902495993	36.2116381882327616	1.1639677018840899
38.4862968411979409	31.1140817882730438	0.7864557369956321
37.0867873958303917	37.5653725189898395	1.1907768249136044
42.4112086253907918	33.2888012086896197	2.8205818504044116
38.9115960559913390	32.3060739115425761	0.7743990207184706
41.0611037444186309	32.5155867097770255	1.3811078419339717
39.9601816092438256	31.5158037020173865	2.5260693948407531
41.6055740260942315	31.6903486147869735	4.0788410222900220
39.4695678277308559	35.0957301855499324	4.8398677568862105
41.9652503173804377	35.4360930010214474	2.0640145172138036
2.2729025393693374	0.4447826169207394	5.5340544666604279
3.9510816537555566	2.5928095159166364	5.3246105853549688
4.0201003026686486	40.0983632201224438	5.4013894499836326
5.2142551992299104	41.0853900988416214	4.4013350167977796
3.3658038232415870	41.8393787094755680	6.6090109006209534
1.5008543587254770	38.9253401601865718	1.9009034054160052
4.3003303241066382	39.7072852700553156	3.1943987916439136
2.4804035285453963	40.3711217378698066	0.9948116982923736
0.4150455558783561	40.1888978864080073	1.7357763433331712
0.8252487845885920	40.4100676441609750	4.9413892841341180
3.5976037432162324	37.9935052269586819	5.9056784004353391
4.1032683153399079	42.8784982833914583	4.1286594804345746
5.1356648121206758	41.7089068908659115	5.8675380356107132
2.5561238340319146	42.3356120619819833	5.8897969682723446
1.6056700940304085	40.1596009783527990	1.7500451041084368
4.4520672464508078	40.1519718790378732	4.2772810282676303
0.3898941085849966	39.3606635391999831	5.1981635626416764
2.6381877137444065	40.0572071889298584	42.8786061931146776
4.6724645722379732	42.0867975374503445	4.7945814320340050
2.5633067768627216	38.5221036045304999	2.2530303124613509
0.2637112361021245	38.9175824828301131	1.7669390850966784
2.9322270037602589	41.8165546097221821	41.7449809437825863
4.4966191383258440	39.2602042091443906	2.1340612385650890
4.2208355797106032	37.4058311100831773	1.4767163307110422
2.7019931694903900	42.9285333935699711	1.5019532119275487
5.3281988419819912	40.6303491188255279	0.8324816531466469
7.2378976661069885	42.3961188997764680	3.7055080596032774
6.3499944743182120	42.1810105190265716	1.8943774362907846
6.3230988622284912	42.7547420964419658	2.9491537062654731
8.1040624773202516	42.6305956570200024	4.5301272906671981
7.1218907001010070	41.3525124257523444	4.4269639285364866
9.5427723118554102	39.2578653050942492	6.2593524615886800
8.5983323828871114	39.5640345914219722	4.2675606956851597
10.5446458625115511	41.5306326226959186	42.6963009402965028
7.3520392256554281	39.7939181015924106	1.0060839170242337
6.5760119016404355	39.1347934835448115	42.7247843157495737
8.7925604570114615	42.6547617324262376	0.4563195336780297
5.3558029767969479	39.5404130938454585	1.3132830877365442
8.2270718994254697	39.9982779442485636	2.9734861876312593
5.8872111162429475	41.6826740982892403	0.9057263952013618
10.0550873124353561	40.3877226462708876	4.3755186707985310
11.6710680552501760	36.8063524147880656	0.9488708390452941
8.0960596482317406	41.5425355948833683	1.5768230604216675
8.2430253178513819	40.6224171414813355	5.6734297791289992
10.6961282106604525	37.9604321716042108	5.0356753358345285
7.5148416599818768	37.7156883954106661	3.9743356414498954
7.9239643550553227	41.7502517235263539	5.3268477207525944
10.3699457080491584	42.6132252949793795	5.5814437998879916
7.6555673926068044	40.3497803697712172	4.0319563407647330
9.2175834381213324	40.0126613826561126	5.2569385293434348
11.3120054982363172	37.6458837131559534	4.1012193030544557
6.9854233405802146	36.7674326982785900	4.4428807494434910
9.2196463552158150	35.5069098445732152	2.9454741135482778
6.1392234991854862	41.0854581496649800	5.1732349965635356
6.3957287791174364	39.0270986733133967	0.9361336969541806
10.3681095430514674	38.3051964249957280	6.1208450919306339
7.9224160002349970	40.3878687737112188	1.8768833208229980
8.8758305600032568	42.5320161954542897	1.7236309475340050
11.1789516133151832	40.7427397509203928	4.5509576107648169
8.1907829491747890	38.6009783308857024	3.6634973211961852
11.6135691939913244	37.5658165479346025	0.0513229257140819
9.3729298715670097	40.1166435600171241	3.4237028760180594
12.0457877179600814	42.5727555976302980	6.2277310199544385
13.8505973897271488	40.9091579876858162	0.6198452060665216
15.8362843978727454	40.3010880363263553	5.7012456385360162
13.4445094061104751	37.4080376238463259	1.8712831544036777
16.6652780331536832	37.6337973125626846	1.5494953223341827
13.7466262193396673	40.1381833622548143	5.4442962054392536
14.2815922566864550	40.2693095673006525	3.4781844755972213
15.7909248805745221	41.5283500044118909	3.9063432917559044
17.9889280888838670	42.1469476474534872	3.5576706309633650
17.6224276899800678	39.1639674530495796	5.1244191066720362
17.0642547099272228	38.8190234738838598	2.9694190232877182
19.3818943408914173	41.7375704541222134	4.8050488962006082
18.5894158813176027	40.3799049182453018	3.0320349117779481
14.8828203257101919	38.6456217192049252	5.0324127543872734
11.5300360380375650	42.6278367113111543	5.1110236455693849
14.0346981388155285	38.0119455382573008	3.8551360816131606
15.6726670686940128	42.4580468151502473	5.6334208335828588
14.8611347451193812	39.0889470395393062	1.4007593346715754
12.2753216581843851	37.1363281519194928	3.6295537754989682
19.0580696195445292	41.7371048607178992	1.0759461118755866
15.3467326511472475	41.4621619734833686	42.7536361394102755
12.3117907918307132	40.5168925723597582	4.7901011895382375
16.9240771147298013	42.1096095374731405	0.4357103669310923
16.7966853518690051	39.5785155365488421	5.8563149344465728
13.2865435921470105	37.5089582523698297	3.0747615048420349
15.7028931612619669	41.3635314960882639	5.1204996527012021
14.5203538077366794	40.2521339176329747	1.3361247537087391
14.9986351011878529	38.7518473632277747	3.8211687008379878
13.3951257562481025	40.1659101744527760	4.2588074918382421
12.1920456421711716	42.7347787567569455	2.1614267691909630
15.9830647737273637	38.6266298662469723	1.3886627491325738
18.0166759696966068	39.3680127095385402	3.5004641737777575
15.1092900138857278	41.0185367553764735	3.0318197227405794
14.1363275508073727	41.7207441690934075	42.8090433688139669
14.2335781198767304	38.0561847671424971	1.2257268820539833
11.5999571750915642	41.6904489374179548	0.3424029272499759
14.0012280064088426	37.8098983608690276	5.0561357630178678
16.7897009905314860	42.0823277943406282	3.5550274134551283
15.8946511519172784	40.8221457480512271	41.9035248443328854
12.8440084841451352	40.7872874359343669	5.8711941456205059
17.9646891772982116	42.2937681673874408	1.0609613513300034
15.8732846890298678	41.6168297978995980	0.8504511973234423
17.4581735089769694	37.8393174396535557	2.4272825356626679
24.4075969812069431	41.9198558568289599	1.3055658839388362
21.4683897201772851	42.9422151180032614	3.9528200538314509
22.2845131190917165	38.2113967029568258	0.2912975922481322
18.5482791195691341	38.2681079004753926	3.8884159929972779
21.7547466547840429	40.3914760775056010	0.3082322759998047
19.8498390598929646	41.5637070471913574	2.9447164858282182
24.8073037444316356	40.9537036460888046	2.8578635019985374
21.6953798440614456	38.9170780932833225	5.2747303591888883
18.6491789391962612	37.7259323386462029	2.1810723176130975
21.0708653042388896	41.8965305169589399	0.3551835288797673
23.6301946877968021	36.8093869744493531	0.4194600742943611
19.9922374986270235	37.8231756201348617	0.4022145546909339
23.6467788109975317	42.6709015300534631	3.2600587830652064
19.1546385764733280	41.0370926090674573	2.1000937713708612
17.8933901708560796	38.0355698890104819	4.8644774112373712
21.4531045472470936	0.6235643249845123	4.9646588006293682
19.0986768714085891	38.0480332949097573	1.1482980746579392
21.6398779491925417	41.2127511968627829	1.2119029243959940
21.6788164386438638	39.2156131109890396	0.0899360451800410
23.4559515819697921	41.9270246856964661	0.5207731694764403
20.5528516142130862	42.2472521025223173	3.5926532773899691
23.4554479879341713	37.9837495221363497	0.1698464245423590
22.5690927696762387	39.5709590746629729	5.6546815303599418
19.8534548976933216	41.5156796090414133	5.8454075988056875
21.6538660965434140	0.0214547463666987	0.6011514914864513
18.8217170086717225	41.3005684166271294	3.8319139911450191
20.7138378286336646	38.3740296709441679	5.5894290290171478
30.6671893903109343	41.2397429065984227	1.6521184000001732
28.6583177544364816	41.5225338591289272	3.1905990266403821
26.5201733061457325	41.2964063334456100	2.0840169417321976
31.2327226247657812	37.7665339067672505	2.6273652592822603
25.4867607978780626	35.5100868606579496	5.8219462480333286
27.3750452290740078	42.0600955643494387	4.1078647082590010
27.8692843096297942	39.8336766483905080	0.8592799040422264
29.6620095966765369	37.7289752968521412	3.1033837072253045
30.5485104698222649	39.2299459297742246	1.4979627159172983
26.9928910220364280	40.1677194456049875	4.7753245450110109
29.9948275648611720	40.2676164570981356	4.3386587188894490
26.6993474608481876	39.5834098598309367	2.7031342777796312
29.2038594663222568	41.5883384177413333	0.1857290866499282
28.2004818554629999	39.8092933164990015	3.1390278716616793
28.5889881458059634	42.2950892101062621	4.1262052427046427
25.6423666282533418	41.9481396887258811	1.1956143388325553
29.9650479694709269	40.2557303375827686	5.5454555140249893
27.1075031712079841	41.2959186626964723	5.0658729719904914
28.6767427823810372	41.7905230259642622	6.2287053818149447
24.0809870164806448	41.8175297732091025	2.4848870317658887
25.8293458398062690	40.4287656219897116	2.6087892951542320
28.7308651627286586	42.3927701387143685	42.3542378326226867
30.3096675023996767	42.5722001182915122	5.2680105170539235
27.2239462632168170	39.5271189689544613	3.8187345428533801
30.6806475524057589	39.2221748256900398	0.3312441944982652
29.1106476056821961	40.4427984860813226	3.5644287653017410
27.4628900812542049	41.4847447046232958	2.8535948379831506
26.8000867718934614	39.6769804988291099	0.3690340582962072
27.7506617267858395	39.5774342118112870	2.0538344198508267
29.5653747918713492	41.4951873749366555	1.3164069346673188
32.1523197167122774	42.9250778247348066	3.0646083776475819
34.6084635880594718	38.8345533261464411	3.4198565139386607
31.1062462293711839	38.2157772906407587	4.5896063514748437
31.4187483903386777	39.5602082382037707	3.1343480319445480
33.0273137924932243	42.1628255474623401	4.8876321330383714
35.2983504406245885	42.8366048043367584	2.9959482519117779
33.0053727660726608	38.5911608176328471	2.0891030195920752
36.6302457844009268	38.6834963913854111	3.9505921999415388
36.1442800001245885	39.4386803518023115	1.0996300445580229
32.1352886185359949	40.4883082250215196	1.4517369006898584
35.2651918605285104	40.7233187076132026	2.6059240548209286
36.5862610268787165	41.3402148452991582	0.9224054662509239
31.4544918538325753	42.5532006465904615	5.0403219915436317
35.3686252041551441	0.6003032944897145	7.0732129402883883
34.6248739745349994	41.0514108285659205	4.1724096480953010
35.8643459787868224	39.0118948637534970	5.3130585889792687
30.9304237442658305	39.5560838255875211	5.5140832188090396
34.0109330615652183	41.5318046622081596	5.1433389462911308
32.6648503562409118	37.8162932070764413	1.1428432788831029
32.0628324923549215	38.5863303898418053	2.8955619694434311
30.9200185428217189	39.4355708350373817	4.2455601427859877
30.1966475676897375	38.3439818768731726	2.2445301836357952
36.5919221227226146	36.3165115528427407	3.2441967641016656
34.0020689557797127	38.1201955551912022	2.6634264957503793
31.7593916854483460	41.6288042894299508	1.2811593573553917
35.4569710208116433	38.3997161902556670	4.2331528344594691
34.6355653242269383	36.4859320829745855	3.5774614277586192
32.9298535923959577	39.6090546605803837	1.3459788607055070
35.8438074771871555	40.5444219269868498	1.5433788633744021
31.0888928728925400	40.1525717442308050	2.1266858429379973
32.1422588127953830	42.2791284365089552	4.0686955309647912
34.6647994657431298	40.0333489462377230	3.4443326524403499
35.2629947452275161	41.7183051684304402	3.3432421641145571
36.3795747731222363	37.2269154788217946	0.2728501600256428
36.7772839653732149	39.5915660408089849	4.7371266435443955
31.4864201946251967	36.6060340015199799	2.4261229903029484
38.8205085235246372	0.9753569698530568	2.2299816076103256
40.1220258362565829	41.2569590647961491	3.5748662724650853
38.7070042335703235	37.9103537185585111	3.9269444524322945
38.9439526282633253	39.9908030700872246	3.5673722840726425
38.7836621671875363	41.7837957682786936	4.4207595792468739
37.6424919992014253	40.3514806385476135	5.0800843167595007
38.0251840735624285	42.7191168676673882	5.4771510212739658
37.8970243938994287	38.6757962338702157	2.3597001289078792
42.1290909314341917	39.2480063011557263	2.0683441980203132
37.9906250986890015	42.3818645555940989	0.9163033845528793
40.9668354156505075	37.8986111278462943	4.2962965993106268
36.4518838053943455	42.3335298537977422	42.1372090809343334
41.4827768066845977	41.0833798007158748	2.6927078174766770
40.1248882169159344	39.3426754411548885	2.3801196983795956
38.4173110806669200	41.7245685368052577	2.3350267277695140
40.8504018690829298	42.2794904705655057	4.6034285958562036
41.0973765670532956	38.9378439170476867	0.4828107029214209
38.0601371469335348	35.3743227880772437	6.3317575187647135
42.3950515608763894	40.4115076458246847	2.3236979916592388
38.9441753139737088	39.2253783169985510	2.6156747237225320
40.5084505186667130	36.3162424468774603	3.2878803342185163
41.0231150461820704	38.9361910627017735	1.6646746206940810
39.9685862880164962	41.4815505744049347	4.8148906776481404
38.9017219404901979	41.2313919086152083	3.3196156957816503
41.8663637031084690	38.2345033142934128	42.9310504853377566
38.0392182098932139	37.1079488666262662	1.8537084859883188
39.7206481338369102	36.0804913691463582	1.6514671124010347
36.9651671974047460	38.7036409252674716	1.6017831934034015
39.8649976513138071	38.1645218341387178	4.0581838579882925
37.5962030922596426	38.1654090470135898	3.4547981542066504
40.5384456843521832	40.3023641801915318	2.9698658327307124
37.8858227161119103	41.5373776674570649	5.2280239977961420
38.7795628019400453	39.9801916886772091	4.7732806626168367
38.5942888497495744	42.8487015044672290	1.8756062690228383
42.1063406017398307	37.6062075602839698	4.4939781888209378
38.7276195594355030	36.6988425563485876	3.5895647335440510
37.6666273857368310	41.3231485663763465	1.4945420320422260
1.4485041337062889	3.1699514833152658	10.7260116124294207
0.7850629164559495	3.6922281532745314	6.6187773183912224
2.3211396556287629	42.7118136525145928	8.2770366342594439
3.3433354161937316	5.3158183850948877	7.9693017473979237
4.6145895299200248	1.3829329942946931	12.4452375037877783
4.4060602934407989	3.7701008218782035	11.6789306359009704
1.4055557087940096	1.4817976806293880	7.1505029168103524
3.4977887440810269	4.5317075960628026	11.5103733391439871
1.0469170048785366	4.3062542475983268	10.5559269288757740
4.5717691135115972	2.6134284696089991	12.0916166069228339
1.4925490910175527	0.4859652846804053	7.8515212732043826
2.1594983104832846	2.3764624479912211	11.3722857477148267
3.4700275399987692	5.8405294426422394	9.0162068004486766
1.1993016751485470	0.8049733578467231	6.1098845039870602
42.7805180163654128	5.6127414052715565	10.2762301205650566
6.2009362523035723	5.0914189625687039	5.2143887231712283
4.6671659326844059	42.2075632524169038	9.7496960158266006
3.3392296706748361	42.2107919851436790	7.7651300807982349
3.4559641989871941	6.9800052935077259	10.9193762835169483
1.9031196047445689	6.1167823584813945	9.8806816506645969
42.8970407859363547	1.9160142830138744	12.6831107706507957
5.1782595625924621	0.5109117320829224	11.7477390710566159
0.4301877512586775	2.5141592068280314	10.4631983078001785
6.4396383653664557	2.8604253614651629	8.8837251896547915
5.8690930719700543	0.8418067083707775	8.1907607265186293
42.3327594061611236	1.1653257616867276	11.0411935460444930
6.2653924582759792	5.1644926432693676	9.4188432700956728
2.3199812231027379	5.7884513778975277	7.5838235142675456
4.3261559548357367	3.7414329876488757	5.4918147737196543
3.2228535114311430	1.3489922915276686	12.5191669226394424
7.6148176499311573	3.6774936263430038	11.1563094797150111
12.8143595258554068	0.7048243802929096	12.4238812137697323
6.5540313702787714	3.9658350468996937	9.3096460757858726
10.2718642824002231	3.1004703835972398	10.0899166867967125
9.9291003597628986	4.2024839898445903	6.4994415836578590
11.4909178510581498	1.5150470897538446	9.1208453599937158
12.3100678945914552	4.0678451644319100	11.3397993172033669
11.5281452284147026	4.4696680142140801	6.8883613360127338
6.4164834844780678	1.6351539032281066	8.8702307152089830
8.8520937388155971	42.9429502066894315	11.4777590572008563
7.6412598023752434	2.5393325704639520	8.6392056713461933
10.6928622309181840	3.1556377878746864	8.4360049621790836
11.0784193773951340	4.8971651932993909	9.9540776184030175
7.3140962407956849	5.2133985469293158	10.0732839947929396
9.1993771095018744	4.0935675776446123	5.5493635347628505
6.9849980330958861	7.7734264808766449	8.7152810002729648
7.5648886099437798	4.0350528058604240	10.0117462853450530
10.5091867455699273	2.2337880586715899	9.2713510046456662
10.6467474008114156	5.1998753874903594	6.4689997887095299
7.5913383110036561	1.4528798038879323	9.1862151612887217
6.8366518618433787	1.4678091711556189	12.8075621179061265
10.2838588751218367	3.4653190967036482	11.2302951605702894
11.8991354065400099	5.0540369318532434	10.7957173285477062
7.8660051969194651	2.6962148345500334	11.7775820617737139
9.5956174637552998	4.7198295996450934	13.0525844187425726
6.9471135939700721	4.4966430886897983	11.7796767064165291
7.7999336039979923	2.7682082474188960	7.4878588797304557
10.7787811576527677	3.6000579834310633	7.2944296027771420
13.3950485112322948	5.2624322772738479	8.4300916013654295
10.6152521206578800	4.0247822248658620	9.3327490329165848
14.5495638855663056	3.4141190900768170	11.4823619333982858
15.6568097230258392	0.3583779673592891	9.3276694221494729
14.6620155614434360	3.1245171440151775	6.5855700535547932
16.5067844951832576	3.6683111771347119	6.1376714107240025
15.9699583875471145	0.4997904651842664	7.5099835675488444
17.3802964293571733	1.2975223548993180	8.3626106635240731
16.1701983213093428	2.1712179598116648	12.6034105390768687
14.1627872210904702	4.5948252468901174	7.8233748059043027
16.9980980199227325	6.0078341818718037	10.2994052453707567
12.7021088535391016	5.9423512863980017	10.8942955283031395
15.1597354158879440	4.9290145006824844	5.9016592976030608
14.9162731237942250	6.3312339997259119	7.4535536599640508
16.8890794835746370	2.1566401761843026	9.5977706491765034
16.5770300017456655	4.4373593779316813	10.0422075852683257
13.0612104371631812	2.9035862995890152	8.0744493065809095
16.7579485105852939	3.2942805454784665	9.8242807678195394
15.5312990194820557	3.0735510959723542	12.0654638482620324
16.3025112633041971	4.6625242703875420	5.5200175225393151
17.6688024926920733	5.0125269383196649	10.2370577648913184
17.1255898872913832	0.7175575351015142	7.3707931683338224
12.2231270961459959	2.2296472019344939	8.4795190923900545
13.8562948689649303	0.5884881887545020	11.9172472355517929
16.1553636184028058	42.4509830316801882	9.9334969828269060
18.0605386244161856	1.7480269512492141	9.3046322852156287
15.9134094741197352	5.4557619490841116	10.0648502641761795
13.9342367014352657	3.4473842385617908	7.5097631710569210
15.1610303837419256	0.1474697857154238	6.5251108228668562
14.8121569493147316	6.5745610681469815	8.6273386121148157
14.4046177421018982	3.9395490711655308	5.6677660566072161
13.4674710468563976	3.8489311165127877	11.3663061112239099
16.2995282915875173	1.3003363669580033	8.9753001366836216
18.5887138228543840	4.2992312521671172	10.2335205105003180
20.4255248555727853	3.4209026460798655	10.7938433796762450
23.8872659073798808	2.8327819401450456	7.1699154267039082
18.8035044501191706	0.7694784758052030	9.6808935501704436
23.9622156229425585	4.2967175923723691	10.3220098122774306
22.3852988292558166	4.2832486348379080	9.8618891164962612
23.1670025242832551	2.1756296613672097	9.8423987085144891
22.7786353097348915	4.6612231836531572	7.7752639062974866
22.1895666664522686	4.5925212489723748	11.4621623095402718
20.0723491589547116	5.7485298538656293	5.7609711610325132
20.9901327720249746	1.4135271979146158	9.9377267855083851
22.2772119230195607	5.3761225386643225	5.3152008986725612
19.0397103723504237	2.3638914138784024	9.7321181773125485
19.8209586668540325	1.4304568730366598	9.7584224732592801
23.0324770730764818	3.6378236018653514	7.2427872180396644
23.0757555018187155	5.7871041370065122	7.3708243500601389
24.0835001276610363	1.3326224918370366	9.8747877789987619
22.3198860704776116	4.9610752166859102	8.8578883648955937
21.4284278865475741	4.0718665032898000	10.6583558293273359
23.0705762777400381	5.0046519236393081	10.7678118862710406
22.1121296649606442	3.9341366627784429	12.4649977455234122
19.3753589338886414	3.4257136860055213	10.1779595866438939
22.5600337797826960	42.7082405920751782	6.6592981022202569
22.1171368633437915	1.6476974278800205	10.1010529627544035
29.9810431909531410	4.9747256322433042	6.1676079578470118
28.9169139170597802	2.6187593012137764	11.0065015368645653
30.7966418697644251	0.2170883900797013	8.2682565029395843
23.9171143363416228	0.4143464428859703	10.6174030248264089
28.2466967240017937	3.7895682374830475	9.7343967442788149
26.1261007108453853	4.6166382532329422	10.6310356918849802
30.4396204637847774	5.4655097668467487	7.8283265732313358
26.7362869228525639	2.0406949570589172	8.2575691461043821
28.1387526267677863	42.1986006821421640	11.3943278976234197
25.4263921751142306	2.9895909446080053	7.3937464183764154
25.1368322045110943	4.0803221327148735	5.6593527888641901
29.0998251188225616	42.9135651347369773	9.7484007769108789
30.5963011955752329	3.7662288564864350	7.9092869404885278
24.9074011649160205	1.6643549876655097	9.0187667889061718
28.4636332900736519	1.4174438574505233	9.6800488880400408
27.0012754647720641	0.5613499868824198	8.7124188011807409
29.7001209428839665	4.2176436743409766	10.8226647258693323
29.1993920796069624	3.3284054467463515	6.5909053301128537
23.2579501302201486	3.3763928734435371	9.9470725370562718
28.5625938285796934	0.0944771918804550	12.0752979411282499
27.2291827131592079	4.3324320775984635	10.1717945231012781
25.4235167061806457	0.8355069324905816	5.6284474362998749
24.9887033608719342	4.9164560816429983	10.3746965824679371
29.3777461193677887	4.2172519031404461	9.6639632434689346
26.4475308947111962	4.4226361199299911	11.8228410077881101
28.3102779668755673	2.5677953996257603	9.9290321397062336
28.6492027807146883	3.7648030820490819	11.3771369385250782
26.5449613677021858	3.0576384218179884	7.7077414084305760
26.0789289471310788	1.3225836138088451	9.0336153409344622
29.4944016805032589	2.0548265527503302	11.9105572296744917
29.7710158047584734	4.2315341548484033	7.1424152534171519
24.6129576720952876	2.3559735768602672	8.0426764907691872
29.6670474847568322	3.2293273825445299	13.5072695969455427
27.1646844774104785	1.0971765728352634	7.6305678375313937
30.5676807303402889	5.8743479689999569	6.7058265786670495
29.3171016066205965	0.9473215036499042	10.3684967295860453
34.7085965391967335	2.5962390018385975	10.1080789368059865
36.5761424861438300	42.9169608052318523	11.3364235634782737
38.1779075099965084	0.2414161885820566	12.2923983334735301
31.7791052341866838	1.9587663636196098	7.3773450820408319
33.4352814078507947	6.0246581906131604	9.6492853076105405
35.9646020396126431	3.7476327043708100	7.0559385235081020
37.7188811303670093	2.8890741285252703	8.7781386928600682
32.2195498049209661	0.6291661035878676	6.5484644195149349
34.4432423028237622	4.5132799318821935	10.7767060668678738
36.6073736094560616	5.3581123463201044	11.0629674444808721
36.3967771252202397	1.8265868322002474	9.7921334950343155
35.7568575176609471	1.8127599722545449	11.2794423167889928
36.1668445632901339	6.0314675695979565	7.3942682376738080
35.1280107360642333	4.9876355928143985	9.1866778632685246
32.0534132627929296	3.8764858483487892	8.5775603385090360
31.4408257635030459	6.2996027803336094	6.0298576486409212
35.6649521080212324	4.7980180780597390	10.2765106234351862
35.3870535518629410	2.1617417184705903	12.3670825372965361
31.5692274992734028	0.7780778370834002	7.5868555297399816
35.5720032860170434	1.2383890776884783	9.1275449336456003
34.1097265775343530	3.6117501256355800	10.0559035285341398
32.2274182498714623	1.8303219859527808	6.2500959678404016
34.1490525359574661	5.5704612214633196	8.7973003477553036
34.6675459532000971	4.7238524284911740	11.9856818861352252
34.9901646734933749	6.9978042917038472	11.3170763499393772
33.7208156685983127	3.0099604411156946	12.7194348335782088
31.5197650893946637	2.9614688898066870	7.9738084177498258
30.5201420655516351	3.8294676132559484	11.5871327004034850
33.7963986130774003	5.6208885803580380	10.6974809885388265
35.8933296079248265	2.7462124740075224	10.4104955880091872
31.2532649518309817	4.7250722037284918	8.2967204211079970
34.5092652555858237	1.5896018749367529	10.7916886250177697
36.2153511552580198	0.0161571578375899	7.7107443034235166
36.0436672331016013	2.5844258213382059	7.0783559765607720
40.5193504138461122	4.3582843821533626	10.0186534574720252
36.4738197823094623	3.8206284767247163	10.3154264552795070
42.5740591754806061	1.8362629381197093	9.9592227505169451
41.4263119075574053	1.0953837135309381	8.0836098269354455
40.2588796515856302	5.9068967441842988	8.8429069183365030
41.8193340224807457	5.4419073529710040	9.5242527602100715
0.1593255626781399	2.0105291030544947	11.5199257023497523
38.7099264386225244	5.3906633934778494	7.2667369563670414
42.8693004753780755	4.3766359823224636	10.2370679066360051
40.1348380656559698	2.4682117020972814	6.8650644055942438
38.4884901385243836	3.5369161897181427	6.7951322246520993
37.7083549956296480	0.8737425077083457	10.1575092293488662
38.1844532536998926	3.9600463910920043	10.4624696969074691
38.9382511871832051	4.2183909737425154	8.7910826726373550
38.5144141446801456	3.3959035582820429	7.9941503035422752
40.7975442568362041	1.4784653433045878	7.1358602397072559
37.2404513226656348	4.1857728929594673	11.2665875510673832
39.5028444316989251	5.1303073892505830	8.2192173542034777
40.3067808542276751	6.7712541851239738	11.5568271416083341
36.4303836995153389	0.9513682422495948	10.7271216046048057
41.8929340185287060	1.2025952169797431	9.1898636748967579
37.7796485658030505	0.6038132737235306	6.2522237194605559
36.0030223815169137	4.8584163474204622	7.4502030803001666
38.2836637372290483	0.4939751635693261	11.1340756803154743
37.4345781392255290	3.8186552003557517	9.5099568008592676
40.6726419724510748	5.5755756900492308	10.1090484853864400
41.7459831862926691	4.1625278579007663	9.7658973851344673
37.5386804924602231	1.8808158084367792	9.4217980716273662
39.3159184698238562	4.0681401773625696	9.9530124821006503
2.0771207907949423	8.5455788779443242	7.2506626309019877
2.1945236793673448	6.1676591379946597	8.7364510783573710
1.1645108568155245	11.9417051132590899	8.1558386995798919
5.7711462438657017	6.2355189438618526	9.5121504906890841
3.1443300349729912	11.2264173638446234	8.9961987976576996
3.1044390420144135	6.0723735786582989	10.1724350379921091
2.0285285395539834	6.4422362063309953	6.6067996338577482
3.9097823487111723	9.2031818054076719	8.6472100906377900
4.1686219284573802	8.9284063914843959	7.1849278093864148
0.9278898370998121	8.9673349701891603	11.6949240101611061
4.9013779516915745	5.6009765465777397	12.6157988870689941
6.4059086539536407	10.8686342337613606	11.5830968360813777
2.3523995026157385	7.1064636102388707	11.5106939395218841
1.0385633329520620	5.6025333949582903	10.5949186899926477
4.8623234352974141	9.5213606877192625	11.3571427467195498
4.8179083993208822	12.0849042243037985	8.4075362346123583
4.6126313758352504	7.4470734066823647	10.9074827768357547
4.9681238592219019	10.7299482236335404	9.6772095703457008
6.0082054277467494	8.5137216661045994	8.4907400476081261
0.6839248627743885	7.4369584031573233	11.7076378444272677
3.0786431413927025	8.8805074179706427	7.7858063456937074
4.8647731760415516	8.6152084090525349	8.1294399999643936
1.7496584198771719	8.1073073958134252	11.9334991770730863
5.7002222796597568	11.4529836264713403	9.0114536243609891
4.3985448221859684	9.9365125807518222	6.6385040253466174
42.7456719533128080	7.5601990423190522	8.8095413509167955
42.9498347823990869	7.1780564054704143	12.6682749855062919
1.6012633928548168	7.5691739337266144	6.7865385017748618
5.5227149578335810	13.0472954030424564	8.1032950381269870
0.5091811231885233	10.1201879069063239	11.9636062761212383
5.5034278100820284	10.4539537059269652	10.7909615473222846
3.9113255933226272	10.2829438469085321	9.2114631485592220
6.1155768169709557	9.1347662911496759	9.5404655994868470
0.9128711116974882	13.0473637027837590	7.6660733231388676
5.1092298001846173	8.3365202564480345	11.6354945428036238
0.2596210905353552	8.2946060578273517	10.9338877482599059
3.8886506788983737	12.1799378993410645	9.1824654697101611
5.5752386620451073	7.2290240309916536	10.1253390148132123
1.7469274537736330	11.6123463893849568	10.9857329685612921
4.0232029769553241	9.8951746616037912	12.1251137517895735
2.0222374693748471	11.7548969676566220	9.0211773017330650
4.4236186248585394	12.1113409890412616	6.8731098150093555
10.5916974860897355	8.5083087290501638	9.1432445712144350
11.9462796278049055	9.3256451458711069	11.2409223677364931
6.6637185820585874	5.6646834705469153	11.7286693479122608
8.2060295297735841	8.0235516499782520	9.2151647954723650
6.4201689233207047	12.3524487276585617	8.5626965999082945
11.9317470533780181	12.3167057319662394	8.0404541199176869
12.2364847602697111	9.2348752238914429	9.3638358751581610
10.4356594445084312	12.3844810729999733	8.5633875826161869
6.5319785837221866	8.0131621977584171	9.8645336408013371
7.7931434299926341	8.9205775589848439	11.4107125504434723
6.5207195786823711	10.0007290047723512	10.2188545665754180
12.3261414832112344	7.5038783670860818	10.5127445133535460
5.9747850239358495	7.5774304094478957	12.0995803194989744
7.6606591579219856	7.2528271184193454	11.1661178790333970
11.3825336686552241	10.3647418832302645	7.8184645751053523
7.1413519445577940	7.9175590669661347	12.0425653205223693
11.3101057780130798	9.2674735972719500	8.3855366893884042
12.0153681937354477	8.3487091188826934	6.6546358705659152
9.4115179710167034	8.2289872094078440	9.1426556001372443
7.6922885465042556	8.1509267681448474	10.3483412649936142
11.9413398782298472	10.3562297795243126	6.7266336457157845
7.3352430183224167	6.1466131006653013	10.8342581070614621
12.4599676629531473	9.9670011657610686	10.3205613021631635
8.4559997231522761	11.6315145705753302	6.5045538345735734
10.6744358950186857	8.8719707524987594	5.5606781106753056
11.1284778543212521	11.4276064980438115	8.2978810833134684
11.6140638471600610	8.2737067675739855	9.9079609957051318
7.2540690565221881	10.0621173559937258	11.1740219507306779
7.5224561038605424	12.6132480612116264	8.1949390474998776
15.4776183062251018	8.1546522623084599	7.2780784659756499
15.7207957164937451	6.4607362969658251	9.4009802524186679
15.9722642460521591	9.6729619037011378	9.5209733478616094
18.5406830240468103	7.1236673633718803	6.7257502589729983
13.2500274024172562	10.6236370458375031	10.9199624561482302
19.6322932261309226	6.7040550083033104	7.8010334697830119
17.2288449920211271	11.2503966008059137	12.1955216724421422
12.2373546275289762	8.7065650059554347	7.7696409695531363
14.2388061814897942	9.4862098383657489	8.1652286647937764
13.6817636492019936	6.2557565312973891	9.0334258309349451
14.2108321948561294	10.7903777257969757	12.2095532795802253
15.0458988722387179	11.1303818758765392	8.2405173791722977
13.7451665178495954	9.0801468817081510	12.6260075626011474
18.7861689932936677	8.7113297999688477	5.4278023154384334
17.9907906053524833	7.3412248530057935	9.2722302078855936
17.6051212343071555	9.3201558611398969	11.1943714756401143
17.8344436234800838	10.2397680139170753	12.0380492171027491
12.8629359152612039	8.7144026868160545	11.8034121689142655
14.3658914591457325	11.1269046322632850	11.0445036407981405
16.8665678680870279	6.9201186328894746	9.5106948326494329
13.1359898414179614	9.0886880326934101	8.4790859098880951
15.3128526395076001	8.9132272218662560	8.1571677953976742
15.1329302966369550	7.2164967802405418	6.6269474129473087
12.3940321018737407	6.8281911486459625	11.6969861248603184
14.4481674290115532	10.4612888603396872	7.4332411230531079
13.0311791436834863	6.6593419975427199	9.9766251069902090
19.5488398093598867	11.2829263648967419	11.4010556773420522
15.3063553945035249	10.6509447432218689	9.3264545847051430
12.5022637003987445	12.2909315798445427	7.0277848808688272
16.7916188538060851	9.5347463771296077	10.3646217894430492
16.7665070044274955	12.3482403133553280	12.1874485398378400
23.6607699580285384	5.8241322204695321	6.3135770158364988
23.2333730581300060	7.3103462915831505	11.4842138929773494
21.9403452242904216	11.5284537017039899	11.3516932473785452
22.8311639741900088	6.0505224572524314	8.5974017237974820
21.1035570793699385	7.3740075748244349	11.4876361774034557
23.7617945681551817	7.2767212752959871	8.5381638364797734
19.3906508978253704	11.4557927805855435	10.2041641797137732
19.2925260818691058	12.4990935342364082	8.3623031827711127
20.7413414626454333	12.1451613272468748	7.1278783995068054
19.5286325606432776	10.6211802572468095	8.2729928939935782
22.9801358946649472	10.5712932550005654	10.2346437787010807
21.5675073672383881	10.5408682913962313	6.3527506494486197
22.2631545933268100	7.7687379908275283	9.7885233707411619
18.9844146669654954	7.6033593577058607	11.3409206602414852
20.9932425023323503	9.7889886725115609	5.6798413147714282
23.9558518966707510	9.8592856667871303	10.0346949703683173
18.6036417021401270	7.2792414941578167	7.9747055885381348
23.9304792381565292	6.2603759835219757	9.1600171987947174
19.3812057519206284	10.5471646506000010	9.4185044422639095
23.1690952852695631	11.7404144647284472	11.1474561964223859
19.5424533909942042	6.3864743244317292	6.6563717826693116
22.5438882145221946	7.3302016505204541	8.7414153874234017
23.5651946757162243	7.4438290280834911	12.6204039765977001
24.3079204835753266	6.8910364452167308	11.0718969433224803
21.6746442932424017	11.3283276083320228	7.2311326897371462
18.2141061382636202	8.4305118324101560	11.8115238204074391
22.8652452168056222	11.4028680416517663	9.2578704545709485
18.7207610204558108	7.2691780734446398	10.2237038481159264
20.0194601290851324	7.2393244611723064	11.9393973318510351
22.1432536151661985	7.5041415645303928	10.9362789176489859
19.8113471208358973	11.6340809027885612	7.7171154690967585
21.8990662907779345	10.4753840306563895	10.7721855351619986
24.5255724055434570	9.0899807475598262	9.3083410894986152
30.7241642678078009	9.2142050886291695	12.3616186858100168
24.3586946147127072	5.9783898791556105	10.2609660162492897
27.2105082586721174	9.6203245867888878	7.3759358398394781
27.7390296964189389	7.8965933094815961	8.0341187694480301
28.0223876009770194	10.7673883600334452	9.2291693947148605
25.6749983391228156	12.2066093493507903	6.6974845454500302
28.0978634490265904	10.6966864710934573	10.9066210258842258
26.5032041136246441	10.1724589587092780	9.2305383369272480
26.5370288603990829	10.3873926377137575	10.8363954972572358
29.9744192746763822	8.1475983375066274	8.6482970216238257
26.7054908502028283	7.5978322984043070	12.0493510026171080
25.6970895855094064	8.4513130000210612	8.3194346868902560
25.8542632692119554	10.9557104565522234	9.9613203965900379
26.7642936708425374	8.5216215893349894	7.7495651747984873
25.7137028357782782	9.2638112096161720	9.2106739050021549
27.2894483389556193	10.4454042336402093	8.2799331373067595
25.5887603289951251	10.0591118579730487	11.5306229547686581
27.3594269740090859	9.5293591013595140	6.1642952441581578
32.0910413963121357	11.1671654633524327	5.0009396651181959
25.4686212814760218	12.9717187573940258	7.5752225037306236
24.4846794843138973	8.2185186488795647	8.4410279456395845
25.8190404769195112	7.0963675602197691	12.6749849425218617
28.8472162812619466	7.8355215066125981	8.3404892597088356
27.4582150331160548	10.0607830367014497	10.0735853365467456
27.2522496660723199	10.8487217330442967	11.7375778817249827
28.5250491045835197	11.5196943078704788	10.1072309707799715
29.5211290965883286	12.5531414860863801	11.7535148556448483
30.6597650533220261	8.6297135732781864	7.7773813428917267
30.4151997751702119	8.0902068750224458	9.7687428843078159
34.3742311428462131	6.7498271267685785	8.5374462415457995
36.1004774070330612	7.3596169730927734	11.0596687584090354
31.8953665244709370	10.2944017450640999	5.8076198800467633
37.5130287750614357	7.3889976936493067	7.4622619086532831
34.0900623656450250	10.8742996766196978	10.9658622112433264
34.2110706825222834	7.5443327396602520	10.5847582120939858
31.1266279238569510	9.3818478238519045	7.0290979033806842
37.3607334999132235	9.4168056966089857	10.8708048239516089
36.3002282779825052	11.0682075933995669	10.4526167275999384
33.0033242041033859	8.5933676043959757	9.8733906878625177
31.1334739150375164	8.4898842857661041	10.6002257253331678
36.7807333119922575	6.4701815694120564	10.5904812216349260
31.3367934695224974	8.2830038080816912	11.8287130741496114
35.5099281500238817	6.7647064401725983	8.1547566916588927
31.1607604167161369	12.9731741204114339	7.2829835681437824
31.5401943926557173	12.1106366395825322	12.6243422321630430
36.5586451598480764	7.1094550585126353	6.7469489235934059
33.6981400364596837	7.2354719151207192	9.5032723095150953
31.3939616597289977	10.1842021273145740	12.0577027086172937
31.3482689413360411	10.5556169121070056	6.8502263524023723
32.5669252700564371	12.1044916133408123	6.6018215868570538
36.9078485234026203	11.1445584014256429	9.3957655473847623
34.4112122890788257	7.9516548632218704	7.0619814937889540
33.0617476034363023	10.7845757839068526	11.5499849985633212
32.0645239962142767	9.2132003579734061	10.2882710875274466
35.1958801339886236	11.2339395828360242	10.8862212990945508
33.7786856996828746	8.6370136286259687	10.7782482972518920
35.1401239633921492	11.6421820342580649	6.7052967308790929
0.3359106109809091	10.2630996482795034	6.9337263742373292
38.4303578847160381	8.9358532820000729	7.2093231405600244
42.2010194125484048	6.9371034734339290	7.8729359208153591
38.8561876581991044	8.3385611489326017	11.4768827801830327
40.4803209685358922	8.2066968389587807	6.9857417346124127
39.3361380918297030	9.8920787275504534	11.7399215709108429
37.5366595983142446	7.3731970679922112	10.3863390295036808
41.4454036943606994	7.4084918193231024	8.9561981778563631
41.1942303083681551	6.4583099976929370	10.8051015402580468
39.2959540686127795	10.1376997939604507	10.0928257011569844
38.8141363796405443	7.1728026719969895	8.4254796847401465
42.6988111487271098	7.7699625032330566	9.9982389861197607
37.2355591388651845	9.9058608077237320	6.5826413994056816
37.8165363495443856	10.7487136387322675	8.6150515396361538
39.6391798639526343	6.8051540912344839	10.4799291872968290
39.4042533200265765	8.4603235537815547	6.5693758543421641
38.1690234249751512	8.1703060355996158	8.1357739606745572
36.8729242488439013	8.3075640648297036	10.8686884495958971
37.1980115985355013	11.9847207168826948	7.7875801813907168
39.9512392371451028	12.5911187133079974	8.7130480050488828
40.0127082293172904	10.5803614437884850	11.0099815886445871
38.3815609266580040	11.9418502142686140	5.9548577957235453
38.6213485847261069	7.3578104495902368	10.8618835149529414
0.5228459618298440	11.0203929468762514	7.7938264357173352
41.2071057232591826	7.8210460137092008	7.8145110928430954
38.8822486873363857	10.8427920751100579	9.2136275736406379
36.7337384938571887	10.9373677642336844	6.2504394490711022
36.2851736408427286	13.2108243381662369	9.4722157214385732
39.6302293935344565	6.8913436655564624	9.2462120110255253
41.5433151006899237	7.4119069695295225	10.1729650477494058
42.8015339524995539	6.5696908109852110	6.8933752533864823
38.6055318177785836	9.3948590085678720	10.8368846379020614
38.8062330005102041	11.9446871280230589	10.7490616179252676
38.6444599107488713	10.6660304943334445	12.4167394160577462
37.4070386508597323	8.7459048515805389	6.4531486816840911
41.4698298038380742	6.1592240198525561	8.5893625161249751
38.2140459173683809	6.4270416402051378	7.6542315037006068
37.0871295255653877	10.5456582678395883	11.2407524985255325
38.0017794146496826	10.2746263494381491	7.4533942706872294
1.9248373478815735	16.0939588052726386	11.2319963140311412
4.4444499410479521	13.0480755684451655	11.8776112384046364
2.5422522675299910	18.0160175160476257	11.7074991457722941
5.2123538989646043	15.4251517031402319	8.3973366323222667
1.9606693213392150	14.7191680471609452	9.6941528159233723
5.3154503073369623	17.1994713911655559	13.3082420304201552
3.7388173195291659	16.6216013525407611	5.4747306716751734
3.8354893996045716	18.8348550579433294	10.9629988148494508
3.8021851272190070	15.0915553001351750	6.9799932587034901
5.2982216614903219	14.0825888062382774	10.0571677955922407
4.9063832749772827	17.0920369151816480	11.0335708090443383
4.0270591973151157	14.4816815239759080	5.3236265788026769
3.4994448456043674	14.5108136445214928	9.0456713039498187
2.9331037645443194	16.9415587624894606	10.2131837345829553
4.7087260126624804	17.1064900763074910	7.2100663641441063
3.6957276400112939	13.0397109642334783	10.0048273102048260
1.9881305627413786	12.3685076122458213	10.0440816205081962
4.3514166764737814	18.0414372484677230	9.5545238292346220
0.2034092092885614	18.1547164963676799	8.8450619905405645
4.6571285290676316	15.2350848391836973	12.1088425280310261
0.8800433618079631	10.8036618950874121	11.0630186711613252
1.9004815254666265	14.7561628578471762	7.7775014056373797
4.6657432202426685	15.8983966567552795	7.4177806012292562
4.5417531588550517	13.4616293887196203	10.7256973756085685
2.4204430345394408	15.7410118022978391	10.1672970616283749
5.2677910163020103	17.2853191878244026	9.8604751529706256
2.7381072433346412	13.7515469205006831	9.7249110462339488
5.1790116253771350	15.8900467164383219	11.2384158972826214
3.0940149164171804	14.7968903456651120	7.9490870469141015
3.4044541515303415	15.4562933775167597	5.7751793294035112
4.6675761364265771	14.7556517527573146	9.2441094346048232
3.8924860004621351	17.5856110058348456	6.3737045657439459
1.8639580675350433	17.2871469813202694	10.9406697004024966
3.3429935602639458	17.4860415617607536	9.1872538752017636
1.3611666662366191	17.8376154151114719	9.0304148213655058
1.6678920174652532	14.5849071487446267	6.6052321071869358
1.8258711500399665	15.4843935734918592	12.2236343194430059
8.5782444099544382	15.8230093624447363	12.6987068299402157
9.8658851597524606	16.2676995915509934	10.0460438210127219
5.8362268410832279	15.6706869753229494	10.2360557404625592
11.2041125601966360	14.3557126182059118	8.3123547609106012
9.6247406096234602	18.0378001520302682	8.7944081872514044
8.6549570687734327	18.7874575532169672	7.2869351969350573
8.9266372639991260	14.2655056865449872	10.1100509933379055
11.9476438199028880	16.3877996491232274	10.5463395546290926
10.3722889200425783	16.6933555142740389	11.7990403149537606
12.0083110676026603	11.1815764413810612	12.5805938216092290
5.9279662481877207	17.0371102679361002	8.8996270688403527
12.4766298775102396	17.4482053437602076	8.7955428543109075
8.4344577014227529	12.0287594530687532	7.6393428874051690
9.7727680642459376	15.2323653806462289	11.6601375772380305
9.0972196955870608	15.0071717135609788	8.1990106634514142
6.8673144292680730	14.6903229360329757	13.2351865152078254
7.1550198754269214	14.9468015515758363	9.3532638813700171
10.5352545975207512	17.5549562405148905	5.2505387017693259
8.3844495547562090	13.5019795851017808	8.2686873589191752
10.3556605767567707	18.5342013630248914	6.6220459033358336
8.7094631359614407	14.2456794999300556	7.3065156704872010
9.3408831340058303	12.6496669340478700	8.1732477959725625
10.8354002304779335	16.7466096540779503	10.6901475149049787
11.3364287227701279	13.2253432190143148	8.5816816374899414
6.2496515460523376	15.8765260260413754	9.0104845938426283
6.3845332452391217	14.5762871983818147	10.2138043133744212
8.2847034371201662	14.5349850633584126	9.0800637244983999
10.2831738466424429	15.0341371282803831	8.1281611000882990
9.4447130876163996	16.9169316657243023	9.1439434578787324
5.4172015923662871	13.3488792183946465	12.5298074334543639
9.7080233061529011	15.1203055708506255	10.4551487019031288
9.2143072779783015	16.3747332383857582	11.8291805096050862
8.7624659937242964	13.2975302843920122	10.7775698819117860
9.5087028490863563	17.8078467026137410	5.9930467837867267
5.7327171542625051	17.5624642372053508	7.8203714575841508
12.6668202444538842	14.8673842935880955	11.9361634721539449
13.6184417396627051	16.7075032356326467	11.9451041843033003
17.1065633159042250	18.5811267609312729	8.2814822010764768
15.5940822904479788	13.1319047850289294	9.1571418972640650
17.1118536595257389	15.2379342649316492	12.2494504409684275
15.5576052317780338	16.2838413800970763	11.5518163933561890
15.5706704868676304	13.1667387631766744	7.5251169773876834
16.3596742814617464	14.1742489928391890	5.7151126242321926
15.1015141816062304	11.4935215715254326	10.1646239911470389
15.5844829458723613	14.9855666581926936	7.6161990040633452
14.6051773292095977	15.5226097152045437	5.9810822111698130
13.5798403894826158	16.1921574729503845	10.3549442830286988
18.3327018669165120	15.3298957490078198	10.9109400352802410
15.6449961340227315	14.0764039589050718	8.3584034025236384
18.7148502129973835	14.5491748406058452	10.1470622637057026
17.8806947406825003	19.0569815394097049	9.1133951979623617
13.6253886849241290	15.0110060809002537	6.4489106470376143
15.3703967036708686	12.2824289724523652	8.3009565879057927
14.4714017337767054	16.5548382489204968	11.0590028646186465
12.7853522718175885	15.8671838427144287	11.2825459237688133
12.7241926390539231	16.6532867021457740	9.6320404114652529
19.1340329161446014	12.4765087515402033	9.5626190402335443
16.0709136270095918	18.7927394964372034	8.8817559249401370
19.4399531601105053	17.8462546505495681	12.0644822510736311
15.6073875794259784	12.6231255870449637	10.2651707008147550
16.1681029955145306	13.2754306389880430	6.5132727809443711
16.4755345634773356	15.5369981526933927	11.3092803821824788
18.3522411899534106	15.6726322142395702	12.0682836980182007
13.2897591689408099	17.8981596259665139	12.1383657041027657
15.5428258592843260	16.5620131805419106	12.7238671475672867
24.8510872233734048	16.7920050573280939	12.4476374735201514
21.1794365327954104	13.7108854862590910	10.2167052792245894
23.6692692368639221	18.5602923980156156	11.6405994342993946
22.2982715984358855	18.1619188994705354	7.0600362583355976
24.3768880043954432	14.4958807267093537	12.2031616179618947
20.9767481152414419	18.2877252135584705	8.3391575197021339
20.2003695560146674	14.1957379648262787	7.5247040548827044
22.2753741072458595	11.3259281600556712	8.2572813240118101
24.8185539476877821	14.0060495962784888	7.3689870850168919
22.8019807286238212	12.2396717917650459	10.1189534958971663
21.2013495882353524	16.2943530598032460	7.5391551110788049
21.1952708645092329	15.8315750130859083	10.6996871368693878
18.9704214801104314	13.6821858561818175	9.3967326702480776
24.0090355750756856	13.4135527548471600	12.0080524174387762
21.5641229172362188	17.4170804532280954	7.6877001028344250
23.0585204958420391	18.0361726870335168	6.1163972927845220
20.7139787806459417	13.3136685423136942	6.8512242689595748
21.3150504854722733	14.8588622831293602	10.0813951187187367
21.7235233576991433	12.6885851759358257	10.3569611485939621
20.6711099381382226	15.2768626371209102	7.3328564984329700
21.3929307081448457	11.8622399800564295	12.4668749359560831
20.7427724013368362	16.4922925370809139	11.5384789096870239
24.5701919412297087	14.8150780409916809	6.5112096642295327
23.8163081979200513	17.4801520055490265	12.2199523178181551
23.1240431244018971	19.1945483670217243	10.7056096266688048
19.3611606266568224	13.6979298127818314	8.2326096757917320
31.1326826747377083	13.9938206629279396	7.8643795687940781
28.5139478553221259	16.8499843040586157	6.5628391272605091
25.5667261278687761	15.3262033626800189	7.0165498793942938
27.4127368561419580	15.9016725536719647	5.8439327518272082
29.0758201246133439	13.6642627748753398	11.9101057376792365
27.8211020950296195	14.5877376963661760	11.4608525708523743
32.1007397264540160	11.1649363273387330	12.1995849583484972
28.7601685832915095	12.5051051597533895	10.7613251360936442
30.6950564672231820	17.1147408313599634	9.8773678470342894
26.0898357697181247	15.6101671789633265	12.6574509630276317
29.9315210575123665	16.8886388961134344	7.8200908885236675
27.0704290304597777	17.2076942995684803	12.0789565093918974
26.0583132161421140	13.6314525077407307	8.4018797027706444
24.8788027366916964	15.5513634842756918	12.3881632830176738
24.1119907626128906	19.5698676979467443	12.2277771492416765
28.5765176522636821	15.6705789163160585	6.2791196001313034
26.0817977375151280	16.8689028812297401	12.8106378758907145
26.3875599226375357	15.3546688927522048	6.1598541189954643
28.3231850408381867	13.6382645004379022	10.9036213281209751
30.4782692620532032	16.5998689904146808	8.8467223345053974
25.6255799219701927	14.6854971496945090	8.0482335687802760
28.8968538812706228	17.4392913582297204	7.5407157944036065
32.8384776314160263	14.8913553367180089	7.4719519103714571
33.8892983411588986	18.5065277887246502	6.7219379806425952
33.2959204998594984	16.6361920271181276	7.4283024682674146
35.6456935239012296	14.1286535017116215	9.8729154027105768
36.7039501296078825	14.3255771849885782	6.5230023005859588
31.4190499704402484	16.1912381886276968	8.0620206148484677
34.8465197619483007	15.2770369433754443	8.2364577885078525
32.9949742884087627	17.2177112123563987	9.2617996323668663
34.8450652333783566	14.1029806465654151	12.0441286211288681
35.7125684796308747	17.9309116440133707	12.0701053368527802
34.6787557404446787	15.6458553620377145	10.9515595332751978
31.5456144188513186	11.7305632882144213	7.1351174937154598
34.7018630993562240	17.2173791234923108	10.5655845544303517
34.6462942087977197	18.2386858577413769	8.7462114772951107
33.0184569394704184	17.3379160443266898	11.4238804259906459
34.5029236375606843	14.4976568940806043	13.0954650971358060
36.1842478257238227	17.0915989017683039	12.7604061113882654
33.6232218696276206	17.3256169139101601	6.5145419928567909
31.7438172228624360	14.9897235012169059	8.0069662629393896
34.1316380541338233	17.4569463672755347	9.5103140154426242
34.3755768181636867	19.2967217400858715	5.9586546342158169
33.8085251221612850	16.4859387653398812	11.1358812370806497
32.7061171940693498	14.2519098718551280	6.4767855735597575
35.0473114230928218	14.4838454395374434	10.9336758279825741
35.5956425890792900	16.3908142920421156	10.6556722147617062
32.4610190482505843	16.8095218661883514	8.2940451263497987
30.8014350550488629	16.5962786969162970	7.0312853695389643
35.4573817426938547	17.7247747584572188	6.1760526700263663
35.6065443319935611	15.1585388725815893	9.1464434584387799
33.8164448584244752	15.5576924398867202	7.7304568686136719
34.2456340435538422	13.7898393356990052	5.1836493606105769
39.8130350862161393	11.7335989933573863	11.3985501817521353
39.9003347043161654	17.8414745028649406	7.1128382075280774
40.8513208157835450	13.4165683816081884	8.9137122870382530
36.2404053331247553	15.9557133305285621	9.7765511190957906
0.9993790969165132	17.5489507096987900	10.1475673200035921
39.3381237057195463	17.8446866698672970	9.4464321295625666
39.2182278304904486	11.9702990643022282	9.5447551518768332
41.5788795729858975	14.9198756217606299	9.1340803411997502
0.2881545278133324	13.8313127143310144	8.4077854536412691
36.7930085462102525	12.2766671027303182	8.9229838206405514
39.0106996653417184	17.4354912970569451	11.4502807674037594
39.6987317619678137	12.8030936224053171	7.5491979664930389
36.2471998218218872	11.7728169070705597	7.0791105163918431
41.8795222360901036	16.8973792400709719	10.1636919449690701
39.8223219041689944	19.0836617161251105	8.4226422889326642
38.8215802942944705	14.4974642295102303	6.9464692723125196
38.0913212662320362	11.2032986480997909	11.4184958460123482
40.5560383740896881	18.6964728652224927	5.9469806604087578
36.0632692143195968	17.9878835547447515	7.1596901823667007
39.0509929938874407	17.1051969332653115	10.3230020539670999
42.1212388861214180	13.8936631177547678	8.7705053957355119
39.0967404119542650	15.4081304415076570	6.2347275702563039
37.7849538454014890	13.9488615240674640	6.7118393197521700
40.5480519659053300	14.3351374262692381	11.2006182758388064
40.4425105486773973	14.5022024554692219	9.2062935947064943
1.1843362915581219	14.6104782219045646	8.7594797125103980
40.4684203031383589	17.5184673095040999	6.0896852318566967
41.4764194378424307	15.8134869768548985	9.9620735456537695
42.7862875187130953	17.6019323419933436	9.8754035892503307
2.8651852179628241	18.5541285022195126	6.5480209149658899
4.0567747471027094	21.8905860849970466	11.6002462498052221
0.9755237287496774	24.3688191412020139	8.6708837495411508
1.7187492461721885	22.9442635753108384	9.5395363613325443
3.6921471002495085	22.1362731746212766	9.1093346046292201
2.4023110582233400	20.2818778996349991	11.6163765231517502
0.5399473232834243	20.6168546590402713	12.5141856600554764
4.9187245975190592	20.2918512350904159	10.0295618577171215
1.3964853582619405	20.9396052961776995	10.1499039148660444
1.3022052036233276	21.1958238601859854	6.1381062358324785
4.4303585523446989	24.1237359415192678	8.9865027162161706
0.2680893704724380	20.2324944275849319	8.9321672691045837
5.0511031344648130	22.1749884595126048	10.0322807095633557
2.4410805214010227	17.8641711981975142	8.5104528399418609
5.4655321172676121	23.6409973033817451	11.2920155648205665
7.0635124444958288	21.0777300117336317	9.6296505164076720
6.0884568141615771	20.7119395484281661	4.8891944511027052
1.5657231867855936	19.3863495675824993	8.2513705190388187
2.3046254903018979	23.0277738033571566	7.7188389045121264
1.0216704986448955	22.9115326924784526	6.7973493347271461
0.7578685711627954	20.1488222718644074	6.5260915080201576
1.4631421874986750	20.1621149277377576	9.2003556549444028
42.8190516134587540	21.0283842929552662	8.1302745322391470
2.1441724066749375	22.4522920010065761	6.6661993916538451
4.4643661655128932	19.1692915533268859	9.9850058606952956
4.2667100437117931	21.2806473298807823	9.7518451100500645
6.0472726988834751	20.8700530243622424	10.2637722312018340
2.7544418617854856	19.1691827046207877	11.3451386516167361
0.2284280916901915	19.1951701150093434	8.2206196359615404
0.9676807934556730	22.0419857706471483	9.8303913573202877
2.3976165285162185	18.7124198103843185	7.6602168742592651
4.6073483763139693	22.9832528580345965	9.2237554927414447
1.5517739731708597	24.1488863216476020	9.7378933057568986
1.2689296974729924	23.6546489026491891	7.7411393243510549
3.1254481401168777	21.2158533575760373	11.7277040020899683
4.9268753384221862	22.5767652042197540	11.1720016890939053
2.6626680501266180	22.6714431998290422	8.8059326287995479
8.7740457022809970	21.0085227414157885	9.6986742573818852
9.8289319204782828	23.8906115481889891	7.5002134645338678
8.5267238882588838	22.7348926860095162	8.6685728670552376
8.2849251703192373	19.9688044054592631	10.9506004114565574
6.7365891357186154	18.1682822536686324	7.5965498076510665
10.1844346670222823	21.9884916555323819	8.6472953929409009
6.9123897198468978	25.1474961009510345	10.0595089187326092
6.2369742543643696	18.6462399300135466	12.4781512833464383
9.6316079733868190	23.8568420285207949	10.0508894596019864
11.1380048252755568	22.0538884995202160	6.5862397527548762
12.4561138689120199	21.3411794021010870	10.9935087590094263
9.2770378018715913	20.3348588500882208	6.0736436962340861
12.1383269971286154	19.8233632913500628	9.6427874578888773
10.0108084192722302	19.9036734698551534	9.7466795958942996
6.4296853383356405	20.3239915755201075	11.3313170302973383
10.2278675991255117	20.3938334812531892	11.6001710081116141
8.1338033896190858	19.1638716637810163	9.1056819884201037
7.9525602047243007	21.8397358781974162	9.2428152931800547
11.1047266882306470	19.6787397227759620	10.2563913071713682
6.1567875224617561	24.2876335879376022	10.5286863720895365
11.7994052870308170	20.6836997361434847	11.7819454031316866
7.1008338385010621	24.7139177710806308	7.1082783233492526
12.5983937919673501	20.9262638302273096	9.8571891410450618
9.0546642744500900	21.4875247201552320	6.0632310093006190
7.8041608339292763	20.1134041579242826	9.8140861061839679
9.7957018306247132	20.9308899024870598	9.0557227024080369
10.3135849028917868	22.1073886186086952	7.4482498385186231
7.7102919195321924	18.6536680188902828	8.0762378914381063
10.9852124934205495	23.9365520086961148	7.1847163676423840
9.7685813818250651	18.5489843851690068	7.6951909407535410
9.2575464009154871	18.9759755303535655	9.4840591732141153
9.3527082215749253	20.5124032667699403	10.7824786739247163
7.5494906874566299	20.2418969609657147	11.8495126743345836
8.7290560945117210	23.1935421738289946	7.5238395984916027
9.6120128747385074	22.9723972320657097	9.2103836476196985
8.4458721941031900	19.4540735005375574	6.3059791782722501
12.4982437318914421	18.8969726501416275	7.1639881108492611
14.8294003782185690	25.0058264632518252	6.6340197076887675
13.7555812866355307	23.6632645379932107	9.9880025497182103
18.6148815641803083	23.1251545262869236	11.3000480258441716
17.1124310751538431	23.9370395037078367	11.1560892609142464
13.9288611263732687	20.5010060779268599	12.2282069952688452
11.8149108679486261	19.5853909881289887	11.2302691336406024
11.6647341083576315	24.5910770064187503	7.9418194344088517
13.6883796155766380	18.8044024663171889	11.4727516304636072
15.3234249913538747	23.6829852479007172	9.7269868555333243
16.4576425163269207	25.3196677526980487	8.0799013831645450
13.6036918292458235	20.4099788430319684	10.3617250091542168
15.5966905697508160	20.3416815251632777	11.2351234028841294
15.2489170509504302	19.5165762264296667	9.2648944223541427
16.9755980813108316	19.8356144822928933	8.7712569821917885
16.9035531061517794	24.4937333250143929	6.4349739615547916
16.5643415596667687	21.4576443280952489	7.9067301517495974
15.2674484818780964	21.5458785616665516	8.9211254056910079
19.2934913480322159	21.2578071687338976	6.7261640888179670
17.4161856921570397	20.3384474249523528	6.6877815908832261
15.8123122087462082	22.1855116143376705	6.6314745115626792
17.6493797435603383	22.3276676114282004	6.0499457920181055
17.3454621309143313	23.6316441875507230	9.3994708799877689
16.5123589256900090	22.3787268879555512	11.0411559646990298
14.5545347167128174	21.9556177001564734	10.8693751142024997
14.0670371355267818	25.2153221022417853	11.2900998027244164
17.9525798490582744	22.9304129582940206	7.5410870692543233
13.6353434234678854	25.0931809194411777	8.7135649088774869
17.8598493100004880	25.7087212874553330	8.9189092556152136
16.2708789130989970	20.8129049614751338	8.8969969317606754
16.3837578873052507	19.8607171767678992	12.0611603789003965
17.4534470963560580	22.8516810766145184	11.6103258794576440
13.6519385101971018	21.2650246572933028	11.3303243008638788
15.6454530943465659	21.5615981543804551	11.1900883174067900
15.4808455197417327	22.0250079987991789	7.8083718971662686
18.3379782127808326	19.2876473748242212	12.3508048520905174
12.4031880239013521	19.6824651539287530	6.3092497383000961
17.0648546553508780	19.5786077937387724	7.5431265362740589
17.2312500913780404	23.3587257957877270	6.6479627043431542
16.4104860897700284	23.4292424223559834	10.2420868150683368
12.6394615372432870	24.4498161210485421	8.6126351685494456
14.5760442796492455	22.7052999625338394	9.9287945438775829
14.4577237692850122	24.4917401948120173	9.4078911453438074
12.9310438433789390	19.3911254838824938	10.7237795748955609
17.7545872786644239	22.6964797551125059	8.7159153539787209
14.7176249335777900	20.3232163486769686	9.9368459057138772
12.5637496346745596	18.4956290621149115	8.2795942293429352
23.2495847312297030	22.6690150546897087	7.9257443625544131
20.5217905152152689	24.1417666830947404	8.2096411207365936
24.7349407342213929	20.5974616256822500	6.2600618493739741
20.6499491645926838	19.7534414283769486	9.9411287072135881
21.9540350317131399	21.7321284240348724	9.7557460692637932
20.1882840217232733	22.9602565049044713	10.0898583825350308
23.9622895822165312	24.1123201920379486	11.3162403669192120
22.2373484927992422	19.4599448932778643	9.9040142083634386
21.7458320849364419	25.2431199023747048	9.4739496385904811
23.7649181269130274	20.1272765903224276	11.1792616296912577
24.4040230889803595	22.1850893457319174	10.3772532374227708
21.9516780636378428	23.7296992558542001	6.4428421533779483
18.7567753392866088	19.7142720998129732	9.6021639789377229
23.2046943340170557	23.3406065183646341	9.4594277435562830
21.5041685607308573	23.8600677047459868	10.0720340015882144
18.5044943968138114	21.9961786924718226	9.4031539441815646
19.4923307860206450	19.6560554622290020	6.9942629476073757
21.0329082130179721	19.8302670100612239	7.4659993129576891
20.0746780473210613	24.5945882235810060	6.7408202358456046
18.6742377933495725	22.2710598713447254	6.8150813927690992
24.7667288091970690	21.1850580044941772	7.2861427564672274
20.9412032401629453	23.8675245099477813	7.0887579751437624
22.1147393933876799	19.3433989556370065	7.3064772277573615
20.2183477522901462	18.9333537667501020	7.6396353931648049
21.2943304425488229	18.8601749697473977	9.3603703164443282
20.3073925252979564	20.6390193205848185	6.9708913202654283
21.3544365158376657	22.6538920133256880	10.2910861096392416
23.9262597426953327	23.2955733791433559	10.4542540177514578
21.6237675083582737	20.5460710454856823	9.9361867645386948
19.5900222495139467	19.4043776550390739	10.4517239219322970
24.2842620559387896	23.2785480314899651	8.2005917281971392
19.4495409538109847	23.7155114879185902	11.9862605577522903
18.6970639686054589	20.8419763635510726	9.2266433702690982
22.7897351888743316	22.2771881520757695	8.9916352811197005
22.9980749209729680	23.4645737662972032	6.9738690970468848
19.0591905812371536	22.6119066859899824	10.2820452284243533
30.0815614325697531	21.3113380741026290	10.9545989885260315
27.0859310659602563	24.0800277886596170	9.3388924529692403
26.5263907770324181	24.6563639892596989	7.4810486051532461
26.9803906113519254	19.2337548807562655	10.9247574510463199
28.0893783739568761	20.0156006729200513	5.0163063590548438
29.9281638563948249	20.9114966423859840	7.3940906008624836
27.5601676316591941	21.2286795290501580	7.0457474139010614
29.1196841076717519	23.4634681242483794	9.2912191251804455
27.4403796456638673	20.0906617909813221	9.2119530349872001
26.9141456039193017	21.5509443588604164	9.8600170714069417
24.0219643006801107	24.0612332037360233	7.2804708017563122
28.7313037076519073	21.7027737648940651	8.5263191550411754
25.6138932096249015	21.4692662885393730	8.0696389560014854
25.3974499593108831	23.5266310686200875	7.8807447418124390
28.2819952801909231	18.3736624509458508	7.9299978545728642
30.9963526600285917	21.4652023097711293	6.0495353171606041
26.8035524658837581	22.5234685760165796	8.6223952759700566
27.7527021172063506	21.2316019106358347	9.0050960239133957
27.3945201381714369	22.9461167407983275	9.6486129347520198
27.2536271166227309	20.7754623435679839	13.9849824318596898
26.9620984228822280	18.1740024412265981	11.4073408859457288
29.6038736740962030	22.4400638902054155	8.8925797878575157
26.9107908956985291	20.2322373911087325	10.2948224132349306
29.7912299935601403	20.1921157995779232	10.6037291055262433
25.8882704357259890	21.8482637920539027	9.2069826118211520
26.0757702922428791	24.2158392786399155	13.5834023653385607
28.8381307685220101	24.5810285571584899	8.8993471204997920
28.7892372405799257	21.4246761573061129	7.3499869354464122
29.7137175848072346	23.8041601161977923	10.3242550146523850
26.6699118223023675	21.8845461994941175	7.5480554901157317
24.1141663992260149	21.2332871707149167	10.9984068070611105
31.3038493484915534	23.0229759719088563	11.6199184055590923
25.2229350464547259	24.5632386111509824	7.1666651387523794
27.6770311004257898	19.1922014499738829	8.4880752730136848
28.9757643278057202	21.1412033312706065	13.4552272016488850
30.5428684899154987	23.5291121777673666	6.9308172001242356
26.4907374355788612	23.7357287202404805	8.2888937865318706
31.4880727005570265	20.6589450576260916	7.9182301850945338
33.2137998848693101	21.4096577888628055	8.6709232694945104
31.8482602628757512	18.7464827282707667	11.0256349818125763
32.1330128929256134	23.9222950355882915	9.3404917761259068
34.0910420769345635	18.9019271484929270	10.6798323130345558
36.0338275277368751	23.4385475626982789	6.8730682594424932
36.1589230857887074	19.2646994493380994	8.1813657892067297
34.0274862638834179	22.9427515383777951	5.5630276584829348
34.2697548089634338	24.2789749230128571	9.9755957617222535
35.4298409924952935	23.2474573414331651	11.1276498874362826
30.5210414026124077	20.0641419088581543	9.6300286623442251
34.9238462400836411	22.3049025748933261	7.4038480278705974
33.4176408325418066	19.5905600791047085	8.5843435906873111
36.0455083629391169	23.0660656813526082	9.0457264990013702
30.6746369958421212	22.4686743223972911	9.4438250379422577
34.8871119846491311	21.4223483519323707	11.8193379944481194
34.2035370504168412	20.7153686750285573	10.0179242351437594
32.0381521863018577	20.9336622262462875	10.2028272427178237
33.5244431692628950	23.1432741206576864	11.7124305273851537
30.7216330778728910	19.9286238211990359	11.4094387967142268
30.9240281506094448	22.7554383310958954	7.7506761894646861
35.9695297576131381	24.9537381408759487	10.1577057308406342
32.5904006734266432	20.4283633789120920	8.2879579570518285
33.5962240354550730	21.8395050191228606	5.1777792981664126
37.0826023275916228	24.0892229946085976	7.0162598122808051
33.7968053231857510	22.1013348969893180	12.1470657534994384
30.6016206757106595	21.0782362518058974	12.0532559891723476
31.2386094848419589	19.0956344800326008	12.1091059560789933
34.0435715417181584	19.5532165813419923	9.6467841669897023
35.9421525559944115	22.7785435120914741	7.9127895298210253
33.8723542804518658	18.6907651321504957	7.9307669138807277
34.9735786074367425	18.2264944136315989	11.1874468964389848
31.5118098808243161	17.6942027730939131	10.4698522223211690
36.2965705360264579	20.0525685321338045	9.0890245053635024
31.0568836036738034	21.6220737867049202	7.2902036285193912
30.4322244167772205	20.3177062088919662	8.4246204407774812
37.5621215298482056	20.5614026157478698	7.4344788071805326
31.5437337290911763	19.8233223036132422	10.3892191086144301
36.3653794597371629	19.1650286090638780	6.9438633640222678
35.1666289091658655	20.8969701817819242	10.7004027433437265
33.0594750040608290	18.5027642343379135	11.1830101028345972
30.9893384670565730	21.5857631715874803	10.1772843710673300
33.2546645437655712	24.3485162817300598	9.2654790083237959
31.4398683051646017	24.5654555014586187	10.1183710630807937
34.2196144534835724	21.7200049811742488	8.1501543373902692
35.7732773676739413	18.1196070761556136	8.3311086825683525
33.1370957090890741	21.2825380966465900	9.8785807055978996
35.8199641595783049	23.6936379311595822	10.0188331163191329
34.9556842350204633	23.0001298998115864	6.3918302234551216
31.4817154608903600	23.0615479612199898	8.7847119056593197
36.1951479528604310	20.3523631683613218	10.3075179900124478
42.8629847892285341	20.0225185911108099	7.3504453231008737
40.8014519569505083	22.6014292004746373	10.5685984628735294
38.0512850707591213	22.6615301206692656	9.4953952525288159
37.9718874924913123	23.4145689401862285	7.5113608513535191
42.4765091055908073	21.4670666376193857	7.0472995901067161
40.2271178603777670	23.4871737368061808	12.4258181633374623
41.6303890674115351	20.7886743414082460	10.3689651632592543
39.6521538994453593	22.9950302573134060	8.8201635323794729
38.1847385743909200	22.8915402245138218	11.8274521225973093
0.1713407409878746	19.9723607632725617	11.0424002109146926
36.9912815247916242	20.7988408975229184	8.4875443312122041
39.3588516388083463	24.8614958386975786	11.9035512084764292
38.0783821788357315	21.6160309851979058	7.7072103055122048
37.3036311126295033	19.8282292496404331	6.4770013897576071
42.7993908257098639	21.7543899339136217	9.6438719645793736
39.6076883557885395	22.0569354824272033	6.9455564069649185
39.9096934311306697	19.6708706607628443	10.6738309786730863
38.0960850956473251	21.1997741446112329	10.7920099882000891
38.2404846793334556	19.6083486920311465	11.3399673014416678
39.1534238569827266	23.8497852774387304	10.6245447966070650
40.9400691898121067	22.0624163023188586	12.8167568144830089
40.6099510493089468	20.3867169001290804	6.3244258805792644
41.3571808204176818	19.9391677898426565	12.1870083550882065
39.9366069995238107	23.2168924075252114	9.9685097524741426
38.8812085288785596	25.0382435607436094	10.7822724746248202
39.9549093923185907	22.1339018630939570	8.0627206656832353
39.7406705104060549	19.0099207386408757	9.6505080818930757
39.0356683646139260	20.4520738619483318	10.9551910846556790
38.4960992647858475	23.4012558362284189	8.6303074060929159
41.6807371720569861	21.9527021682448655	10.0611796288445223
38.4600743245837933	22.4503242869725703	6.9325837307010421
0.3265766495812328	22.0233456879874296	6.4024523427232980
41.8659103668843855	20.4701456341090200	6.6123823518401714
40.2050748084676215	19.1816444092799756	7.0250769893267284
37.5995082810950692	21.7662531784683111	8.8341472846540476
42.1734093326947104	25.1919309171432637	6.4367334591770407
39.5176780251161475	17.9171952690405369	8.2389277222670056
37.2559107324614942	20.2837085501612009	10.9084125466293305
41.0223360900177667	19.9897490889528200	10.9864287406956631
42.7800318314171335	20.4869225860740158	10.0232499750208675
38.1154772776423343	22.4305398234451268	10.6796808495725859
1.4242952686874417	28.8028390557811491	8.5927892531798609
1.7223276074905232	30.4114379783565916	11.2244984114472981
2.7137595556551743	26.7689478687197813	10.9920194605112922
2.0045837584750350	24.9304038133416483	10.5735093312454076
2.7469544895714870	28.1702566134589816	9.3664040038684266
4.1984369033845175	27.2552192645233120	10.5890771181617520
42.9369610937578798	25.5035107383189903	7.3327240896507746
7.1165960653073368	25.6112512499587552	7.9126963617833042
0.0725970851465897	29.9977604809518894	8.3325405259428855
5.8944555663202021	25.2299969086903033	11.3425224713515753
3.9587076631030369	26.0340344085404354	7.8522603407676943
4.8826421654949437	29.6886916864595491	13.4784104197535921
1.6835328244350576	24.5820020347585562	12.5718945774164936
1.1969143540884559	26.8978929156738822	9.8245717425369872
5.5716221460113156	30.9995729754528604	5.6013323119446152
5.7764212630198832	28.3201244390753430	9.8800657012092401
5.4974751397582207	27.3283390796715970	8.5466150146666831
0.4546520095858038	26.5882726616787757	7.3560919326365273
6.6849669586881895	25.9894625885338932	10.8918130573767087
42.9657620347405640	25.0079428998642435	8.4605547447924110
2.5647517150845331	29.2472365702471997	8.8417963744089469
0.1176717071637907	26.7866077463424688	9.3101499190080705
0.5218215529332806	29.3485021504959143	9.2453991794830959
1.7202495888884564	27.6186541186230947	9.0087681378575954
3.9573176726214685	25.1091321896538560	8.5950930678294366
5.1886422747342884	24.7268256971071132	6.2143637405796106
42.8073633994575147	28.3178790938678659	11.1021808522131096
3.6980666490714977	25.9841408338939424	6.6675977641277528
3.0865662682471662	27.7667540680200773	10.4339880943171313
5.1235702335393665	26.5003687959607710	7.7177288071831391
5.8507634209084447	28.9088935151958388	10.9077076241437272
1.8364247124607533	26.1359602293473614	10.4819145503161639
12.0088922023600446	26.3721410728615631	8.8094788951653804
11.7046156748125618	27.7492012947440152	10.3228339403556486
9.2622492512169838	25.3813427365121242	11.0206293636533204
10.1497530787577315	29.2076788249460542	7.5868125281729357
9.7575219211029545	26.0016264322930120	7.6223219062712353
8.3716382133087990	26.8909445139474812	6.7064156278042013
9.0512881356513635	29.0100653396042745	9.3873820742322156
10.1100290498077374	27.4903745817833425	8.9301308825351970
8.2181063000315575	24.2941093784568345	7.1897456889201488
8.2566527188052561	26.4071922570339765	8.7969985091728766
10.3834229169833439	25.7998314192650895	9.2600255079736407
5.7492715585409053	29.4814386228491259	11.9334930814313740
8.4826742831435986	27.3828988560811233	10.7082062662564326
7.5523444764706404	28.4961616640866460	8.8885375780521958
12.6088682090666779	31.2810051420336528	7.6792910777034793
9.5075926161702000	29.5283232164035283	10.3725891744480645
9.2332119796569643	24.9383982410001934	7.3810620759074004
7.5205789585070315	25.4276434105425579	9.0604643483877041
9.9318559938370203	28.6144367847180945	8.5752604274941255
8.9516721689417675	24.2754992382905144	11.4330597189267937
8.2894244908577619	26.7345051122972492	5.5119693483139889
4.8728688866931558	27.5202744884103261	9.6199239865063522
8.3755282445095602	27.8923615281963393	9.6241812544786427
8.1286016434984365	29.5696084655422418	8.7548579302966605
7.7698771783741538	26.6097042696261035	7.6925375961308529
9.4827146518129304	26.4561791385529013	8.7559919377912561
9.6154049234194474	26.8991437703353995	6.8343985986587894
8.9175111596848762	26.4912221614725496	11.3940852047491070
9.9363463016169042	25.0143279416377844	10.0444888491333888
8.4243436418972895	31.6303941534538566	9.3839303625439410
6.4065719146796329	28.1282121323158236	8.8459532013229527
11.1461591962523183	25.6361656134169920	8.3084229334152475
17.0506337023863281	29.9610029923281544	6.0987026887497153
13.7907892565485923	28.3104213883787317	10.9560089425772471
16.3046182669562967	27.3220316438288258	8.4881264777043004
18.2164846298935004	30.3462282875818055	11.7272237968799402
17.7786365159454860	28.8834952007905414	7.8510553766210798
14.1394913930555699	26.5066070133880700	7.9781898620183060
15.8005495035978782	30.9469627796924165	7.5884242904415968
12.9211877250887230	26.7426828392126978	12.3079235707515124
15.5466218056918652	27.0330749672509754	10.8803586707050890
13.7209322376843321	27.2886832789127709	9.6338869974422572
13.2108218590254971	25.2044038340427647	6.3014316960377679
13.0789531041616485	29.7929284617344585	12.3326462310498517
14.0235942429101001	29.2007187793699785	11.7647646102632653
13.5822095314266882	24.0661157989499088	11.1170298926841546
15.9503081878537660	24.9155432512315862	7.0575888700329354
14.9757791487112808	26.0097016000458403	11.3566113544186500
11.1735316313018753	27.0769051465904980	9.4574614968348776
17.2201890054752589	24.6618127984226696	8.8016540298857802
15.1615547412627691	27.0103097431107173	8.2700707079891203
13.9138605381040819	25.5321827095876088	7.2896998401473132
17.0483933720705139	26.3617608304214919	8.2644850781195327
12.8572492093864010	27.9637318399873145	10.1961733793146152
13.2508912222081090	26.4132122208324311	8.8578494438461490
13.9744405734566417	27.3791283230119298	12.5251457612657351
16.5731404973105292	27.6298689727209705	11.0673998933252893
14.6072690044091011	27.6157312050507322	10.3806610406870785
13.7512942443660791	31.3355657104186527	8.0625176422235754
17.1848090925818866	28.1596337439213968	8.5735719409960591
24.2600172701021854	28.5214079982965281	9.8782444434122709
20.7431334386993349	27.9590670237543435	11.0353405144201773
19.1036247098381651	29.1254693177841197	6.9769603919351653
24.0358655395631118	28.4239002909513481	11.9178921788116572
19.8946643810065957	25.9033452876450774	8.6849485416508081
21.6052982052728026	28.7475025432143241	12.5099052375670485
23.6736897328879756	27.1566327933136442	8.0032102376659715
19.1825993756541280	24.7357670262598077	11.3577743900227972
22.7146525722150692	27.6497561069699458	6.3626666027013643
23.2713480994425410	30.7790728129755706	7.3043825885562583
21.3032849160339168	29.5269991051883878	6.2641398182145362
18.2524549391538002	27.4589672628579855	8.5615519682712122
21.6483638123799516	26.8933522736323276	8.1403605597540754
21.7127245077377822	25.8838446208080448	11.3728399828452886
19.6293792139468835	29.5959087616520442	11.4437107806929532
24.0072683751277545	27.7144341379703150	9.0144174038502687
24.7908239860779709	29.5154326710130483	9.4711546909185671
22.4068685654500790	24.2314105197094385	9.2623256890479624
21.1248056443679495	26.0741983817945737	8.8238004033106048
19.4583653560833376	25.7145944041888832	11.9885035665288147
24.8273960712858255	28.5618603558581192	6.0485138916073558
22.8330179373290214	28.4916664331131422	11.7705450054976559
18.8237269893871151	28.2436811158406655	7.7934321489955183
24.6444720755203122	26.5171993209444494	7.6764501582173068
24.7022410382761279	28.1400332239600424	10.9512806017967286
21.0464777157252776	26.8955442029679119	11.4367653494981543
22.7869825732066857	26.2079218845094069	11.8166782535522206
18.8370409523976754	26.4346124488850194	8.9309566585693396
18.4433623414917136	29.2174885621764382	11.3930615617884694
23.9566375595976311	29.7676510000697476	7.4689728499138974
22.5845369019916404	27.1426587990833070	7.4841585801236867
19.7965398817884619	25.0788211750635988	7.7860574443822408
18.1625335455402279	24.3742581704233636	10.8020926015588223
21.5207834423449498	24.9719779309601115	10.6417713788217245
20.4510660328980123	23.9269570872671267	9.3720339705978581
20.6352041492079294	28.9375993014976807	11.6687199179229619
24.3256536576196822	29.3140072961533349	12.7390020199304423
25.6128264130216898	30.4117677756646962	9.5417827731594382
27.9573071978146324	29.3600589845659847	8.8396962735257141
28.7360359375893992	25.3040638152141995	7.8639275292206028
24.6631089541374529	29.2614080724832988	8.2938587488405293
26.3895419434754253	30.4466272273852674	7.5971542849280986
26.9298555847129180	29.5563838728968662	10.9681764755163460
30.5061751474397091	26.3585525971899663	7.5977213189570474
29.0060740164286877	25.4142612282984715	13.3078732263430037
28.7214799738736879	27.8525469885078039	8.7987729276743512
30.8148035227070665	23.8261522910513648	10.8756718762232563
30.4157762839965677	30.5760417232133079	12.2878657604212940
29.6589133173917929	26.5768132504743022	9.2848913137010136
26.4500734355510296	26.1307810662306750	10.1888076881141725
29.8647946871149941	28.2931369026520940	7.2025160048941705
27.5605575136985017	30.8584042005800825	9.3803735041118941
29.1936691037286025	24.8650068277574903	10.0278074975404721
29.7137387344448278	30.7741351725470018	9.2676233380722479
29.5960321659578227	26.5030720325217857	11.3177316829955199
25.7191049423972871	28.7948337785335475	6.8366629609343521
25.1716814106955198	27.3234427144103833	8.5263149569558081
28.1175294656036456	29.2519921191838108	7.0491525164197002
26.4024550066357797	27.2644898180410848	12.3108419495195598
25.1398589577823728	25.7928659150346391	6.8602826450192111
25.5437617048130470	27.3967273142091621	10.5338489699648026
27.5542650284629360	25.9414416347089123	8.7255574116946502
30.0777675481259656	31.5273335274942994	8.3279565569113139
30.0865586600937078	28.3774569236315379	6.0225669044760632
26.3100425763704919	26.7385979950382904	11.2325544279413503
30.8066166102265768	27.5436066119470340	7.4741776784935494
28.8343836777402949	28.5357633242627990	7.7435105321474200
23.4321357548827471	30.9874320397993799	12.3503024177240945
29.8901790352864225	27.7588549202717765	9.2370656619839817
25.7624036135788934	26.8334240887433957	9.4815587721383494
27.8776299772612219	28.3532193247331996	9.4858445440467172
27.3920200221073351	29.8029347556145936	7.8318708729366637
27.0781409662618451	25.2639238798593304	9.6445439153523687
25.4162607711422375	28.3591453475520083	7.9081269021320146
25.7588574808249788	29.9893645821774442	6.6845291561276685
27.4891330467982868	25.3289219020889931	7.6771654738451991
25.5019953295739406	27.8425825103844495	12.8455948145076402
29.8096584445334152	25.8879330898511242	10.3083768656478529
28.6228277504142952	30.2890515730805490	9.2704948522633543
28.6226247267018188	26.5138044437566691	8.6755569066218676
26.6062328145655655	29.4227818155901453	12.1236885652458888
32.9096206876468429	29.2039072858748519	6.5194468802055461
30.9396609106245464	25.5895643743969075	9.7864207749150491
36.8185483403657301	26.0915605617058937	11.6774278082882006
32.2534391290533691	29.3843866337887185	12.9973752561316793
33.0750581659910523	31.0975701708815819	12.4810940826475889
30.9560465264949585	27.5505936529039452	8.7222841285200303
33.6168521731212948	25.4622543528619154	9.0360205713751931
34.9036730973854645	28.2505012547509011	11.2532449150672083
34.4926332746320341	26.5674168084537534	9.8243595302520390
35.7850906965648008	27.6745053697312535	13.2689841850321262
36.0710056905764844	30.1528206421437055	10.9307034668907370
31.1717470716886744	27.8318540375531924	6.2039739020126392
32.0791344796113620	28.8547436817741243	11.2840056627696992
34.2880943285886204	26.7407981430177557	12.4131798352194771
33.1953163561639712	27.6309588764058454	9.9501404594759677
35.8186219009256632	28.6650186143109629	5.3117836668103182
36.7603261072349525	26.8443212906010480	4.9817822787521369
35.1717928779313382	29.3676931905839673	10.9489572542774845
33.6501002880990541	31.0524159466543956	9.8154309049706754
34.0678810313409599	29.3253656162717036	6.5081742155680224
37.2640568453235161	28.5697634114117314	7.4443686670973719
32.2164963135114419	28.2293103256992346	10.2651874254420665
30.2890127290787809	31.3740034554599383	10.1380611165436338
34.7383090271736634	25.3870623173809200	9.6556821461022793
32.1823772615418733	28.5281792379268779	5.8886809810160878
31.7843094776225925	31.0258262619672038	6.9870728223120961
30.7984316043772708	26.2567861657304071	8.7896574279514113
34.1149509481951227	30.7885330800741670	11.8323891224069992
34.2822666747846299	23.7216472976177499	11.0328490872964888
33.3800674740275127	26.6115565687413493	9.2485976730004307
36.9626585010070912	30.4987632458424685	11.6711433081699685
37.0038126557377467	25.3614136843141722	9.6487267508540437
34.2935381312251977	27.5285062624700281	10.5015082815830230
0.2296986095903278	29.2158835176292726	10.4252408612921705
37.4288403557156926	25.9957435544552347	8.7116548545598658
0.6617810066425837	27.3322173702781441	8.3188109401766752
37.9037782550403932	27.4411404093264011	10.1190038216943776
42.5243168563879337	25.7831848487289577	9.2313342639078950
39.1775540447309183	29.7977346521969828	8.2818497942647387
41.1746174596854146	30.0798251246971837	7.5598262419537248
37.3914979015807560	28.9774574601201529	8.5937753402411641
38.0504536522060164	25.7740319771613287	10.2439349389509626
39.6676965595977364	27.3514218313652968	6.8513659168949719
38.0091278010556479	30.0531358938636615	8.5844005553265674
41.5528100114826628	29.7662552117044754	6.4853129868314259
38.0893491098705539	29.1175549618621226	5.4315813046552721
38.2826877600464357	26.6187368345510045	9.2958118939414671
0.8153578061222746	28.3871211171995022	7.6089276025234867
37.2612132020315769	26.1802774104746376	7.5288351064460342
39.1522827790263719	30.9959689489547934	5.5110108997484568
39.9891072542526373	29.7972944848509762	7.4174405373872094
37.6334169988599072	26.6703522698027982	11.0288478839916397
39.6794125197840728	30.0567312527533268	9.3445997381469805
39.9817909437137331	28.2966157134043392	6.0474831971771170
40.8745014303326144	29.8663052975774121	13.1366024357753925
37.6184575680011761	28.4993386489321985	9.6528007583994349
38.4944548517294649	27.3740890918515838	6.5836920964896013
1.4331420891777678	35.8694491747726190	10.0722018843934151
2.9629702351704261	33.6491749245852247	7.7170332042044638
3.1645602426399777	30.2540477466357629	8.8544406912673921
42.5648533275352676	35.0862780001390888	6.9953132114700605
4.6506164856059167	31.9403575248681442	9.4239887476307853
1.3774093520733868	30.9274806914235327	6.7379778483158139
6.3259733438663117	32.2273971878338301	7.9707772955580793
3.8871850298521444	35.8659759720480693	10.2950209015269465
2.5838151148494108	33.2313124897333836	12.3676570466077340
2.5210792369767474	35.5934180443262989	8.8310803904412047
42.9202267638626083	31.2404104892934242	11.2197075543895064
4.0423599441590872	35.3071989850169103	8.0010351821767021
0.3134107751535136	32.9576228911763849	12.3066684855688848
4.5877888157519005	37.3899249423059885	9.5851160066172678
1.7370032678132290	34.6089979559777277	7.3226778663442635
3.7274556708705870	31.0128453601475371	12.1207081742337763
4.6188872563846557	32.4063362726308029	7.2277446748453826
0.1446166169247354	31.9121851505249836	7.1306948555253946
4.5373696268180330	33.0083715782118574	11.8230223617879009
1.1842715637411114	34.0998148003429051	11.0838209956349747
5.7243981873705625	33.1445307784444623	9.2589677996448962
4.2149024980862446	34.3986612871300039	6.4347482590840759
1.2386101994891145	33.9342214359040497	9.0084894471239050
0.5498294043279132	30.8322149001979398	7.6182000495833764
2.5686546886264692	30.8480589666983391	11.8762013219439826
0.8602643847652329	36.2381881828856436	11.0454720696450561
1.8015154633673420	33.5818859558976470	8.0015613421535949
5.5518971754295059	36.2998614674188502	5.8362341554648589
3.9377331490949286	37.0352080372122430	10.5219458970372699
2.8971645313052674	34.9428311615557945	7.6731805526068992
5.1513263153071556	32.4256983976612219	8.3572920055579729
3.7382972675383681	35.6846568777769235	9.1243239164826662
3.7973873486920717	31.1576438730232148	9.2067490702296357
1.8328126203577386	34.8064487369684841	9.6358147888055736
3.4909002470331401	33.5880089679066884	11.6695298124561013
4.9113352491393671	35.0657148448800697	7.1915902581573352
42.0295916920483634	36.0986011041365842	10.9380798198988938
3.8890083211683741	33.3704227757796872	7.0114557696994027
8.3216700911769514	35.3517717693350377	6.5076588188920876
10.1512840556423320	36.7446202345628876	7.1008326356608507
7.8441173204670820	32.4746345421897402	8.6867474557735651
8.0485924874449815	35.5724084798938520	11.3700484227822951
9.6976280870100524	30.6065200556919947	10.7793723523561589
6.4621142831298712	32.8114377326868762	11.7717321807957589
6.8422982527163425	37.1980595430748124	10.3245163152925059
9.3586535647961071	32.2662549113886215	9.7385732686764168
11.1896585270245836	37.6699906909769950	8.8114831622133938
7.9051967259979419	30.7558647073735187	8.6908695421251920
8.0808286548026942	36.3094705548658538	9.6359836820626459
8.6470658116985302	33.2694367034430769	7.1653679286443088
10.1362923169471859	35.9819919329289846	12.0517563995056172
11.4583051263564961	34.0514329111347820	8.9950546933452618
12.3395346201194620	37.0481755708641032	7.8837136880986654
10.1919690064279234	32.9239543630409486	10.9331866670027953
11.5807625594003554	35.0743693418302769	11.1354755259825069
11.6669844984240445	32.1736822624007033	6.7072092168569162
8.9821927060481368	34.1337150204349129	9.2184979140061607
5.2508836496433284	32.6368075048699708	10.2313626894923342
8.6524532600719599	35.2711641904409561	9.4022569045104891
5.2499162899266798	31.7401942099971599	6.4550264726619559
11.7287620029963513	32.0863312786698245	7.8864565492412426
8.3166554402616732	33.7688220184133385	6.1788690092624643
9.9405258034562678	31.7695828175190016	10.7131425465258161
7.3133957930231999	31.5411569110833980	7.9548409429351565
9.0409365279507785	35.5311033157841436	11.9793048115655267
7.3189595966349321	36.1020289115812929	10.6137067090841999
9.6793283381437920	33.4261214287326851	9.9751651116123998
8.7353198555994727	33.2626340441537565	8.3442675461833726
6.7953084991915755	33.0844256112378190	8.7621549628833701
9.3305653654700009	35.9620870232872960	6.7300890586481259
17.1937664452954841	33.6446590650858255	9.6493100724755436
16.6483772716790845	36.6109970914351948	8.6708737328071877
14.7521708734389811	35.9665647753911841	7.2759453116927002
18.2711983628217993	36.7407874872306976	9.0927825596081835
14.9137611272771995	30.1014098792390108	11.6094553681389829
13.8814679611534348	35.1641214709856982	10.4202907611728399
12.6422481773169242	35.0545671693886618	9.4623130145352974
13.5041707673544416	34.5458456435721928	8.1461185482671823
13.6967925424779864	31.6214540631479117	11.7275274836094159
16.8288299179416789	32.2127555562047263	9.0331557148321320
14.6240451702254095	31.6593106395340200	8.7922623369861892
17.0068384590100727	36.5579943818371760	7.1137905520887710
18.3015790015091824	32.8519600534279661	10.5664947527702608
17.1200798627943627	32.5496513974501056	10.1853033206335404
13.8504111067605749	34.6613282664602309	9.3117998602460545
15.8192910429343847	31.6598101766925417	8.5405005615903065
17.1208734471770079	37.7443871470041259	6.6987602691126193
18.2319746369912714	31.2160988854859482	12.5530189859933277
13.9928847729862849	34.9735302058758464	7.1285702008928098
13.9979336442967579	34.7135182797049850	11.5274397767501355
12.3128395549940208	32.6188727703133026	5.8190383396802714
17.0119187143984334	36.1527771639575590	5.9058683705226089
17.2332464720766652	37.1676390879609500	9.6154127666258606
15.8835359034982950	36.3001082058620881	7.7100969694170818
11.7066180226308791	34.4927379030274039	10.0963005353632997
12.3030602402229334	34.6034889168236433	8.3553068315684040
15.2641891638916523	31.2819178222769594	4.4816103460504806
15.9925069175527828	30.4221567379751328	6.5598789056890450
14.7798786956052517	36.3255610656605015	6.0800070168210896
17.5426860992926059	33.1429492333204649	8.5813564406118950
14.4964236246296743	31.0653398099366598	11.0615633533673865
12.8252345939997259	30.9586527209051887	12.2538210276206350
12.9543334779023489	35.9607498749790793	10.2163391657274083
17.7111417523281958	36.3511461271210479	8.0863441410044761
23.5774397017084141	31.8625209064689194	11.5431829340108063
20.3453690211706153	32.8065832635468340	9.2947645030857817
21.6888426378347496	31.9179351442410884	8.6786259677896869
23.2818186421550877	33.7394739898028178	10.9458558187210819
19.1779495778606801	31.7653839028871197	12.0038126386267088
23.0118563099710585	34.9822854725924728	8.9667577826103404
19.2119332518347115	35.9242717349333418	11.8136201408117927
21.0463147306483975	34.2546716058698166	8.6937957817317137
19.7983597281816763	31.4521907108317151	10.1783952573341594
25.1196438024683886	33.0742252340187761	10.4916778716109338
18.7194830649740922	33.3897691824809613	9.0336325980541918
19.2679171186066540	34.7218396468172088	10.0351872315517507
20.8151250538433636	31.6802964297845620	9.5798526366115482
25.8241679333605596	30.9885222898708186	8.4957995021891790
17.8975626848633844	29.5181208592832434	6.8360788377683814
19.4161279584356770	30.8261689321365822	11.1856257646489645
18.2503347043387478	34.0358201444771069	10.0431817409385324
23.4216508218291217	34.5001103608973523	10.0107456589678669
19.2142699772826369	35.7489873162935581	10.6333924136795321
21.8720627999612418	35.1046433984177213	8.6504331971983088
19.8668841940129219	34.0428219937137300	9.1746895015766352
18.9002970951280957	32.8743915143333325	11.6215142085958298
24.0285608221335210	32.7564111903764825	10.9208598922967361
19.1387643767610101	32.4033347100232518	9.7027515292244679
22.3992391037758019	31.2677257136863318	7.9698136958975638
23.4377811658324440	30.9907946201205675	6.0952392194382758
21.2745129299862015	33.0752446781365208	8.5377290835464361
22.7346489210569871	33.5241311128622854	11.9993519151155112
27.5673741659425566	33.7552291844754393	6.7193967748368699
28.5502817056003728	34.5267326358001014	7.8522729518684331
24.4172133779995200	35.8652128593745090	7.4391973027204656
27.1030184034206911	35.9177171528865244	7.2881660339886549
28.3412803434678899	32.6617158966571637	8.5954338410537598
28.1083329952797421	33.2074989748296474	12.3013418049470644
28.5426680679993616	33.6474484818846094	10.4603996574660059
28.7470817839000432	35.6209414179584272	11.3591398875971485
26.2372915169627312	31.9843998475433011	9.0499098198631973
29.3203899462655855	35.3384576449738006	9.8543561522831382
24.5324494002173594	34.7214373413681869	9.5339609191832029
27.4339920291121864	31.9486191039349130	8.9026456053417817
28.3148488789019233	33.3432993728575156	7.6110153342557867
24.1244998513190687	35.2423292375015436	8.4642636885075593
27.6528784701913004	33.7137541828701899	11.3452336601224406
26.7419471185622619	30.2032669839816421	10.0064180436692425
27.0017622080790396	36.8388719008866374	8.0473568330808245
25.7275056810351579	32.1260229973744842	10.1034756091530475
27.7276547263996953	34.9367836786990367	7.0490483727786719
25.3800593802794232	34.2314956408323710	10.2292149169639455
29.0969233007940211	35.0950465927027651	8.7322417646455612
28.9816278406526848	36.3692733995695434	10.4381995460914361
29.0083100141982371	32.9625924207378418	9.5784730815735095
29.9922307387743281	32.2853289857053412	9.4321284076126002
30.5734453005067337	31.2219574736184349	7.2659054543819126
36.4889295563740603	36.1090093309348887	9.5399749452704743
32.4612390552790657	36.6948856884344679	7.5581917958094786
33.0025815857009235	31.7091347863142587	9.1087497139251852
34.4849042460507746	31.9226630356219232	12.2183982458480127
34.9801418257514740	34.5688579381290211	6.5629348423979730
32.1198529651081586	33.1294122401561850	7.3865827832047906
32.8512778161856076	31.6539267211639945	6.9846030211438936
34.6654032841803144	37.1770982956628515	10.3731125428665329
34.2172563233557412	39.3162145144417678	9.6067651614425209
34.4598992241100177	30.6032137335529129	10.6156124032728272
31.8836010330279045	35.0068211362841168	6.3824510665089047
34.0301458592098669	32.6957176434537047	7.6918663182753040
35.9322552781962230	32.1349618176166913	10.9676029524979946
35.5829819891309924	31.1281421615667178	10.4142076422061169
32.6175109782025743	35.8359994769480892	6.7979573001736915
32.3287151396027355	32.5591032279031509	6.2869887274351708
34.0442168864351302	31.8478769402696322	6.7954552711666780
37.6120196749467652	30.5122313583677212	6.6873950832174174
34.6614796586831631	33.5352431999408935	7.1114331477890502
32.8902267512229756	32.4389286799839809	8.1199112658741708
35.4538428175128431	36.4139334302047146	9.9836031636554043
31.4726315119171431	34.0069791824046348	6.8944947302415240
36.5863017329791447	33.0718211712596641	10.6589322915139793
40.3636392171995482	35.5428587316503553	9.9994355523591736
41.0104983138123274	35.1192954961175587	8.5483435181240424
37.9541277943017548	31.1195461158830327	11.4365989744832426
41.5135382819996437	31.8384815756471227	8.3778928384965337
42.8540443580483341	35.5787527236516610	11.7440814931302686
41.4055279743305391	32.4230333755697160	12.1355045903423040
42.2309547833107075	34.8213116486719159	10.3454407794277525
42.3295222297426363	33.6488724362953917	8.2369986225355962
41.4395992204756141	36.1338817123492220	13.4095907936430976
38.6052323423911403	34.6233791613529860	5.4979669365012676
39.5091370925106844	33.9164531641600391	12.0637894645950858
37.5686239974560863	33.5778065427542742	10.9945996085217441
40.3211877490148964	31.0048667315965005	13.1370943244016960
40.6144776214206971	30.7740463052440347	9.2546016026486893
38.7719491185856384	35.6526589083451952	13.6136887619533997
39.2537564014426650	32.3922086401585574	11.4885363071421978
39.2610716006582336	32.1488018700668121	8.5733039032710412
37.6613362467448241	30.9304323118025266	7.8267632405304681
38.5298567972331298	30.2667856387264429	9.7170934823909736
40.3097677737703961	32.8907406801372488	11.9166934219388683
41.6255469271734455	30.6090345053274682	8.5421383041360830
0.7245466087725619	35.0422532574217556	6.9339255255387453
39.2066688780297596	34.8518997916649482	12.7643775037168865
40.1857572629395463	35.9775044854500976	8.8485797184668975
0.0769092300220605	34.5190357120162759	11.1561895465627661
41.2199013831926280	34.7611482016297941	9.7040135861982311
37.7383469394337681	33.7698460755614462	5.5490748372405312
38.7065063232561712	33.4571938188023879	11.2454432869555028
41.7830733123709734	34.6438300500261249	7.7605230386541209
0.0653696598484475	33.9164526588092983	9.1402721353967564
42.5360620087283436	32.2649262567638786	11.6464453580180756
38.4962450989437599	31.2535219100512869	10.3777678642503872
42.2918658105852714	32.5096018213363394	7.7788710718503822
38.5972968264808571	31.7061698400407259	7.6925352712452773
40.3916534360171013	31.9089724073070222	8.8461044058515199
3.7635151710467309	42.1700242772096487	8.9312430804656060
0.5808594226742591	37.7338959669992917	12.5726793799728025
5.1562899351640192	42.6739997107561138	10.8873751038088145
5.9074043384655770	39.8871504936221299	8.6669633719699242
6.0041881817259695	38.5680932620794508	10.3261303110266738
1.0255864806691641	37.4696872542203252	9.1168890963321090
4.2665069944060132	39.4812327417837565	12.2220662068922792
2.6487561410394256	1.2665807413907682	11.4256785677854520
4.3442160956724400	39.9046871656677027	7.0000174071617600
0.6963021036348693	0.0771263428936581	6.9653437531862377
4.1179475461090123	37.7460153375931142	11.4888475669274381
2.4671089799209609	42.2982385746277458	10.5653098115268556
5.9051202169793493	42.8401998610409009	7.6017588496116968
3.8581738301146817	39.1324518030970339	6.1273732619090060
0.0801435820998000	40.3809896245283610	6.8658854939695999
6.6102062029537363	38.0469354917860159	11.2604014395227718
1.7753372663640146	36.5494768052441472	9.1078982187555386
3.2349472374195281	36.9466616994119974	5.5266767781677100
0.2106168070818085	37.8145194167574914	9.9008581275882950
4.8196082296293916	38.7580575253264286	11.3603454939771815
4.9410099332818813	39.7015827156051841	7.9996179924882211
4.1927097110583436	40.9390375194228611	6.2887082539718380
2.6277627610018066	42.3397206726726978	9.4088125466702852
42.8823918230520604	38.1284592049244750	6.4370861647193482
10.9093069240738760	42.7632429384582409	6.6782218543481937
8.2961710142809437	0.7253612238582432	9.8333353846893861
8.1425201403858871	39.9772229944092174	11.5252423574534042
6.8109449119485168	41.7667055195205350	11.8421714389404080
9.0091116669961018	40.1746063691921549	9.3973164982128257
7.2351443038283634	38.2541851560362218	12.3165396115875350
12.1290269325895927	39.5057244917041572	11.3779569596875803
7.7847127444413671	38.7527243953530416	9.5755403701288557
10.9326299351334804	40.3498925534367388	12.5888515399471022
9.6274582490867626	42.1966939988111847	8.5593800974839560
7.9949929007887937	39.6624809201931114	7.3824633831484023
5.7703956090914650	41.6672352761936580	9.7531397546957788
6.7753772189146062	41.3404807843054982	6.2294217311368492
10.6710124533363384	39.4612855567210019	7.7884709047098575
9.7120495757442544	42.0305564987091316	10.1311946681654899
7.3370625743028901	40.2506427494673673	9.4061516433768961
12.2869265258276315	38.9614201453398152	9.2100000013626975
9.9829026063957382	41.2734700410961892	6.7365814480348343
11.1406544330258725	39.2685192514020684	12.0440711465658090
13.1897478519323013	36.9602952574459707	7.0454079380195056
7.7901203895619391	41.0779813444807971	11.8735893307922051
5.7322345402635468	37.4926591990161171	9.7773413821704267
8.1728140397297917	39.8121027108260037	8.5625079219897522
12.6941579486388516	39.0199012637174505	10.3820975633128239
6.3068337452045364	37.9411217118108155	13.0555381502122376
10.6260536403479904	37.0455566531530422	11.8540362685161593
9.1121491386467746	42.8773898653640444	9.4664743845613906
6.0943595773172232	41.9013352355895705	10.8860438404039765
11.1151768410777585	38.8605830656626949	8.7080814979983554
8.5022803151054607	38.8338555477181941	6.7096819921630120
6.3944176803463959	40.9511341003830083	9.0355113550683388
12.7106564771177819	40.0578191005872171	8.8337522779437414
5.9084156559551060	42.0576666526430714	6.7334962994956467
8.0843894224724799	0.7402707815103986	11.0741611202313166
10.0790868899342403	40.1248078870156419	7.0060544952298338
7.5614124526109823	40.5324584358996205	6.6673591735876814
9.7694920196791220	42.2586883602193311	11.2839978925716231
12.4008856378760051	37.5579895373207862	9.0775099845581924
7.8337742069880125	37.5420185158291559	9.6255980853668781
11.9079875680219143	0.4931253442254121	9.5737179351206247
10.2073740756925329	42.1778587764158388	7.4807261521956754
12.2697795950575834	40.6979085594522303	11.1069499961581482
8.2401454723351417	39.7793482896250907	10.2962800179133822
6.6007523581405820	39.2252127468718257	9.4983746083514902
11.0931387378846384	36.9699791507937334	7.8396065881804819
9.6786495421826544	41.1624184123920287	9.2743350806205616
12.6861149629770509	40.5585595968504933	9.9807039670234818
14.5120306729932018	42.5562836768314554	7.4272966065035417
15.8306110572105077	41.7716416495316665	8.9696058887152361
13.8543488640163019	37.1427059119344563	6.0654847312110780
17.9115000819235561	38.1104534231840262	10.0475114451425860
12.5710233156535658	42.6071661672962350	9.9126757157125773
13.0112951598736171	37.1767855700798293	10.1445066710299923
16.9645833479318462	38.9167531307825456	6.8888254786302836
12.7998064555800823	41.7206100639132060	6.6227979381951583
17.9094503548330266	39.4916788762132853	10.9660296276127784
13.2381378233296569	41.1020886850642881	8.4931571645851278
13.5791350690990669	38.7420573974710365	11.1718099954860577
17.2429710053179939	42.3009622057627084	10.3611141298950198
17.0508388527639170	39.7944531885727386	8.8797683394175753
17.5482672739646404	39.3061611593706104	9.8627919291999628
15.3585091567255265	42.7261566680932816	8.2992031484037714
16.3273813333720739	40.7278169387667219	8.8020043648831052
18.2367651578744976	42.8064975691386707	10.0248905008745535
13.5990601610749966	41.7771583003578542	7.5366815737903954
17.4761162427164223	39.2046942709442519	7.9219204085602053
14.8186687398991168	39.6645978198007327	5.6454369543484795
13.1520677424276879	41.6364702810796103	9.5825229137340333
24.3850764462261687	40.2286300733192874	7.9954527948634571
19.9135083089519433	37.8259100800429522	8.2773979451103319
18.8711490831442212	38.0202964286278018	12.2076005293662941
22.1535975393000868	37.7087874609881766	7.9136923898803984
23.8608264773151930	41.3242860437688790	11.4227109050941280
20.7554860573326003	41.2587274033280522	6.5390542339732391
22.7478556618545085	41.6367969126163828	7.1170393193182688
24.2814840565166072	38.1705977319931762	8.1198832419524543
22.7129651843428917	40.0977713314033224	6.7062191179771711
24.5658912431832697	39.2771603337736792	12.2185797588808551
18.4112651461938945	38.4815319695762810	8.0689831009951636
20.3676447511567922	38.1831942073482438	6.7110710030241476
23.5858526374852815	40.7502822183200735	7.2748249741439697
23.8397655671676105	42.5201094652266818	11.4185165903282044
21.7872707360214086	40.8859872299778218	6.9495384062494061
18.3490227067819980	38.4230469925051850	11.2256603059242046
23.1099050652155391	38.3704862792422361	7.9354935241686269
18.8958050045033588	37.7910387383534569	8.9888740712912956
19.3467583064013304	38.3867725844964198	7.3204402353981157
20.9903142126707003	37.7567378071582311	7.7055806911506544
29.6912296495478572	41.0778811047832448	10.9253165832450048
25.5081896313072072	39.9924343534854856	9.1882585782587487
29.0609467680327676	40.6366307512924863	6.2140860932810211
26.7640728396151140	38.9566417341198559	10.2567009129942921
25.8659907592380165	41.6464547855815752	7.6895352907637102
25.3047820455573600	37.5866549976726034	11.2247769839985789
25.8801222139085674	36.8989002074789028	7.6468777607648857
29.2022188732069097	41.4099898170905476	7.5864325699838888
30.8523904746622719	41.6239055788661219	9.1345897196512773
28.9838363443921843	37.2381134849699649	9.6452195696979128
27.4674134251693509	42.0065733712753584	6.0365895652801873
28.9451289421235565	39.6351130961410689	10.4509075549235906
27.9223455581728111	39.6219042692838386	11.7112180704689948
26.3815797725727705	40.5642163390991115	11.3038063223407281
30.1195730749561967	39.6575302327677193	10.2225843900959514
28.0715540812201390	0.3590597537052492	9.2028905955819322
28.8705198807496579	40.3056571280953904	7.3380107330856550
26.1746684680299211	40.0461740451687760	10.2038083286091883
26.7403932785835003	41.5827500112724806	11.8766359195409308
26.6596720698082237	42.2027223350539558	7.0332917954065719
25.2860250549743775	40.9550599810792590	8.4353709459707975
26.1018226051135258	38.0104031580860209	10.4950347107343873
24.8209435879176503	39.2132685592652734	8.5113403924490747
27.9216138049555909	39.0446076907296558	10.6083618101058050
25.9890750617526791	36.0219534683363278	6.7776417739568160
24.6936755196398643	37.0744413889820024	7.7428405402021436
30.0583958938501006	37.7351675994701310	9.4696201973680054
31.5255233301533160	39.4259338255526544	7.5602295559056616
30.5188727178416030	0.0990581084234104	11.6301386380981846
28.9701318150301148	41.9755469760132485	10.5142832112551670
30.5998757217656596	38.5655320118168632	10.1510837330872761
33.0278367106460919	40.7310303792305248	8.3472599061001080
32.2029723325866684	39.3610098428485600	8.6175800783518852
34.9707124902747637	42.3967134863886059	8.0993286203059593
31.0666467928200589	37.8567574734925785	8.8128521297995412
36.1111245834768155	40.6821392993141657	10.7946481236099725
33.8955516118836826	41.7822939396158120	6.4325321474201536
34.6188735691944203	39.0111325934699664	11.2317241512210462
34.7547623612817631	0.6698880377908759	9.8551741209562422
31.4492690131599524	38.3710617555768323	6.9724835649567334
31.1736722923453691	40.2472668762510537	9.9435475270229432
30.5954197801625831	42.6099651929966896	10.5455328359416090
31.1081926387125982	40.5317035465456996	7.8058632861692478
33.3635259992062814	39.6722069140972593	8.8397161596161826
34.5549328611693412	42.6894890957202833	6.9959534067754801
33.2853666559460279	41.1705028447350827	7.2834130949605553
37.0046984491994451	40.0159992397459803	10.2406887622155089
30.4323848372468326	42.7904851785840066	9.3134322677102848
36.9829907216348772	38.4837426498758717	8.3939452987309124
31.5826178611792443	38.7731775968446613	9.4747308482762698
34.3740370958002401	38.3102624581706976	10.2471966932586902
31.7461875408176084	40.6726014211918638	8.8965155835060994
36.5321196410824527	41.6677541546153876	11.4227411840621684
35.9982452795211429	38.7629109097448890	6.4537571422808711
37.5266497752127748	36.5603499347275900	9.2283169382502823
34.6672708946497110	42.6319622579652631	9.2197097795920122
31.6862006602180806	37.5351918951423471	7.8377118564166990
35.0976355998288838	39.9823080208846378	10.7134958059946417
30.7831601879471819	41.3640078398563205	10.3655584094022650
30.3330994388148447	41.4483376465063671	8.0203357845792347
42.8477716903868355	38.2329306727586840	5.2455675660112080
36.4111004475927871	0.3882344924659944	8.8538052265261165
0.1498900916988557	39.2842650851507003	6.4389770160206172
37.3431523057136658	42.9542548658505652	7.2220086060074911
36.5630412284503663	38.1381909199999924	7.2891477160701248
42.9207229396953949	36.9887452049890584	10.8073902776612041
37.1841345642527941	41.9355642897424374	12.4237381423615627
37.5978466276972796	37.7321709345795568	9.1249758033943866
42.5636048650794976	41.3241721023893618	7.3245906770153644
38.2548231599129878	42.2541945434636474	8.8524609522325974
39.0840184110601427	41.4234046474231832	7.6777506352203710
41.0239451078002801	36.6062376887160923	11.4495207276230140
37.1817678292123901	39.3113933872690495	9.2596785506787889
42.7451680350193897	38.6377427180856543	10.7135006568135775
41.6146973956970427	39.6578622274105115	12.0718995033586918
39.7878982191224040	36.9147035789534570	9.4850092258808854
37.8158446918026740	39.3300301719638625	10.7852199454559479
41.7066388947485578	0.4810835577593635	10.1990541812664475
42.2050537763429432	0.9761241517549072	12.2859989123081217
40.2102451441229718	41.8593991300314059	9.6684180529033519
39.4361333797673552	40.6526447191870020	5.5881915689537758
41.0974910023114788	42.4830913666623715	10.0878132649216283
40.1912344967396535	36.6028594943574035	10.5673962560101806
39.5432463989182850	40.8377502321926329	6.7570563271651727
42.7188744132990692	42.4766264789064749	7.2547540448283865
37.4382487631101171	42.9747890067050164	9.3336238996510552
36.8525787461442178	36.9836491990084397	6.9576499910751748
39.3437308695204990	41.6758933685188921	8.8881058419735925
38.0904183123512183	42.1244719912297612	7.6528832826284301
38.0235437699101837	38.5555919656598292	9.9032652877419203
5.5361844693809399	42.9124908374596359	18.0433091432135058
1.3387969964603437	4.4808118423450782	13.4631588651184622
6.0106593348839654	2.1912404271145114	16.0085444830299934
3.0764824161882478	4.6485448086446111	12.6560571839175537
5.7247537868461196	3.4110318982969612	17.9709354806370207
0.0798107187173639	2.4998634576000929	13.7668406173754079
2.8484712901709552	2.5254193457949548	12.4014647459118486
4.6660763772715894	3.0067921695057680	15.0772795543687153
5.6024731833102352	6.0768855851181662	16.4014500138069259
6.2556031951327018	3.9168611658032280	12.5996552289594561
42.6881020538227034	1.9910836494460449	17.9744771683723847
4.3750225947186596	4.5972498221926026	16.6826404040146521
42.5492120978020836	3.4947942712390372	16.7900127512230597
4.4071246938247901	3.2176387050589037	13.1526193477051834
6.3802064754081727	2.6174052409342017	13.9968566751159162
1.4336302346041836	3.3123413963401922	17.4954365694727159
3.7569147144943678	3.2301890006989309	16.9722058351668643
2.6048362739609803	3.2430095740752658	17.2510228022920984
1.2805886081754441	6.3530882843737686	11.6278144229741276
0.6037259257532800	4.0673441331240046	16.9648187859722910
3.2207774402288285	3.4700058112215402	13.0348487678407920
4.4588858681927421	5.7831969724263175	16.4392090464542200
4.6630657224053200	3.8671642893881968	17.6103196775490503
0.6596107177430762	3.5540531289534996	13.9005001662082641
5.1456178357674176	4.3892618103691241	12.4642773276794649
0.3431082202221244	5.2023595771383695	13.2778204309558667
42.5351755134435763	6.4720566525464154	16.6483202817512286
6.2237990305360755	2.8014695242651864	17.0119420863925477
5.2263277267310597	3.0478889905879276	13.9979713334399154
42.8897878107588042	5.2385840235274808	15.2412232778509349
7.0811174420805001	3.5263526046307532	13.4175671695078087
4.9750950846858064	1.9005052871559691	15.4647836047804379
4.1595244952637209	3.7218231400202249	15.8840256006473570
2.3001310601238716	5.2036231631678538	13.4290768566313012
5.0596702230995998	0.9034780760685727	13.5431191762194931
10.4701591948665058	4.2170871254077014	17.3979360457688657
7.0986333591208757	3.5935548891070308	17.2358653364815133
9.9201023480740638	3.7687596641489636	12.3297852943812849
10.5666393612869882	2.0112286272913353	17.4229428375942454
7.4539064322063471	1.5497395534047758	11.7599223663138464
6.8867042452171896	6.4803458567251697	14.7346723076459760
12.0842606929224079	0.8460846038512753	18.3230514044856072
8.0713310936746794	2.8653291934872964	12.9570555054523933
10.7402512659609801	4.8507231482902435	13.4408104012915661
10.7720450384049542	0.0728121726043527	16.7854286416923273
9.4217916457829318	3.9759606959473368	14.0298380149082060
7.6658964316505189	5.4368517886232173	16.1311753209095947
11.2988821285676178	3.4160995843375495	14.2967451385474771
10.7497970784010537	5.0421277415696020	15.5672801763664932
7.6036691602908455	3.4590661639905762	15.3945659079482873
7.6550425383192300	4.5681853343823242	13.8871973738854155
11.6537062760117660	1.2579806896632935	14.3576870664420380
10.4394926434715938	2.5185319540343283	13.2951312836271036
9.3037914207406978	2.9334759657657958	13.1979222585293527
8.3959122135145439	3.9785186360780957	14.6439846882899651
10.5374058822970067	4.2932487713078258	14.6568079948002588
7.5150273941035275	4.2491378660879251	16.3322373341089033
6.8196183226520031	2.5691910652196674	15.1486642197668306
10.0167023957704142	1.0734203918714054	16.9047096567222397
8.6643743187396485	6.1375588682121629	16.2428655673190470
7.6362088971530753	5.7720287511503656	14.0594956317746060
6.7990314873539841	42.5135836556198541	12.8172265800404794
7.9201870039883229	5.4174677644213816	19.0746279081271801
10.4669709248415437	3.1742717782471699	17.9371521195435335
11.0026842705606853	2.2474934145574470	14.3411971578279669
11.0612147223663371	3.6039053473942513	13.0826031391072224
15.4137669934847885	3.8832359381559476	13.0071236213352304
13.9656712094577617	4.5702403770882514	16.1588912823954267
17.2249563919899487	3.0608454251021913	15.8660012271257713
14.2622469428613492	2.0431675021420328	17.8965322378518401
15.7226273675099968	0.1718626938621493	13.7196584932898151
17.3636528663048466	1.5143776389575692	16.2258191527521021
14.9511499014121139	0.4242365649679466	12.3239394679655856
14.0156712284494951	3.1785301445977341	14.7292002004742848
11.7067368193915318	5.9824425024652763	16.9605493225364725
14.8314978907856450	2.1052703804608437	13.8320599526633288
15.2534348246936275	1.8367579438963517	15.8952352120421843
16.1892931120353616	4.6965901570501076	13.3548756950935434
17.4781808321481051	5.3010067163242134	18.0394770996750715
17.2678076038046697	2.0687860185916334	13.0313317105842348
14.5953081421007713	3.2947934822037546	13.6660895496869514
17.3582277854240452	3.9809310787948173	15.1358508125205535
16.4272917498231514	2.1066546243384736	15.7617534377940913
18.2602156233225053	0.6789762897012781	16.6917448180701449
14.5748035504057931	5.5603063455215995	16.1156151682601383
17.9730512332706382	2.4982180268137646	16.6617049763216230
11.6926106250571902	1.8647147253935337	17.8219604367641900
14.8741147035336763	1.4978793616059771	16.9799657148883227
11.0822526776186212	4.9825850456112954	16.7349868852439556
13.3710188018978986	3.8813126692506352	15.4235460837965377
15.7406333739999003	42.5268067442113420	14.7170890563169330
12.1767780462750608	0.9422672119400229	13.3666711831609639
18.3593525880326389	1.4299947521474727	14.9192963646991394
14.2739749191593432	3.0453654870351641	18.5110709896760532
14.4987452085773274	2.0841606101976793	14.9857108416320450
15.3929067724338520	1.2938987484271922	13.1319316908987336
22.1538582030743818	0.1002441579133749	18.5525709238246854
22.1463386619317468	5.5123637714686282	16.3234772829102148
24.4424677666924488	5.0518812480430011	16.9262436107881058
20.3943396160958095	2.2049883371790759	12.8455448266429855
24.2244666098592383	3.8357161354059621	13.6893604338471668
16.8704416319880899	4.6098870397460097	14.2916693634936731
18.3357437269341617	42.6678906169768197	17.4658940105785057
18.7465027749515336	1.7274101482928483	17.0937545200414185
22.6465238362505197	1.9052628818348076	13.8239801092852908
18.2077597465898968	1.8808778925306295	13.7269811631425132
21.4816829661771891	2.3508462216768855	15.1856441659372496
19.4637185766717380	1.9197655946474315	14.7578920694638196
23.0664300441288468	3.5697349034673866	14.8346990211447132
18.5329701995300269	0.3787700569105639	15.5036426536769305
20.4718215006914797	5.5463407930361797	14.7169041614818923
23.5379137301925958	1.8422526981350393	18.9607942742894302
22.7204356198659383	0.6347110871220076	15.6161442487185003
21.7101831759682220	2.8655912424084415	12.0486456222266138
22.1281873401130582	3.4207257901542714	13.5562576797055669
22.4292629228388591	1.5914059654825949	14.9661363908657155
23.3489519003083146	2.9299550835449395	13.7845347034698893
20.5746735469761681	2.6586443825933395	11.7228492922172904
20.4806046927688286	6.5317039298364801	14.0096978274545574
21.6596777265365077	2.2882124950962890	13.1709929894915927
21.3921879997246762	5.7868719394089574	15.4480047276337338
23.6412720476021470	4.5637082978777430	14.4896736950941207
23.3077976604910759	5.3248383728457931	16.3894986083024783
19.4405164803117074	2.1005977666546034	13.5623272692161976
21.8792697045202118	3.4352509890504597	14.7646405712016442
20.3902098241143506	2.0086660561034266	15.4764496349518037
28.8088348437434227	0.1074167269708395	13.2251102199723700
27.3542947251545812	42.6222663891353122	18.5172356667628151
30.0735440177681319	3.0474766090207868	12.3672584065430300
25.4522735941982674	1.5740596543469605	18.3037445685531495
25.6088763186736585	4.7243744326219854	14.7949646826718038
26.3049038808003068	4.0332093034415761	12.9501389331965147
28.4343015517845785	2.6162523088351555	15.7687579978952659
30.2852579083472833	1.7843348617333490	16.6365603219711744
29.7030330219675420	5.0879871498964002	17.4680477607620226
31.1717778733400017	3.7340888732414963	17.4280243179778367
27.2189454066070198	0.6474343810774472	16.0218867307746820
27.5376501899912185	4.1894849415022231	11.3370153423263691
29.8312815855528477	3.4117956113054562	16.4127666670167756
30.7973733503640332	0.3035721825253688	14.3745860140694077
27.1049386350920756	6.2696880639219739	15.1504860651085380
29.5605534922411124	2.5208632708842140	14.4813151424667108
27.2221805783307857	2.4564925297076701	14.0601839472774301
25.1019995957514475	0.5122007631588498	16.3954042840222058
26.3782505647912373	42.6684438786751841	15.0104774671067478
29.4972853566468380	0.8531561488154275	11.5721873695919530
28.5120002025329455	5.0194399213317693	15.8350068701695115
28.4728394271583483	3.4012677272734866	13.5148310746569020
28.7296220051242592	3.8487648029795678	16.0826917440133208
28.2410415386957609	5.7328944095733378	14.9022147789648223
30.4916989416780595	0.6884748765072977	17.0772347510081950
30.4582437785715854	2.7913203560446727	17.2974106130758720
26.1490749153020836	5.7626511364673592	14.5352571681195624
28.3153206879511785	2.5781253440227538	14.5166942155201752
29.9006677782275254	0.3873807696643647	13.5898950577345943
29.7850154401719394	2.3823992946417381	15.6671519440789559
27.7823377185656391	1.6837039451214553	16.1602080987320242
25.4124037896495025	4.0206065645263012	13.7905962943901788
29.1881463832797969	5.7631941910201920	16.5938138718356605
27.2665765996394462	3.3734000324411695	13.2891789226106454
27.3752704903003270	6.7434746053614738	16.2319228056268230
29.5797758859857645	4.9040316255442757	18.6288851055646063
24.9891364537190057	4.7953828166564954	15.8435385580470793
35.4454056053590563	3.2829828788052504	15.3522637835717397
33.1886010767416906	3.7436846119905223	18.2225906199192416
34.4688310065443986	3.5190072515893780	19.1484189910168752
30.4270265759988590	5.4835391366490942	15.9761921996399110
33.9028987380330094	4.2216026498516808	12.7691712948884941
35.6353703934650667	5.3635715420179197	16.0374882214476422
37.1216702989137985	1.0376300768224265	13.3491852368628212
30.8563022788426551	0.2322250587704947	12.7568858457274317
34.6338884349220564	4.3766106736395383	14.4020646621071595
34.2450118054402282	2.2017328582743918	11.9541419475221726
33.8646970307265960	2.6544624737832518	13.8718291421359350
31.0927831839626201	42.8375730117811671	16.4597404870582231
32.1964097775177152	5.4313986097971210	17.5820741078562612
33.8712786332354199	1.1220119315799246	15.2485833681805154
36.8888746858514267	4.3744339753904598	12.4778645112396696
35.7977466917589950	2.6856313384333648	13.3889636837486510
33.7926191275021637	4.9606129595107351	13.7678539106505280
36.5923729539640306	3.0556563778742607	15.6590522986636458
30.5098945589660353	4.5107028535074027	16.7041371070112739
33.3385821234788651	2.0272656871269299	14.7199705675640491
31.0900895611538566	6.3110665742214369	15.4038716004398726
35.0792825161081936	4.4506901650212516	15.5208373616631512
32.2034783801583302	4.2539067042888234	17.7518464445340030
34.9356854726241224	3.1769125011901074	14.2172224960063289
31.4015187157144595	6.3289643638446993	17.3722229455595638
42.2842955708864636	1.6659880920123813	15.8206704668258222
39.3629589780809184	0.5971083200238951	13.7455328824632854
36.9311133871681747	2.8719770603392689	16.8110329620838854
36.9574656120392575	3.0130143885953773	14.4711536775836862
40.4894083721359266	0.2852275278473059	15.0134000219611519
37.3243707195961534	4.9000645617285556	17.5791691096013096
41.0479482972752479	5.1750192420083332	16.1020836592817069
37.8856818711501546	6.2293172166291013	12.5993381660450972
42.9729820162085332	5.0227121030479926	16.4583038055651620
42.2925023515134058	6.2687403436976696	15.4521328521591297
0.0485888034629295	4.5613281356797879	14.2713368993356635
41.3093291934903135	1.6253764645096522	14.5543832163159035
38.3384882408614658	0.9293889850071074	13.2882846940264887
42.3486376278629848	2.1935165567737571	14.6896435366708467
37.3893190385921770	3.6887105950711159	17.5822536326644396
42.4500515985888427	2.2952794158916960	16.8311430465102809
36.9781020876736051	7.2806137180462747	17.5668034713009611
36.6938428756039485	3.7648787753903843	13.5068839012805437
41.8299105128294855	4.4476064448133759	16.5869046454267348
36.8544802273386907	2.0010197726355381	18.1865899157388284
41.0302401490914050	6.0829308153777513	15.3400054327723137
40.2241861460247492	1.2273146803815951	14.2716147554661248
37.7680705449864575	5.6270353666180579	18.4065496673270275
36.6485306672722828	1.9776308815738326	13.9194749785970799
36.5399313575220432	5.4197737109508441	16.8216237244012312
36.9288789531456203	5.6026767331678098	12.3109378481205951
2.2993510145348264	9.2860138135151313	17.4521935613966441
3.0300380944962977	6.0448916476730048	14.0282488848253575
4.2132049905621018	9.2225835627474897	13.0700509406499830
2.4841447420439366	7.7109793565563391	15.9376078834547830
6.0732949362801412	9.2492945845134003	17.1554938384984403
2.5113239756657810	7.2425962348336625	18.0806987529306618
4.5877468063600597	9.8615873820773956	17.3122594420023113
3.4312608698714637	6.3727978218903854	16.1588880806165065
4.9014660420575886	11.7228094328302390	18.0735177728356859
1.8910789781467103	10.0253709279028875	16.1122008910837202
3.4588532134386729	11.0621404349437249	17.5136111215723318
4.8704792228515768	9.1045370165737669	15.2895147553258024
0.6163301408829390	6.1426255044269409	12.6289945028840602
0.9363199229575468	10.0144499918371839	18.2672412155918451
5.3183075801213233	7.8056450047665606	19.7028394518978693
4.1778453273455005	12.1771270822561970	15.4543917122205823
4.0197162408535432	5.9354190301016798	13.3372874325311628
7.2569564986003838	7.5517448029372733	14.3234764204763287
4.6717666798103084	9.2089805183225479	14.1489607713929288
6.2434976932889850	11.3774286728993275	15.7181440127282066
5.7739736472424363	6.3583657456555001	12.1620774502704236
2.5180633791868798	10.7184653481570535	15.3821515670503377
1.4181064873231168	10.4478270387544097	17.1811703448214850
4.6519059678359787	11.0993741291934036	17.0192424647220086
2.9332474289375390	6.7912148090884914	15.1224740630665515
2.8339791969797830	7.0967704053646425	16.9506733554318174
3.3646663410310245	9.8641217889106283	17.4839036109479302
3.4236996697203512	12.4166067752538467	11.8846241388123506
5.1098618884309186	9.1411006517624767	16.4379232622037286
2.0825294202096671	8.8210265753939545	16.3028864214787781
9.6937836870114715	9.9442832742036966	11.4961204429837895
11.3729717171477684	6.6088294087530617	12.3783720947587472
10.1005255616231722	8.4867332521848429	11.9029793566164415
7.2869664079904242	8.7074659005766897	14.0953674533663129
10.2906895127749358	12.1075032900642263	13.3985310558929811
9.7685089008905130	10.3173718530416014	14.8979634959261968
11.0308065086699720	6.6970393514931565	14.2774815836538256
8.2240151538682635	6.8513030289417713	13.9600315403297763
6.9695762440359497	10.8768169854578449	13.4489277502112454
8.7202462232911397	6.7503219263414804	17.2849764080638124
11.7018387690387566	9.0945141058601493	17.4773765557013832
9.4277449035394110	6.5301360375973996	15.3990465475647902
10.7899008452833982	6.9053184487443033	18.4823918855095002
7.0086720359029062	11.0284314709111317	16.5657932978119184
10.0517395785009693	8.1961630842154118	14.6830360896210639
10.6645592101029543	11.8689970624674110	16.8280197303647476
10.7247046220443814	11.6245898947399997	15.0740307242921112
10.1853738971810852	9.7940423982488607	16.3912354197097336
7.9608178816269923	7.5913933843444212	17.7202328036294112
7.3404929900117803	9.8430222153862186	13.8288312728060578
8.9964839815708721	9.0163260720460006	11.7208402773878380
10.2602272045864762	11.0437177920256211	14.0853387750879158
6.6306593467709272	6.0446486207962442	15.8252785592480993
11.6563083410839372	11.9635101653223419	15.8891741482594604
9.2316120512118172	7.2962115351877284	14.4837961886177897
6.6291915116072957	11.5862007097165218	12.5457652256012988
11.5972998289547373	11.8002701796553922	17.7545647190488189
9.9148348794151921	9.2090235328984029	15.3406889234913812
9.7055850513918465	7.0678406499850315	17.9882467261927523
10.1459254503898979	10.9462531729684294	15.9459542432525385
10.6015098436315647	7.4908681860800668	12.2512417954423185
9.9608055047274018	12.6858012766340043	17.3283379928167953
10.5811202810384071	6.1872807596068418	15.2919631031689480
11.2533816334063737	12.0533831553314119	12.6817888748337566
11.2173575137262453	7.8639870802257992	14.5423100101673359
10.7923387936133786	9.5028926547223556	11.6058422689698553
10.6689182761191823	9.7136028287519149	17.4874542146732956
18.6133741574438254	8.0921145111268444	17.6047294336231559
15.2712652646448621	6.9812275090895151	18.0407488406853638
15.1708737183867814	13.0801654665348597	14.6511648819628277
12.0667570951406073	8.3424408210227394	15.2351477449251664
17.7100568051235818	8.7988890897362850	12.8189810392125612
15.7315371450171817	10.2052815873232507	17.2741869411973354
12.3499292263161617	11.6388996932502771	16.8134314708318691
17.7847845299062719	10.1013725501436067	18.8967502864711072
17.9241494392313001	9.3978526703359879	16.3752102849687446
15.5968421793152885	12.4355125626855543	16.2827704416377230
15.6244728633336845	9.5873354797407586	13.5529931511859516
14.8268158134158998	6.7009125742380036	15.9735501669623403
17.1429244892950621	8.2222340041145987	18.8521704577335605
13.2708096751626385	8.7802160721635651	16.2336596432593012
14.1446684346232114	7.8857874580950256	14.3795493251983384
16.9130451178419072	9.3127191043607027	14.6330788143414079
15.6693641611355989	10.9576885681276597	15.3535285135359878
14.1453518438802153	9.3151706909390928	18.0910700072506820
14.2636735504059349	10.7119745592668760	17.0367935495978955
15.2848095991462021	8.2566447637064169	16.1791614317430081
12.6522614179459207	9.3142728702156514	19.6781958692093610
13.0200117932265638	7.6475931235832659	12.3626124249391331
16.3225392039673665	5.3493981158236501	18.0037663757046857
16.5298160381330561	8.5910899555671456	17.5605370931753839
11.7275057801786229	6.8278496824143078	17.7611550070310855
15.0441726165872769	7.6110015675807308	15.1575562962629320
19.7528504314396613	10.3883438373234256	13.0006500536661722
13.8203839899078265	8.0122506392373989	13.2088695650229031
13.8598891877197961	9.5524781713230329	16.9145909268550163
13.2784320598204317	8.3142597209228501	15.1186830254923077
17.9945505061591540	9.2262814436453535	15.1738488654529160
11.2994038551681921	5.9261726618689048	13.3802317654712777
17.6118483549908156	8.4448013743235180	17.0317173755960951
16.7463881138823716	9.0608432681379778	13.4328306604251360
15.8913415103525359	10.0017985496661428	14.6823334646072539
12.0610713923288948	8.8057602857173976	16.3793261960257901
15.7994292620250487	12.1064540323362433	15.0576031791455733
13.3977953928946327	11.4848188137939129	17.3536409879581761
14.6719041298729831	9.8598925311318428	12.8282581144937939
15.8717173473854132	9.1608518164339365	16.7179712464012624
15.3389054609385500	11.1119278775028345	16.5351691803102661
14.8793351100156723	7.4095380281795933	16.9656135053176058
12.9880881494250655	10.6917978700839953	12.1376652921582728
21.4297500979079665	6.8020813599133447	14.7839110236833751
24.6704906780848106	7.1345425977906975	12.2394273944038954
23.7487493350240619	12.2552529128946066	12.0726837796521771
20.0255305561574239	9.5415057442918361	17.4384250419923674
23.9768016466833984	5.2634104515318025	15.3874246005575088
20.4508283618402693	10.8971937011484847	16.4495451630984526
21.1379003895399471	8.7909428376219569	15.8909131785262421
24.1939127568729369	9.3876816088521924	17.1924269112605153
24.5070720734792431	11.3167294071659725	13.6035501184837901
22.3261572214409334	11.8438165404365865	13.3076597614815189
19.9437207278929698	7.2466519365174911	13.1553844285822681
20.7055428382627404	8.4831917023444898	14.3365159785728871
19.0316223606536887	10.3887192831305217	12.0243694754619614
20.3484162336151257	11.2383405651246804	12.3269568037952890
19.2749722072668419	9.2196571353375028	15.8350384386344611
19.6768887616640917	9.5821812309553547	13.8948688659433088
18.9841048877320979	10.7949682331857097	17.6030446382093153
23.6060720268979409	8.6379999074147218	17.8876409440087834
19.4956625820914873	8.5153785880111457	16.8646925391322959
24.7668845388569387	10.2784399276680514	17.9235204280617459
19.8581565048188153	8.4029316052895329	13.5052356523040231
23.4871661746161600	11.6679882533930233	13.1187795222216295
21.4464151256325906	7.9447128936950389	15.0872832697777159
18.8806987619545765	10.1921553767976150	16.5128025957943763
20.1803222383801391	9.3381851142829611	15.0162425941059929
18.8772258472570691	9.8000138464308399	18.3497485547221117
26.2636455958081143	8.8433779694529129	16.2242520355272504
28.5214198945116060	8.6734338283577888	17.6867476065808198
26.2206927239203260	10.6950839288142312	12.3808826782468646
27.9586517962649985	9.6074569644622354	14.9316616915568243
29.3316890631120302	8.8618374704874761	14.2240279023054157
26.3921022200512425	8.0449297621517406	18.2118245722332937
28.2336076472032929	11.9817052731115989	16.7441005826192111
28.4572703046286541	6.8428826487553200	14.4142755782858423
24.1758380464154357	11.2017278233951743	18.3261247107889673
28.4579210404409473	6.7556481324502284	16.7165372391498224
29.0874128481021152	10.7961894946178454	15.8378448293333172
26.2814404399595070	6.6145054110884480	13.6913736661355845
26.1965099498726630	12.9860697474042066	16.4231674323441865
30.4024002982552091	12.0659334015236901	12.3675705391000488
28.5856540327005604	8.6715383964283550	12.7817224603338833
24.9497553718360621	10.3522257107582885	10.5394884733633720
25.7328199036317109	9.7609159426264629	17.4173249185847148
28.6015051446816848	10.7188822936236985	17.7879286032967805
27.1758358843273626	8.3615980099385840	14.2788822894291787
25.3177346344627772	7.8253379951717212	18.7317967361603053
28.8713065495233963	9.6547463975536925	18.2072523089193474
29.1315460939551585	9.8201742589773442	15.1326681463717918
27.2609994794354336	7.1731589798728264	14.2043797450064950
26.6182483492814654	8.9218663612402906	17.4365250455393124
27.2818746196485975	12.7235144092382821	16.8874873164754504
28.1600352167256105	10.7422633566401728	16.6556446395914683
29.3650844396743516	7.6312307864539468	14.4650901058947383
25.1469095384632944	9.2771023702186799	16.4478311575108727
26.9622425613506991	9.0084140425973196	15.2779604002204685
27.7672885980175757	8.0442702182204719	12.1928998147998513
29.7495442875270690	9.0019231589311488	13.0249628222411609
28.0930914538906187	9.0159609787904742	13.8534133220368858
25.5961539624667722	11.2315670696117795	13.2247204395531810
32.8407326121561383	12.4974178466020085	16.5653931779290069
36.3141706632970624	6.6196620987296049	16.8495245525980764
34.5045648492736774	7.3071050961433377	15.6314066037694328
31.5058402659530152	6.9717265082998798	16.3375881508471501
35.0349363424354081	10.8569461339740698	13.7920773959583158
32.5527819483066949	10.5039785202682516	15.4145584274421363
37.1706083360471595	10.4667894367535812	13.5186922953702453
33.0268141258466699	8.2114891937423700	15.2848829750082498
31.5570793805427030	6.6102463264540035	18.5443639619853968
33.1690848210846809	8.4508311575461672	16.8634794510677466
31.8620069589059405	7.4543219071674862	12.4887586137071551
33.1433325970164603	6.4044357419730140	14.0070329926298189
36.3684294988353685	10.7154422622749053	15.3478255604359521
34.6203201658827240	5.8642944887057080	11.5598366337059471
32.3012261487873999	9.8432389453173439	11.2775566966263909
31.1333117717104955	6.7815148180649318	14.3051422828279708
32.0589572033360071	6.8832480363761137	13.5281492317762879
36.8605673828111335	9.6975570175771963	15.7909905586215729
32.0269380542249138	12.6839019328526952	17.5383538535558436
33.5794323442164782	7.2104370509873128	14.7995430196654016
35.3265873342912684	6.5582360781392612	16.0839478140954171
36.1527944177502505	10.7523850614982219	14.1320643199678049
33.8282116945818672	12.6445506274276660	17.3900459149806785
32.3086004687362376	7.8533058573285555	16.3034969679804931
32.7770969360066715	9.3900935229643157	15.1137306316468809
34.1372605344101387	8.2862579280244297	16.2339056817817564
32.8629024666158500	11.5810139818984652	15.7503942362056648
42.0721943460190246	7.3525028749203170	13.4495830689186668
39.6838202327711898	8.2389918672004274	18.0879358748853818
36.2354571603146098	9.8969089659506917	16.8338888322747913
42.6878214390794213	10.5113758683863185	12.7553690397189925
0.8100944415751183	11.4655721739134187	17.5200195001106529
42.4315336921673847	8.0941895382365487	15.5571801314218501
38.9539019569502045	10.3734971348644365	18.2682290074187321
41.1633634147637721	7.5978511193845586	18.8876848340961949
40.7847085523830586	8.5890887160341531	16.8498956622668317
42.1477970794280523	7.0113393082046027	17.6767542739362291
40.2040076740355516	8.6627810282741891	13.3279232152209364
38.9918802238024469	9.9138570307345955	13.3529794133828901
40.9011619336815073	10.7160332906805476	13.9953903106970827
39.9807057547087581	6.9387492364672827	12.6923066671517990
40.9631587384004447	7.0605355360405140	14.6497721336315117
37.7815112784501963	9.3161606542695292	15.1501475662182585
40.7125969218402730	11.7675017669937727	14.5665253859338097
42.7723455767456784	11.9728464254336835	14.9456634272483218
40.2913277740880318	12.5138725104118720	12.1815398072690524
41.0841176184612280	7.6652066218195554	17.6068539790957175
38.5878825336078322	11.4892811618654953	18.3829509945668477
41.5406912100291024	13.1693039700772250	13.5430027505586708
42.2056232438723953	7.3125835735375526	14.6764712992031381
40.3291217487170641	8.5124345570009101	19.1177301422625838
38.0002952327236159	9.8252456283531426	14.0866224869769319
41.7091271719896213	11.0858169963202648	13.1109866579144061
41.5276421311726267	8.7236311622176927	15.9255316843668719
38.8515919994214443	6.7498209976452186	13.0086730096065342
0.1900936871350031	10.9867743569991205	18.4787221889183009
39.7208075741201441	9.0511023217774724	17.2115439869892413
35.9979243033180225	11.1866531813474595	16.3824110863370436
39.3717139438157915	8.8745474347985454	12.4475824729592173
40.1451153134892564	9.8039797626016441	13.7854344209656912
40.7671215982680337	7.5620067384393304	13.5089050525633461
3.3741906549498797	11.4144924824265654	15.0299929539861168
42.3040856393829330	16.3733486962955723	14.3234414627352304
5.7013366810296988	15.4227128666069095	14.4544732600269157
5.3721274929246574	15.8118298910154991	16.6253134432994401
4.0979334007221357	13.0971932600126753	18.0502795826693081
2.6616358316194129	11.5498115235262730	11.7830968765428388
2.0971327548496110	16.2884746906096574	14.9120411858786763
4.0015021769090851	13.2363468971796561	15.9743077922087053
3.8329666074849076	15.1922052506017522	14.1698237564481317
2.1918760005806028	17.1087647836031529	18.4390709959797015
2.6022023793060285	15.2805512543430346	13.0821836251712380
2.0662985382227306	18.0838799613723182	13.9587555092811364
0.5413877964024147	15.9261034986134291	17.7455568933872669
0.4734925860856645	18.0569118911511062	18.2448496783642433
5.1156503302092213	11.5864660425782144	16.0063866210491703
3.8165996919984893	15.1441721066094992	12.9410538050964838
0.6609544870893478	12.5424539815726508	17.0118978657984528
4.6831878928222608	15.1805052250131816	15.0103504585211596
5.6347951221018029	16.0120131091683007	13.3939805351057011
3.7585924689000136	13.6282523728784994	17.0378576645167428
5.5882804169012452	18.0499537477412630	14.0848328619583096
7.2649132161873053	11.5622768874925566	17.6263589413176831
6.5492194864383118	18.6001590384326612	15.5013777431709414
5.2648798351345949	12.8443374216089392	18.2127829936800438
2.6498721783604524	15.4536663732374304	14.3052821538513868
11.1772569212664408	17.6426119308152067	16.7700537328611432
11.5698912722559246	14.7949510354872551	14.9094032086481985
10.1180163853997644	15.3512913213500735	13.3294878293151466
6.6668298205338843	17.3745024379572648	15.6346097203006842
9.9288366926914264	13.6963041871381890	14.5703141571585437
6.8437787161418644	18.2760064932840152	14.2730417398290825
6.4691408863250928	16.3968183828321230	12.5442776607234521
9.1791482250724155	15.1406761939912098	14.6789532237825835
11.6478539851224134	12.9760543440467835	15.2400187119594346
8.4003540399620302	16.5987341537876958	14.5961844993475278
6.4574436324699214	12.7973691628552793	12.7149708532297687
8.9611161391868617	12.6637388192706144	11.7269939457402259
7.1560370415135148	15.5453380004205339	15.4388186959989806
13.1763969209431675	17.5794388785542282	13.3188195655436505
7.5513716954992844	13.8287629678699115	14.4216484652611623
11.9314205097631554	15.5783953944225448	17.5857559190748809
8.6925661241438874	13.6833456401340658	13.1380989176735685
5.9319857295819878	17.4566958168208721	12.2736060354403911
6.7748307390030655	14.7941892902659173	14.5157958305640626
10.5073672421266178	13.2066151642733018	19.2335333869702723
8.7591687286754656	13.9774337621470082	14.3837268082841696
6.2856222792642535	16.2249775464317025	15.9452137922531154
9.1602731512494469	16.0631464028093838	13.8085894787836008
10.6556464695625372	12.7676947670956942	14.5600413366536934
8.3381298573206166	15.6592052665231396	15.3833062781540413
7.3779677914528490	17.2066087468197289	14.6417053002601616
11.3189518210667526	14.6303109309784656	17.9883382320427252
7.3502159537795198	13.5533395178312954	13.2212529263514380
9.2423859297613564	14.6680596413757964	12.6340098009377098
12.2445006578823641	18.2119150996351067	16.2722207427607266
7.3834107186955444	15.6401445637835756	12.7239722082285489
9.2773755088624110	12.6421760780072017	12.8673071136914974
10.4178668607306033	14.8193341172763535	14.4392231943658071
11.7466439020204199	16.6049048663060859	17.0230742456287913
10.8028970383438878	15.6942693783626694	12.3786133031189483
11.8967830529856915	14.1875379876593506	16.9941959150374657
13.7615489235850923	14.3831438079193958	14.8195509070040696
16.0738433827845846	12.8138479181389844	11.3365460725857048
18.5379494434222174	14.7787314447181881	12.9613474492774241
16.7235563221183625	13.2795201941244336	13.0367725335028926
12.7627531160239158	17.1932940424665155	16.7742905202703980
14.7842126479073279	16.1316649203411764	13.5199238885343664
14.0494481398536699	15.1715168674399479	17.1925614997274323
14.4340369424138188	17.3390594775619071	17.8254367886826728
14.4702278508433295	13.9652201297932077	13.3677239391275524
16.1093872124156796	13.9678378125411022	16.4895387471064048
17.4501265164838166	15.8186383759540750	16.0719891649101356
16.6297185380931190	13.2959862809007738	18.3504112984154979
18.6142430851742020	18.2740413860446402	12.9325929769985759
13.3725900456922577	15.2975034334878437	13.5632603583451079
11.6514501390137060	14.0092189492099699	15.8332798505469459
16.7796798177145732	14.9258534231061084	16.3561640972216722
12.6857189211026533	14.9491008834635153	14.4904401007699466
14.4431930144178917	16.2620046957692637	17.3422830459655337
15.1501032570376264	13.5958726511210699	15.8527101040130933
15.5946547735691148	13.4688144682467481	13.3859521814171973
14.4956907254769440	15.1035184692007949	14.0935336700726150
13.5392313299991471	14.4969547690293723	12.6419274190667057
13.2243806454361277	17.6753734622128604	17.7924616914329761
18.4597287613683037	17.1981277326002093	13.4604530108381546
13.6007642288112205	16.4409893625393302	13.1698494131014634
17.8044680642673612	16.6172165721088057	15.2625100630152826
12.8893402309708129	14.9350482897559260	17.1460851888247312
17.4611473948111673	14.2379066699679324	12.8378962962006611
13.1760579141389478	18.3598991253567156	14.2429943704515143
14.0012600363844744	13.3195787447993368	14.3214288012492776
18.9119216734700508	16.7231028574776808	12.4097686832700731
18.4961959946460439	16.3277129910855052	14.3049933422645896
18.6331071365902936	12.8853008139236476	18.7676371915247060
20.6616337208721781	17.5795566941559187	12.0020494720468349
21.8088786707068358	18.3627018441695107	13.7083916948303308
22.7465268567764234	17.3995127669497940	12.8012369621132116
22.4328405634583952	13.1887266421595442	15.0150191766844685
21.5644003567598368	18.0196307912474545	17.8029492853059246
24.6411644584587037	13.7200848215227129	15.5347429021766903
22.6616653743082423	14.5523539880676758	15.7524519157064216
22.7489635233631802	16.7149882012601871	14.9158691751285737
21.1445465783722248	12.9709350845334619	13.1355556869571810
20.1273166626978472	14.7426077804410323	13.9301349575772910
21.1981546874260935	15.8067283624956865	18.4439638782681783
20.0543876877958844	12.0309929472829129	18.0929300462599407
21.0679842520024607	12.9297547574818434	16.5530160255701659
22.5513970121050278	15.6579050959473758	15.3439134659359961
21.6680613341651487	17.9559737702861959	12.5568947136323992
23.4839958912253159	13.7854529226373987	15.2389991752371312
23.8513368586300913	12.2282858676410910	17.8785348685715952
20.4050197719094442	13.8998621852831246	13.1716451809622708
21.8229362090788257	13.6764277816643229	15.9644122273341900
25.7112553982391461	15.3956234883640342	17.7697453110444741
22.6096582426797390	17.4774233360568196	14.0210437666686474
19.1018852435466258	15.3592625699147494	13.8732552064505388
20.6117310879151638	11.9812815506552628	15.9923475635065326
21.9881782846133689	12.7786765170089236	13.9804242131361836
21.5157693093330948	16.9108152312932845	18.2658094356071032
27.8401384469157520	19.5779625103818127	16.0130993712424541
25.1187724176529805	15.3578682728663267	18.8080926021334491
30.1637382501307556	14.7655371823137287	17.3267470350784372
27.4666038288592773	15.8694806464681566	14.9759348600853741
26.0733887750480058	15.3731919127306202	16.6064313112232753
24.7188514882507491	12.6488257748424466	17.1760683080474479
25.0881085593703084	14.4125465520873863	17.4483604356369888
27.0024595443316429	16.7532570457068992	13.6756193964462351
27.8786050681891595	15.5133460300669768	12.8484278414963828
29.7912753503162726	12.4429748805603317	17.1380282172240612
28.6619878838432420	17.2230137563035122	13.7878508875045487
25.0969475619467559	12.6840572019742872	16.0188618276702925
28.6435015960522179	14.6684015323772172	12.3920214370514881
27.0605462604224307	15.5255278907648417	13.8124026938619089
27.7623806357771983	17.0049246006759134	14.6018936365705940
30.1253369269344802	18.1196832608664344	15.8204555288642332
27.3887140013985189	13.9709085898022316	18.7777860503971503
27.9608638308515687	16.7981162458745565	12.8217629776690707
25.2178920585713193	14.5402944261427685	16.2255491651084149
28.7541688926148318	20.1403219018304895	15.3420721695453626
29.7620871418773660	17.6288228488836545	13.9222243228917204
30.3170483679435954	13.5216594189864043	17.3041787764462640
27.0822355399212746	15.4879367972284108	16.0162190335498735
26.9965940605351946	15.3359026138620305	11.9102700636226295
25.6862479366174057	13.3258677987933662	17.6053579631027475
29.3596824797358664	11.9533002780242796	16.1272577131114438
28.9314972109225010	11.9055233460963272	17.9184253207717212
34.9701479688185799	12.9849577485224472	17.5103744337219638
32.4470214349190584	14.7270509458543515	15.9453819982131932
34.2172194291647145	18.4364864805409781	20.0485510993860601
37.2973371434935501	17.4919891587259890	15.3107126795077306
37.4046958738143260	19.2927506073060506	15.7945778804414800
32.7927301860320455	13.5870091342648109	14.7960586538661580
36.3603134251652733	12.9431493761804024	19.0445529914937062
36.0184310501619791	13.1429877779293012	15.8138633711808723
35.4250589109205691	14.8984353054982588	16.6467632006353057
31.5183728365366456	13.5937774161105764	16.9084224180774143
32.9760634348485269	12.4647791810945652	18.2477682659006817
35.6077813286200353	16.1105733348075830	13.2035836657457164
36.5231649568520780	14.4887034753613779	14.1357102147871050
32.6370088296812071	18.9956878163322855	14.5005457114923484
35.4476927827089341	16.6251450277973838	15.0816815664181707
34.1203220342768532	15.1290743945336637	14.0900924684157420
37.7273427595444204	18.6635228191180715	17.7006285924528584
30.6082663447550303	17.8423977672686789	14.7395004880492344
34.8488926492226483	16.1147183282580571	14.1267770326209163
31.5954407153768173	19.2756113420658508	18.0683322069148460
31.5874250365827578	18.4227688856537206	14.2667433319467616
32.3784738386048119	13.4813421241772495	15.9046018294803719
33.2051240588299237	14.7105992534733989	14.8397866018798616
31.5429879062972809	14.8357300163846535	16.7850630506701641
35.8153009265160662	12.3696445738235710	18.1076737490512407
36.3264144097895354	13.5037198638363787	14.7438084753735001
35.5865504386950775	15.7805330297117443	15.9149773728313964
35.4127912428836140	13.7180109158314956	16.6493929252385477
38.9619131345474159	17.8486085189328314	16.6443373652314577
41.1870807445953062	12.1916181516563977	12.9076524850286489
41.3092309654473198	14.3617591645029705	13.5635676021008447
35.8912456728455638	11.3122569929892283	17.5968619688556842
41.0649218126175342	17.5388213630985703	15.9655091384629984
42.1077516423392382	14.6538446547503938	16.5372466081829650
39.7828605687847983	18.0119745536163123	18.5461785127508030
0.1055663908317596	12.5639759715812112	15.9046659961664396
41.7915769279306843	12.3751564659632756	14.4370389952728768
40.2586109357593287	13.7589386965650142	12.1932137800984091
39.8997893343570595	12.3708968643663635	15.1641573140806045
39.7772041665055127	18.2677034562268830	12.5510525993571775
41.1666116829955016	15.6513850783615815	15.1958944596298196
37.0951759043741731	16.5576495960706431	13.4258248677496255
0.3755500327298973	13.7296422191295537	17.0421526820709879
39.9753827671675666	14.3413287139601273	16.1854780033882939
40.5096438749715162	15.0600891938664425	10.2775676745236400
39.9459373717771484	15.8602149529878425	12.7234494273374583
39.6959615076462171	16.9968379619105114	12.3751145265830456
37.7131768980965987	16.8785273503689268	14.3765589279248278
41.7580111826453617	15.3133710640091980	14.1673291367226994
41.0024159059309738	14.9325035930946335	16.1372004046809252
42.5874320262972788	13.6512148200185095	16.0892504699420158
39.5962132997645639	13.3741148021001273	15.6666686017107448
41.6764323069740001	16.7418677103386564	15.2666199017674629
36.5915683692478240	15.4199649952123377	13.4183692794658906
40.2704090597751261	14.7337983802928889	13.0195699352509262
39.9716782077328077	17.2930027915256588	16.3722312057098414
42.7724860835593574	19.0158849473830038	16.4010999525275309
4.6173515916644545	19.3826015424253981	16.9336139270613693
6.4831393638348098	19.6118451285160553	16.2294026994162621
4.6124477570419877	20.3275303687988611	15.7764143425380396
42.9745343146881069	20.5850021936336951	14.6470656103591246
4.7256053939450542	24.3642675170222383	13.1600815641222475
2.0214981337679814	24.0855358152057377	17.6052253625993558
5.4081758798856434	18.7883065229734498	15.0335277906118066
1.1460072440930511	19.8561532203091282	17.6688135624677614
5.7875772052342001	22.6368658493322670	14.3481469751753945
2.4778025201898415	24.8142051131948449	11.7168797611356741
5.1672425191466145	23.6894705957847904	17.8196041247249184
5.1730285101050164	23.4956296472292152	13.8443235983948352
6.1401509275615398	22.1618694677665431	17.6846127739486931
0.5911739573315097	20.8093320130234716	13.6772000813258252
2.4933808100993904	17.9189809459985909	12.8920402709040189
4.4788999748679013	19.1060864634331296	15.7098735306446269
5.7437810844998181	20.4748344923673073	15.3726509090689376
1.2239856827824993	20.5260568741555431	11.3411069544056016
3.7652427105908588	17.5814371605499424	11.0277551939347482
0.8328464191199741	24.8141927504726105	13.3236470643902578
1.6366623948775314	17.3432175554597308	14.7597698865413189
4.1937020035226675	20.5314919635426030	16.8638077593179254
6.6981663514246232	21.2016097009538740	15.5487538530020544
11.8918318909009457	22.0351127472769477	18.6527284389162098
10.3775728604724549	21.3600979059706297	18.5383558304873546
12.1213602479290454	21.1070418926605363	14.9544062972988367
11.4471978931112801	20.2176177816381610	17.8368818708868204
10.8135235953595323	21.2533168433304738	16.3989933429471968
7.5591847479443981	20.6965604208502612	17.5643866208333712
7.0581795569548342	24.5476722717926101	15.6741970073443255
8.5409426143983129	23.7107274584310446	12.3858282513662203
9.3173207139670176	20.5779894139841169	14.8924415651745417
10.4227077563525476	22.4230611495754530	14.8978085727833456
7.7048508201975858	22.9302545708765280	14.4064973879632312
11.3863803661993437	24.1187538248270563	13.6125235467118966
6.1709695912584666	23.2469622194475818	17.2088517794713844
11.0326322614650838	19.6199443364114821	15.5688380082548239
7.7684476511009075	19.9547058565040558	13.0549217736267043
9.7099586309395125	19.6532576299337975	13.6330147447777854
12.1181228712588673	20.5747587778833321	12.9805668902517830
10.2724611676456554	19.7567656847368340	12.5913416916407108
10.2940733281387100	18.3039287334342298	17.1577670790212657
7.2968761295980418	20.5552398658285576	16.4041052092802460
8.1104749323314884	23.1132885958867398	13.2914369276193778
7.8933567990859208	23.9650731190508424	15.0170502806496078
10.8465084520295463	22.1621550899710513	19.2902219369908465
11.0055850326599032	23.0584065103368410	14.0964846141853020
8.6779837679070351	20.2825662271724525	13.8465008188470033
12.2443497424133927	23.6510454326561934	12.8564984275253789
10.1521315869778874	19.6743806408796260	14.7648634783046209
8.4665930961476761	20.4333981043438975	18.2928273049888936
10.3185350681474937	20.1361944241173383	18.4557897993218241
11.2739739614829073	21.5230873224912003	17.6368814014943318
11.8186438709237045	21.8274703329748370	15.9058683027340422
9.9805444355550677	21.4718926410374564	15.4647111495004079
12.0854757853013979	21.4705197957489453	13.7937258335998525
5.7352238306247836	19.4703764069641316	11.7654999715636439
10.8663299048325861	20.0554795405124402	16.6819936477114830
7.1273794988895229	18.9371274069491520	13.2866754853321734
12.1623942082003609	19.9053352230873273	15.1769941128446142
6.7859417965485136	22.2188363032966834	14.8457207082170228
14.3550291861635912	20.2675697088003588	16.2980199333740501
13.8206089543225961	19.2578734699788967	13.7475843464029328
18.1977974569010996	21.5617727604885872	14.2630172354148055
17.4618994659073188	20.1214828884242856	12.5782154415402516
17.6967953396503681	20.8801729968484473	17.6077713435662027
12.8596932309729048	18.7950347935511033	17.2988440722687393
16.8492437689844614	23.3331186174142431	15.0218027207556890
16.6442290750681963	21.3273471532270555	15.7097274196257697
12.8875117963648744	24.3721641149656065	12.1090111628486845
15.3217782145143921	21.3703588744877528	17.9266759230504569
14.8984386397930386	19.3145492621685193	17.5206269413451032
15.4831400873102947	19.2485570556763932	12.5801150810130302
16.4300289378978235	22.5869919612027914	17.0098241332919571
11.9594043435321549	22.6264811921996838	13.4712974858179066
12.6136633371846720	18.7736802215434224	15.2416199172411879
15.9257180556992264	19.5145613745152069	14.5289736846734314
15.4398721107649255	23.8756110774271804	15.3891598328639656
16.5319221419228590	21.5001331087272938	14.1123943790495989
15.3553168663995745	23.7422269989632326	17.8283027531193703
16.6622661391572855	18.6374762788318726	14.8625076514070411
15.4383690823295332	22.5552001798001882	17.7051836701613503
15.2397947360035690	24.8784980753543010	18.0832462138864152
13.2018511784691892	20.0146713416210424	13.0345699697076043
17.2944335542965000	22.0661079891208409	14.9466243910378154
16.2694506386598547	23.5152149894220273	16.2663226340493736
13.8527534534983889	19.2978732587677762	16.7804870863234576
14.6011012252378105	19.5858731167874183	11.7693343011094349
15.0318908330555594	19.3155393666094284	13.6971433057037597
16.0192341324778624	20.6783188406049625	14.8924704249612851
17.4594342051394520	20.9458812331116313	13.4862789890553625
12.3916301821122410	22.9704461879351953	17.9948810207338852
16.9318164937299791	21.4957483112705603	16.8629825533796343
19.8327095163116418	23.1725825593705252	15.3014430027844082
24.1233622132608758	20.8055645328465495	14.8103379405908466
19.0898820671209322	21.2494020682566038	16.1491995208378718
24.2091401410837399	21.7837057237174605	18.6566097683998926
19.5371200176039430	22.4025272539952489	17.5202005463283221
20.1966824133789515	19.3326337523325336	16.6272685503720332
19.5632542828996989	21.0440841912188787	18.3739070686792196
22.9096460037386933	19.9251472285821407	17.5971096867592571
22.2355740831103610	20.4435550752675468	13.5747956620468422
24.2865954290816397	21.0187343558705564	16.9252439077440791
20.3492589712610936	21.0224118355769214	15.1631778900350476
17.2758048088285285	17.6684029929711919	15.0568446355494974
20.8874916849044787	21.8445403424215918	16.6642700465350551
19.1249637472392209	18.9339593264083312	11.4653883220019246
23.3567435902587839	25.5638026949776318	12.6738937192616543
22.5747596711234806	21.1969611236343098	15.3448097666756222
18.6407136546164871	25.6911030110045076	18.2606215023704657
20.5359661806548708	21.6383521697791750	17.8221532496890482
19.2585895616712079	22.7754696329471535	18.6700167442172749
23.6285022889551932	20.8155039511333726	17.9986647575701362
23.0519563809655992	20.9844871707411507	14.2259413889500976
25.0567738648825689	23.1979978596565530	16.5201722510628173
19.9523394128012619	23.5987028900566962	14.2190870637584315
19.2198379576894638	21.4887801438862418	14.9144198918124502
18.8059115030014041	21.3698152373776757	17.3518711259659781
23.6040420133021307	20.8701238688818158	15.9444258998412618
21.6283090954872428	19.5120996875933344	13.9199343959086406
19.9388970450429248	20.3521274869230204	16.1044463075435900
21.4223416860002054	21.4451408669356027	15.6233875818967878
19.9458776409870602	22.5960794400943605	16.3513202199318428
27.9420044944941495	21.9099558839168189	16.5238706481270796
29.7246266453603916	23.0830162633161429	16.5963379685368260
24.3522369261027443	24.0992087728520197	16.7826113703370403
30.0869731893054499	20.7808779288870404	13.1509773555360479
25.8822366002740836	22.3549703305129626	16.4068807405067574
28.7866342372089363	24.7441474455310093	15.1681697503018036
27.4006893968052587	24.1100361511856569	17.5509703745172523
26.3117228673783359	20.4551632300202897	14.6771265677433522
26.4981191271341423	20.6749516745308917	16.7942498732441230
29.5438312401557113	19.1920304780762088	15.8613862606476737
31.1940359367522113	23.6652797573701115	18.1409888311014029
24.7447775950482338	20.1499916691786041	13.0632782479263074
29.5046043836676759	20.9047047956387999	15.9916856962028575
27.2811156964969541	24.1334667370863585	13.7403069973796441
29.1915172369267246	22.8755308036181226	18.4627672154715832
27.2913307751923355	23.1358506251806872	14.9866306996852110
27.8877919448216183	21.7402113165417461	13.5152491203673577
29.2994817333638622	17.8000419559409728	16.7073559342618445
28.3882509645911938	20.4083969860609855	14.2256555241653171
28.6109137478278654	18.8251672239231702	16.5758407589115286
30.1610024536789716	23.1555086538296528	17.7503125911628992
29.1361252282773151	22.0316225018449252	16.2950265210012795
25.1033006703391131	20.4579870838807736	14.1740260383815766
27.8987722938700067	24.9835159184257734	13.0917399646551527
27.0217823180749832	22.4951877547260395	15.9776344454638739
25.4470651124918064	21.2684258439965070	16.8108645782881183
27.5741839944680720	22.8361602785716791	13.8496799801575250
30.4256342454416888	20.0716701675651592	16.1043919382750254
26.7622433692685178	20.1010309348116110	15.7590328097566719
32.1947792022736934	24.3817312936553243	19.2391340994009816
36.0782406369216915	19.8565622628853760	17.3025579938329024
31.4314130789010839	21.9678702541680018	12.1446387704113938
31.0817773145546532	19.9158424081724768	15.0390242491422548
35.8827705289189822	25.9459113815533904	14.9695308613530429
33.3797692801936279	19.9672537748909420	12.7893407415410039
34.4716165691599130	23.9356608622102414	15.6588840191250238
34.3794649874837361	24.6043992157891012	14.0632823276454886
36.3890522826429859	22.2861062082724182	12.9921327279648100
31.0560836965204246	18.9949325454001112	13.3128246914880783
34.6245124486239959	21.4675772811001302	16.6079811786311495
36.1893420388617741	22.4017584533990686	15.1774096206130533
35.1374497458595343	23.2677883434932831	17.0562256121729234
33.4256202802010236	23.3455949633445137	17.5506486800484467
30.8623156433848642	19.8990316765015827	17.2735938438523569
37.4896360114987317	22.0198752051758326	17.0313395663893665
32.9049837061171147	20.7817652901740075	14.3749672344171504
33.8391658953108774	21.4820447341129572	13.1870586097801858
34.6317786391401725	20.0794850660707738	13.8783640773472960
35.7927634381282189	18.8468501257579319	15.2232734767670923
30.5743347609666181	19.9815074678507365	13.9149734845434097
34.4896857453220491	20.4946362322968554	12.6512691043835250
35.4353411046278524	20.9092936926143693	17.3423199548616225
33.5682915308737719	19.3084458716389946	13.7925782254950757
32.4274790934823471	23.6616535490507474	18.2466667144471621
34.1917407000893903	24.0282802708446788	16.8857773775062299
32.6757310832714793	20.9061985359376656	13.1702768908643737
36.2720967195827697	19.3362858068117021	16.2335435456668797
32.2722429796404100	20.0317565354509384	15.0481953988714139
35.6706560327295037	19.7125516036183868	14.3835144877373313
35.8583073225917914	22.8894072306567971	18.0208602404471492
35.6597435540048622	22.4055592431564037	11.9837464839861543
35.3603801220374123	22.9859174526579864	15.8812944169028842
34.2013324544205659	22.2861935813959278	17.4185078449369435
34.0627348318539376	21.0888735699336713	14.3540702827308273
41.4623741036767584	19.5298458042570005	15.6041479407708561
40.6243631520174517	22.9439452035322411	14.7736072598583785
40.7770407814867966	24.2861499127899663	13.7965941585808185
41.6931115159183747	22.8146217269709801	16.5200375236958479
40.1180405137011462	24.8244372048435693	16.0344550762080225
0.1323244135489742	24.5109551140847479	16.4065542837149891
37.9231849435661914	21.1396859842599305	15.7533675395224932
36.5017287550159324	20.6109130218866916	14.4360584844139126
40.5898334623378716	19.9433984873221277	13.6178962584775380
39.2116761276070136	25.3241727335183526	18.0896601246051958
38.6489564463258475	21.3923926276908993	18.0906990960828828
38.8206342251554517	18.1637704257910073	17.8471862439255311
40.9971300787041670	20.8854210673845095	12.9660881667448482
40.6342316381771695	19.0647014914267316	12.7679857313797473
36.2498221882658456	21.7692581391719280	14.1129274133995661
36.7786329073679781	19.2648133703583007	18.1292411016436255
36.0851085618349430	17.6682139119514972	15.1459318679051584
39.1559061804623312	23.6345356254769001	11.8535820174432978
38.8764074695612578	18.6156890163780560	11.7380927353485482
40.6359036029176295	23.0709533038588610	13.5431593183172314
37.1210948354891386	22.0575944123041587	15.8898608036009321
40.8549721717992540	22.6829971289164760	11.7685713486909869
41.2090152987985903	22.3237518806481781	15.5817193708894646
42.1531803718103930	23.8894210430090297	16.5872066012685551
37.8975044498928924	18.2273825235934552	16.1450040264279799
41.6846588408968159	18.5222304553749062	16.2552757451502963
42.6509450712905505	19.9161579451421176	15.5719788052325185
37.7515176377234312	22.3004784762417714	18.1774778191353512
40.5508800781752754	24.1578207098050086	15.0414716009854939
37.4972349375799467	20.2517171633632245	15.0718461752655060
38.2710864342001429	21.0752201637332313	16.9291686545999873
40.6701359673380409	19.7139842771249789	14.7657299844145502
37.4447282328117552	22.7647896009285198	12.7234112331505944
42.6017092901405690	19.9858636451258995	12.0802838616582626
4.8055165870264966	27.6057875846153316	13.6246844760338028
4.6526961172252772	30.0745428486164528	15.6319323578245886
3.5270809675997672	25.3754715994635447	12.0839131340677852
2.7945596763509029	30.3463709153434245	16.8893068448152057
5.3179494086514287	24.6802391622956279	17.1457460676597044
3.3783729442336159	29.3788322149360894	13.0565406816497607
1.4177893234258481	25.1762867211259049	15.7176867886718963
4.1854784062763866	28.8756678481372937	16.6874518734285608
3.2616616916325571	29.8859055724174318	14.7853497366664062
3.2132859355740884	25.3106913441807215	14.3076031637221135
0.2259947378550258	25.0864713438729083	15.3294985910485000
3.7774441785467721	26.3778549539453451	11.4204108548447714
3.2018518785956549	23.9656177304404494	17.8581673242298926
5.1703826927617662	24.5585229301636048	12.0479538324988145
3.5100646980136228	29.8171656165083228	16.0588951621746645
1.2852393619948750	24.5635121554383602	16.7876889113730208
4.3191721072034515	26.3376038033331952	17.8198787024190786
6.2550646008058113	24.2424481602457789	16.4983825533829709
5.2877794892939027	29.2613431774411730	16.2365659161372946
4.4044122532235219	30.2165722057921400	14.4830378757325331
2.5171593928482077	29.7819370990295873	13.8363504316218418
5.8362732374293991	31.8061947016143236	18.4947313415694659
3.6444669806618264	28.3292240248470613	17.5767392622403946
0.1787197602393997	30.6179291113528613	13.3833180019827100
4.3793472597401584	24.8546248482311789	19.3154761939834572
3.7308090083008625	25.0854359305748282	13.2652495147082270
0.5765523884376048	30.2986076803631050	10.9581493389199274
4.2616291986666122	29.9814681385403787	12.4387459374711025
4.1546945808180418	28.5713785798754714	13.5485514336605828
2.4140837583587191	25.4220592422208718	15.1357141708132321
7.8970816000278399	30.1112178329960614	15.7018499097569588
11.1058258509433685	29.6960361988216839	13.9927959614056299
6.4723568041026294	26.5052959797175127	14.7824731722152851
9.7168994083608133	28.4570712061341915	13.4430014579388040
8.0845189935271087	25.0539165546691898	14.4829146160029580
11.8493551517920359	27.9662635674859956	13.3286283525227471
9.9406486409484476	25.7870490386680764	14.0623498476716389
7.0022239830433364	29.9209878568808989	13.7811489516488397
6.4732788681305315	29.2977938570063898	15.9937095125887652
8.6683589725856383	26.5658239410105885	12.8347503356496855
8.9019710775931831	27.6419555468930191	13.2702394183449890
9.1061824970205087	24.5542005953235147	19.7828330729295949
10.8569608731612810	28.5487764360005372	13.7263904227600069
8.9500649048253944	30.5314536456908350	15.3157226738323811
5.5913850887820846	26.9887229969393907	14.2108398008139538
12.6933110125942648	27.4144889601549728	14.0425862766314271
10.8779927108519434	25.1290258436496785	13.9128565031749840
8.1130074419421909	25.4370728684181202	18.5240327366139717
10.1190905759847301	24.4707936679548048	18.2353299775299078
6.0483671527249774	29.6112516290721537	13.0943101484863398
7.2947693770864772	29.8247726263219235	16.7472531304371088
8.7974820069739295	25.7004665967828068	13.7335265000076525
10.1278985980241671	30.3998321493577883	13.6600306591178260
13.1338973267021597	25.5783905919334948	12.0188614406656047
7.0233222073857018	29.6487365579187916	14.9708717011464145
7.1587588313276216	25.6063821291313154	15.0708250222535973
16.5307941667484712	25.2248085667065638	15.6372806331082401
15.1464684942792829	28.1313446801028952	14.9391277843746195
12.3717919478402898	30.5752878904362362	15.6265064899830790
17.6305013047805339	28.1136762793879242	11.4461139495481365
15.3600814571760633	27.7343197241993806	16.8759907073658901
13.7124006522412376	29.1914406444333281	16.8647104248188633
17.5831398070112037	25.6509362966590899	14.5190224956724876
18.4586754197888219	26.2138112224249404	12.4581260308508739
14.7621884370627843	26.4265405173850745	12.4893979560582817
17.1047208658304726	27.4872396688684795	15.7359720180527312
16.0194858173978538	30.3358385077467005	15.9459786220374973
15.1326169623793199	26.0099908319529121	14.6362757765992768
14.8411914461987386	28.7886043697105656	12.6973378559886783
18.5137395653362127	27.4052830258766313	13.3762791531359273
13.5199322160850581	28.0914513086734701	13.4398921065208530
13.3657273826196885	27.0270097741478743	14.9298739193679868
13.7551649883829867	29.7026624518482656	14.1289402157347315
13.8716150276538830	29.8034824647397123	17.9301549048207605
18.8509906226130788	26.8011718757146262	17.9787748394975360
18.1869560098143737	27.9449048503136162	16.1235078884668432
15.5874289067435896	29.9500842129953284	14.9089307676601575
17.2368020372375419	24.5150546877366118	14.9187351803767712
18.1435803194898888	26.1809792553016756	13.6132250314837631
16.3484787095245849	30.9492409205198094	18.7269392563727841
15.8044143102238746	27.1292623500499808	17.8780142991934170
14.5359510668299663	27.0360048312564665	14.9394236399845628
15.3726767969017484	30.7998446670200572	16.9051857719624294
18.6217339877353965	28.2696771462876519	14.2225045816981055
13.2100150674232992	29.8154409191286192	15.9774375904881651
14.2343213000287054	28.1355677847816317	16.9536228013030801
15.3609243015925472	25.0752563358496907	15.3931672489381963
15.9718502029040383	27.9514438908575720	15.8416474462702634
16.9742902260117710	29.7687834252564265	17.0187737416959308
14.5134741135001200	28.6952024048108036	13.8903530005463676
18.2248628147431262	27.3486989035225498	12.1592579770462592
17.0532601038765961	26.2936003044068798	15.4274050895846333
15.1558227490107829	25.8887921363094478	13.4557443519712123
12.0013909693848042	27.5110175412287639	12.2041944384607088
12.8697248864565363	29.1835028874180615	13.3539083724987950
15.7436749764707979	23.0439430572691357	14.5706795216919041
24.2352762803272448	29.4529656777155076	13.9785360016047893
20.1862965843269961	26.6481629432729257	12.3119136267340625
23.0376840229375581	30.0284289610809303	15.5979211916808289
24.1520553415964550	27.8174803202330025	15.0795530506084585
19.8084241772675398	23.9087637991411128	13.0999082292854805
24.2900580682845906	25.3920596450088283	17.7045231855268703
22.3880346478928942	29.6305059134110245	17.8681186560873293
18.8177460292589736	28.6978102284600922	15.3515960024245519
19.8122726021510225	27.9755839245360711	14.2161364430506367
18.8664495484812313	27.6285904692311242	17.0529668443806450
21.9594879036808379	27.9714913054234700	18.3099917306102995
22.6544311918316090	27.0959111546724394	13.8098456511553600
24.9047377450028300	27.6858367372123126	13.8847828586247122
19.3400814849758333	30.8058544245213000	15.0374801425233198
20.8265844744138455	29.5726900540029973	15.3254757065297795
23.1755974995728593	28.4789810704693167	16.8020026124117940
21.5371300238967613	30.1295025648568711	14.0392808059609138
23.0917381746063910	29.8021135847543377	12.3903504288263022
21.0407230071668145	28.3948823835200166	16.9381928687026928
22.4215859263436030	27.3518737176152307	12.0351618919140897
24.8120057514249162	25.9670875259815332	15.7435617064173936
23.5790105808630344	31.2446595388737229	13.5384635035980470
20.5284206178295072	30.6110774327519088	14.7024623975425239
19.7965376478475079	27.2473209547705970	13.2594680119225572
22.1433869332611870	27.8952429070027179	17.1092526980656423
19.9506612597582169	28.0999530144620451	17.3968923228405323
20.9863326582597693	27.5730490628336931	18.9149234881738906
23.6477643569759017	27.7822609411794730	13.9770095376173895
23.9642977292854731	24.2376171555614484	17.9619862066687759
20.5257127218783140	31.9062404223832985	16.2911633367909197
24.9985691639738334	28.7712543624707529	14.6405354483650125
22.9439706507833314	29.6785948100109600	16.7742470639962775
24.1654431849082130	24.6829207082656303	12.3419955087943105
18.7522844541335445	29.9138318356458299	15.5812168099777253
20.1775173961921936	28.5800827799008701	15.2115492092478792
21.8585101919607609	27.6446445836149159	13.0607226224897168
22.9990522773811890	25.9501270715436441	13.7257749358997518
24.1911190480374749	25.2653247152638905	16.4902235399958386
21.2025799197215967	29.3383289246518260	17.7871276966317744
25.8768085539823645	26.1163046947903403	16.3436335850772920
19.4124296946356552	28.5269637153329043	19.1666654924782769
22.0126308170098675	29.6814476261923303	15.0645402200924252
30.3022186116707211	25.3921074225100725	15.5215352626698433
27.3111235226585976	29.8473819032753838	13.0584452169584857
25.3168366991632894	31.1971707995109639	17.0980473112698377
28.7536405935112214	26.9129429038254564	18.3254819116650971
27.8559462620633198	26.0554151498937649	12.5423389473553932
25.0624192575859333	24.5315361646332164	13.1252644866018517
26.0286884785804595	27.0190236714435095	15.5790190875733519
26.2069967042772340	25.2931982676582479	18.9701384471807302
29.4587545370099519	26.8389139283232154	14.8489316316800934
25.5269656317477818	29.0202004294510267	12.5300004012564230
27.3856591782508403	28.0816194832902220	16.6740427321808227
25.3134586206993681	28.7305663527611017	15.8807196925714180
31.9565197842177682	27.4739970051225590	17.9592203638007675
27.4417454080730465	27.7788490157926162	18.7326797732039019
28.1363750122396539	28.7955493035451724	15.0010642879523939
27.9390068273282601	27.8818685324580180	13.6700708365327195
28.4714494631622657	31.5927647041175383	13.2740936294191467
26.1192680875416627	25.9254405313162302	17.4882978425196605
28.7642168697820537	29.6849331268105487	16.8631957167618083
27.1077922574390051	29.9122603274140779	16.8491898376727995
28.6023614742837182	27.6819589379655611	14.6730246257100649
26.3336971138175819	28.0618953103678912	16.0578877037035639
27.9038976287983225	27.5110453230166421	17.6100345063874713
29.2531486232349849	25.6290561050412364	14.4635480027411525
24.1852294216302361	28.2393394810148521	16.1959143532562067
27.9276019589397464	29.0963213613552085	16.1738630163886725
26.0008425866143078	30.2883443718682024	16.6735478939866795
29.6159231586561589	30.4731962981134465	16.6502267209645183
27.6817473537803629	29.0494064213179435	13.8812469003124246
29.0772946524974714	26.1252111291339979	12.2980088460054482
26.8821398663002888	25.0847326947449858	17.9513768026382365
27.7265630595787727	24.2514616383290083	15.0116908784777952
25.0052147513900458	26.9033824015006608	14.9183218200722880
27.9684052918900754	30.1412691340033625	17.6752924018434285
27.4429629028637727	27.1225173901620842	12.8894167864788916
34.8398541375078779	29.2143686513120322	15.9780909011645633
34.4495077692092408	26.2889372093740086	14.0021405896320630
36.2518937381718018	30.5731718573736799	14.1608501210552138
32.8330692999791012	27.8602563360416013	13.3354681358409266
36.7929415748094470	26.6194902961725006	13.8343026131119800
35.4565353624181512	26.7765402781770661	18.7452916780934657
35.6928338411289303	25.2589653215308019	12.5219277227995001
33.5485552668357485	30.2568039245488727	16.9589845935293830
33.1918090874450584	30.1967380980667421	13.3082856850010156
29.3809827898949436	25.8543831137997024	18.2600731269088037
32.6224958683953403	28.4253713554274334	12.2655799221503941
35.3888162657294956	30.0170516726230439	16.6310962647062617
35.1463570722206669	27.5647753660019283	12.2557419638453879
33.6353853530599167	26.9607858197346637	13.3919548463657208
31.4374556611223070	26.4445268866956162	18.1074000420554846
32.6028290707049706	28.1994022798272432	18.5972243478054757
34.6533455480253210	25.3963567885013042	13.1338508345914136
29.7270011919959174	24.3659873139860395	15.8672377163425686
35.9139010824631839	25.3269046083215308	11.3294713392307997
31.4301647126016874	29.9132817550197458	12.2332361611792191
34.9769483130837884	25.1695172656517201	14.9735450196509117
32.5342079244952558	30.5130956223755732	15.3991756331055356
33.8037914303381228	23.7674534373316995	14.6577752638293450
37.0832892707778825	26.1372401620841117	14.9262375391434947
32.4124486474275315	28.7311352249634027	14.0527128652039508
33.8690725329465891	31.7522464740460535	15.5746851003968185
34.1162996986222922	29.5729045160516826	15.1178005741609134
35.5335142063693326	26.8305744312663919	14.1602291552278068
35.4736224043380446	30.3130052929964400	13.3048300826824697
30.4346862854011775	26.5586089792522912	15.4756372551562773
36.6639855116965308	25.9090083627054923	12.8706514439716919
40.1441055659197588	26.8580196171273045	15.6797805699022632
42.2170207006236211	27.4837502170485450	11.7009690256538548
41.3464543903591419	25.5861826647919166	12.8334282959212942
38.1680987581199673	26.2866469216432819	15.3504659626736313
38.0320252302581494	28.2810382853565621	13.2509449326746598
38.1981867541234408	29.4485676427570056	16.8686006090406764
40.8205734885853531	27.7419765560897353	17.5611728864300964
42.9973519247367477	25.0337274031474628	14.1328510465541495
39.2805106957109729	28.2402054281269201	17.0429438968182687
39.0207942666094567	28.2648206781946136	15.0038648237350394
41.4799261413403926	25.0390810690957544	15.1434363229417759
39.7917713144856862	29.5396137953539686	13.6244713490111664
40.9501323389879133	30.8100242559051978	17.6772990778660066
38.6804944232557517	31.6407206853146761	12.2465567030049201
38.1167082713067558	28.4203669368921261	17.5770739434133034
39.3292757630236238	30.6621127092498362	13.7124802909432457
36.9878256020913838	27.7760541003433659	13.4388708338323521
36.1299115156147224	27.2627782067711379	17.9422891735719432
39.3831506298767096	25.0068533468321093	16.9461901839889428
41.7658278801521092	25.0571424402788701	13.9223336300778406
38.7081211603833211	26.3869914604433511	18.4758502532794360
41.7273304313906266	30.6543108560799809	18.6394670228240180
39.8797977131143710	28.0298679131490509	18.2063477151973210
38.8578181910255580	28.8764766404163353	16.0158653566572653
40.7465918570980108	25.8302654008492105	15.6791924359420296
37.1610267827413523	31.0668005737452084	13.5819555223401345
41.7558527920891578	26.5199924713517703	12.2113284651597169
39.0539316481923677	27.0446839759551985	15.1632951678190029
41.7397457729120731	31.1158292373582483	16.8666923024001569
38.2685632236035929	30.5735706550867583	17.2185388446632182
39.0007517215743320	28.6415604146336200	13.8346164083044769
40.3339751225534400	27.7102159607143257	16.4879372789766059
40.3761983087082044	24.7785530165848051	12.6708767428653228
1.3972138971531887	31.8272040045905236	17.4343055449588284
0.5470085239532972	35.2912911974336438	18.9153698492794611
5.2688928511131801	32.5259677244568195	17.6753156169005941
2.0036479650021031	35.9412742766151325	14.6857908649218913
4.0448230140873038	32.5750749067373064	13.5346442609576627
0.4640295520954614	31.7114261938619606	13.8173342973987197
1.4772134249291746	30.4210579085040038	13.7354380830586340
3.1753203037668976	33.9837205023722859	14.8337827355467979
5.8982857750944335	32.8715575451415063	13.5465239401529089
42.8080498856231770	35.0728994848161975	13.8801745390304987
3.2728862833774999	33.0588810115347371	18.9867151942521026
4.2670776924439879	37.5463157622412709	15.2295741853694295
5.6572560753133674	32.6927977558924283	15.3151114714496632
0.4526853656548182	33.6032532500678087	17.4099910458974989
2.3653705336310722	32.6104875407891370	16.4256094694802286
2.3459510445912573	32.4288247521320514	14.4359251348623907
1.4317469703916774	32.9846110081552197	17.0791569907808132
4.2540968188085477	32.0109179167974389	12.4990083130790808
2.8131086791809401	35.0990286705917853	14.8206259106122644
42.3427108749335090	35.4667299124943796	12.8525796714034026
4.9099549012867945	32.7992688000539161	14.3482676084206915
2.8312416732727934	32.9870225731322577	15.4012829040686476
2.9115003941796891	33.0165246914726254	13.5433423411518099
0.6611546162193870	31.1176703882783734	18.0324490125562420
2.3901801495609516	31.4478779842698124	16.7975770551956387
1.4219013903586353	33.3156299118759023	11.9555915350288906
1.5770354013737224	31.5332841349558244	14.2437008214979937
5.5972585451660111	33.2985062965726399	12.4291778246323172
5.8876492389465485	32.5970176135118876	16.5633178069768476
4.6870471750200444	37.3138561337857695	12.4606049036038016
7.7491687338275073	32.5164271805718315	15.1233892519592583
12.3148886388510874	34.0335973835655281	15.8926776043488971
10.7610963898110672	33.4537016026607290	18.2084523134347869
9.6913569698839463	32.9197549906883822	14.3185426660171480
8.4141992518977240	36.2177618990031576	17.7642759265841512
9.3016581019521514	31.6189691431845219	15.7058911233230134
10.5798948734425959	34.7355692271415961	13.2687561999268091
7.1718966275220026	34.0222790007394167	14.8154786535043996
9.0944730348519958	35.0316360412886141	14.1022845239730650
12.0235110445939792	32.8960209571589814	14.2372389354055109
7.9099025856043506	31.8793805145372922	13.3822656734016778
12.2501263042394530	35.0396532426741842	18.4642686194657273
12.8296195533674364	34.9275144124471026	14.5916458594192875
10.8932315467002265	31.3185309119252260	14.0583669411954606
10.8945424834707918	31.7909802291679142	16.0946880209679222
8.1107831248677815	34.2228650929963365	16.8139417936799873
7.1277350405053186	32.7844875806797731	16.7159932864181044
9.0273962067470599	30.5799883613261763	14.1031062467473554
8.8064593573603105	32.2999970063687272	17.1917084064456027
7.2075974685395288	32.3446423574980031	12.5497920013668995
7.9794619168365948	34.7336880735753866	14.3669224079053102
9.8687064079033924	34.0385978808700926	13.9195241751664245
8.6065842798207974	32.3542796217759445	14.2921736265916355
8.1684107420538155	33.2410770972477181	17.6013876298406871
11.5215745453498943	32.1683064969937433	13.4294327323850595
10.3209100294820875	32.0750269659143328	15.0276127042455183
9.8987580512268831	31.9464767810736276	16.8151097148629418
8.2604268382209405	37.2047260594760729	17.1264561908797539
12.0230206953118888	34.0014719609761684	14.7080794547883773
7.3329062750775398	37.1429911440250962	15.3265259765805038
8.1109768789321848	32.0225556102446518	16.1964061008278044
8.5165200207510665	35.0610582115247240	17.5597184092010430
10.9737336798004375	35.0446486829047643	12.1720895797262951
6.6902453844044825	32.8460779895939723	14.5785076281712307
7.4253760994366873	33.7265200654404040	15.9728108919560743
7.9375972057418114	30.6818320513287937	13.5935860891514615
11.6240708349571751	30.5349071576246409	14.6930379321507782
14.1253602965472194	33.6922188466680410	12.2428854043977111
13.8027551430804287	35.3405051291877257	15.7407161910102573
17.8037909373647807	32.0209887430066331	13.3246499956840907
12.2698870521677748	36.2959716710870097	15.5738647295893031
17.6363775403965803	35.1887105718119386	12.7590514258341106
14.2397438110724011	31.9769558558444089	13.9826460273446056
13.0099702279035956	32.1251848910121538	16.7809224627710023
19.2774498415499842	32.8083501745955175	14.4494767907341917
15.9949372221620010	37.1879871219603473	15.7583952217950571
16.0824195502497318	32.4509562733863675	15.0275091109854912
14.3256670712287733	35.3160832632389443	12.5439383759006233
12.6611995706195568	31.9094585947591654	13.0128979918039960
13.7880156313563162	33.1271437607731940	15.1181386058880278
16.4208229588383787	36.2495769424745689	17.9129991985706205
17.2636097883107809	34.4997905608822322	15.7790179261521999
17.6660410577010119	30.0365945752084400	16.0769477282275801
16.3364896049377784	30.5832574922696772	17.5776037759747936
16.2593663274338418	36.2234208765441750	14.4114086721984460
17.4803775262335428	33.5072353259966391	13.8653618529884497
17.5603814908592355	32.0289898962377606	15.3312058223761163
14.2940331838516954	30.8039152016822300	17.4160517953616747
15.3559907472711021	30.1862968190502450	13.7711168450176444
14.9093702745072481	34.1834804584845671	14.3452426837614766
16.2613375064634589	34.8305241074088840	13.4373869088444717
14.2350055651173317	36.6125468862878520	14.2027337399614257
13.9024511776976318	33.8523475826871305	17.0428026006170619
14.2515973032326073	30.7800362724123957	13.7839129397793503
13.3977322827727470	35.4178739522484349	18.6077826578579852
12.0505619074928951	31.5457212568271856	16.3372980901766489
16.2392004873668192	33.0799648182706107	18.0353961235680131
16.7986871877485449	32.8623395457257956	15.9628177069808270
17.0587966581899479	34.1106830691577656	12.8816274761140761
17.5687486487909013	34.2939878486524421	16.9325588692447049
15.7737593920399153	35.0167633733606110	14.5192529747727441
13.9467404288965255	31.9697409247040873	17.5307322573352273
13.1709327501862923	33.2317006537141708	16.2795916400048561
18.5505105027386143	33.0116584437101324	13.4807947399152699
16.7597981192210064	35.9106820923365504	13.2039104979787787
13.2637817574720742	36.0882251300534520	14.7899291838678000
14.2924559957712400	34.9612172092545705	16.7718295879004380
11.9433737477359276	35.0297374164118338	19.6769471634180029
12.5081995773448149	35.1945280721820595	16.1022247861945225
13.1465299175802190	32.4272343759393635	14.3306782242290112
11.8670781226191924	33.8752531534023547	18.2463683642106744
15.5321933468522477	35.4170181937879391	18.3294400983464811
17.6425855028325564	34.3347437650219476	14.6978595237141132
14.5122610770276310	33.7722015494741115	18.1412830172294797
15.5102056127456862	29.8026935972893625	12.6234182063929428
13.6269068305123966	32.6069764782848566	12.4420196666168010
17.0234913309831164	32.3572673311128369	14.2127194405160076
14.6606030652861534	34.3115011849867741	13.1557813063232079
14.9391826941933417	32.7579663739226632	14.7131629859966822
17.0370851775394989	31.0069674787131433	15.6865519616806939
17.0165786170751296	36.9486479719500238	15.1287964555823393
14.2626130735727301	36.4415402250885592	12.9619710167264532
13.8585691151208739	34.3493650131591224	14.9518670835829628
21.5861887687008185	36.3455971359998387	14.0288999574136000
23.4065159735431578	33.3401269998426883	12.9507556806056741
24.5689977183418691	35.9498265008684115	14.3477350092201075
21.2558664824844499	32.1949055348921362	17.2849092425900679
18.7892821400826442	33.7316084590782523	12.4961658214258051
20.6947093248216234	33.1271677800146520	15.9885147266091465
18.7681805425452453	34.1912697595929629	17.0836426735045599
23.9687400122849361	32.5591904720486767	16.8807333207076660
22.3321562166385483	33.3251158161206433	16.0163940409807957
20.9243132461428694	31.7974172672931275	14.8539159940004399
19.5680965580320283	35.7612990339984194	13.6457350996932121
19.3528542981770606	32.2102520470882325	16.3976745351375008
20.8317646118595476	33.4007790402087110	14.3096061251263880
23.6767880523573879	36.3923785353526981	15.5729986658121575
20.1631803290802836	35.9190164175503668	17.1238103524750152
24.8282856407854489	35.9024345323062093	17.5234944440238358
23.8018704249732203	30.4807037352318453	14.5482636910909804
19.3520813685422262	33.1242190899611728	17.1925021937616300
23.5110521134859418	33.3852599978413025	16.1123075075092750
23.3210276335881090	35.8162398863585736	18.5817123149146077
25.3477389352989135	31.8701813737637245	18.1265467026709395
18.8274912616798460	31.9362711310827194	15.3075196335951809
24.4972614147745631	31.6307551179191790	16.2724783856780064
24.1181446242884867	35.2868563193770512	15.3667133552973993
22.0451027410206137	29.7504791731881895	13.0330096782625766
21.6128804037833966	32.8704759983954915	15.1265423767231439
20.3208022924627478	32.3505225393203872	13.9383988000150492
19.6666115936969135	34.9100944066841450	17.4334851991573352
24.5617577379488914	33.7409302710675973	13.0428173394884688
18.8298694046289476	35.0020720868939392	12.5759685059899766
23.7765680295461124	35.7387402100598734	13.4430152666076630
20.7415091587115583	35.5649223381686781	13.7736766024285906
23.5454549353766716	32.4169878285197299	13.7518659797761060
19.9313409685561709	33.5782068113578873	15.1783574794690139
19.1806643864001387	36.9071267008037935	12.5664435584669913
21.4540479988329231	33.3556966818255489	16.8991434854245774
23.1997225816894250	36.7832812395929452	16.5747579702116887
24.6942052043399656	32.8736666380643427	13.9521009905916973
28.2159908086075504	33.8785248405183381	14.1545639062111803
27.0466393571861943	34.7529878085491433	11.4101464988821863
24.5803121894225072	31.3637957604959752	15.0879818361739559
27.8892862480866732	36.6077257419616018	12.6928363001760065
27.0329250987956122	34.9855502917906662	15.6550207155199885
24.6031312591878120	34.9337772513235763	13.1425365799179197
29.6160671014474701	35.7654298029493134	13.8750545923093735
29.5514103798035102	31.5070481323527822	17.1926847271479843
25.5398040080142223	34.8817479934767007	17.3269344216800434
26.3896339137261897	31.5669966572931600	13.7560167950557730
28.2966087670257913	30.9729187952905924	18.4733404567079909
24.2241865034536090	34.0978473499281947	15.4474074352592492
25.9910358327759354	34.2970943172656391	14.3697892093173039
27.1722535027102126	34.2683839537884367	14.7154967188815373
28.7880973724985942	31.9731653154528352	17.9707281410272621
27.6796141069150181	35.6550209136990972	11.9250863791103292
25.2561941324613457	38.3172160084324318	12.1718354368566892
28.9896587565466675	36.6713912379732960	13.2831277942256296
24.4787165140782967	37.0408623833343711	14.9265516316595139
25.2870150391104289	31.7381279231853739	14.1432524183793298
27.3575136522377313	31.0359376992359017	13.3192757990347292
28.2218978323525924	32.8380261081954501	13.4132167857299969
25.1423736348809719	33.5895995254919484	14.8490672774538890
29.0965861553734868	34.6942277350365700	14.0778740928849899
26.3038585024936147	35.3548476471187882	16.5156750820734501
29.1774913037494272	34.6177358834191153	10.8160349527829567
29.4355728341331364	31.0672084500701118	12.7717868176074187
25.5242158586628953	35.2856816286301509	13.8811232475981630
31.5573761058054814	33.4532881292631146	14.9385879312956789
33.4003233235538204	34.3779954520382205	14.5143281382750349
34.8498788782799807	34.2496968063126843	16.1356302871452648
33.0107631028154671	29.6834980069797112	14.5211285626619908
33.1324544067313198	31.0615147083863867	17.9941136697859818
34.6594045146457432	30.6195246525163789	17.3663655342014422
36.7228691565503524	36.2839977502201307	13.7858055960623656
34.3608788668194620	30.1530200517591140	12.8720963300522158
32.6667407053425052	31.7264476206395329	15.3343123314212164
32.2819630690660375	35.4817655107425836	14.1584808731595704
34.0662068004240908	36.9918870497233172	16.5603162193439957
34.4775724089389399	36.2541049381551375	14.4746257375545362
33.7619205615380054	30.5503507907825806	15.7576782790363890
36.3216293599222624	31.0038915766044880	12.6087255066241450
34.5153557497410404	32.7400559025746958	15.6679510510883127
30.7785664535360652	36.8673119762593586	17.6885299414135204
31.9411313323412038	32.5757367377127451	16.9001040096318143
32.3597538839230481	30.4248858759037653	16.6144734465172590
34.3462359895460096	31.5963815781762172	18.0209348033357628
33.4879495328126637	35.5609988059990059	14.2136077090377491
33.4364502720180639	32.2092451019658270	12.7199393889376875
31.9046243510969489	32.6014087267871773	15.6731817560928945
35.6290270595911949	36.0998326615866603	14.1600049787210160
35.3530687400247388	33.2024132228662481	16.4572434344000875
35.6810494876888811	31.9500141595640876	12.1518758734084784
33.4699987016543972	36.1341893505484180	17.1086071812568683
31.3143615163043094	35.7117391337230572	17.6833260716015772
34.1026614497914622	33.8418488804715594	15.3121575102741581
32.2204137362895935	31.4588511197145770	17.2337925576826088
31.8981477922245844	33.4863820270320787	17.6893626507560313
32.1700588609619871	34.3328554740064220	14.4694172957832805
39.9381590030277138	34.0263196447821130	15.8249607866218902
41.9425431754656586	30.4809745223268891	13.2033117058066392
38.9589556366361620	31.2984084697167475	17.8035977362419509
35.7138004941250102	32.9607648187776192	17.5522116409141233
42.0213606781954780	35.4536460282383530	15.1386145340715181
38.3109227892526008	37.8175807276683145	19.6145229921618593
42.3647782385499383	33.8188492009367678	18.4468274416179945
40.1334904288703243	36.0072585948170385	15.3691457016969206
41.2045798976277595	33.1800142667706908	17.4078399534820463
38.6535669521810732	36.2507715104859258	15.9962964397068585
38.3309640084571015	31.2402482986024168	13.3507716669960050
40.2606418887058410	34.5156785403613995	17.3406571116541244
40.2795788777724013	36.7708433449131746	17.2714641351897846
42.1971818982779325	33.2099848956603410	14.2136054843880206
36.9776950478623050	35.9407221663088450	17.6714169461944977
40.0084490455625215	31.2024462714068918	18.3281402234483259
41.3649790561259749	31.5943533049811514	13.0223470609224634
42.3855585663363925	33.0075185227707024	17.4228311256681039
40.3408938551117515	35.0664925961719049	16.2109086887398988
42.1394100935339750	34.3218477608938599	14.5696454680105969
0.1612128476336442	35.8488532578635102	14.7286007600763096
41.1574788263000215	34.1612178224866838	18.2026986680976890
41.0827242489258211	35.9610107081980246	14.5528740072801526
0.0320887757756176	32.7792415273100772	13.4858575251546782
40.1901658755010516	33.3575168243191058	16.7738901883487834
2.8565378921517621	0.1794861350929477	12.6596537368216211
5.3929008798691171	37.2412134383090319	13.4437675501050595
5.6282316130248793	38.0630810573874143	12.0307450323659406
6.0178006039687721	0.5206998017246892	12.7787856659547199
1.7205149552256180	41.5071645768098847	13.5704263716886668
3.1931849066119655	40.7516921981753413	17.5700692024878968
0.4605794450636310	37.0193970557842960	14.4637506545111592
3.3818679720683740	41.1039355400857502	15.9922773917292460
4.0597807495777412	42.6749440412978842	17.4879758561341880
4.3578238660671813	40.6511507374029577	14.0399724314292929
4.8027793038692144	1.0379483860418226	14.6846387818923869
4.8842168292707218	40.1452438679028560	18.4000545936105198
2.1166181885737529	39.4393343924164697	12.6624930751224500
2.5628977360900334	37.9836299970348890	13.1274151223811071
4.0849005140716574	39.6563805299758201	16.0693017534220282
3.0851319855327684	40.0722326980020398	16.5965763197045639
4.1458794909097074	40.5820376210864282	15.2007438951532752
2.5402339277980071	0.0640508618160851	11.4454397550973201
1.5785682433729300	38.3525994701320272	12.5572958720039765
6.0670292367492502	37.7170398045775244	16.4791561288037016
3.2653462078113584	38.9048908569272527	12.6625228966821588
2.4154234129091199	42.4354192863940938	13.4607817083533607
4.5844002929054852	40.3712130895472043	12.9336857165130628
5.0221677255065496	39.5841666361256586	17.3417235074311833
1.7411938355112320	36.9781982622288155	14.1766421536861245
4.4145742853933907	38.5207350141277232	15.8572796270427752
3.6999892114132154	40.5141187070146529	18.6315512943900821
3.4201151687126301	41.8009832200206688	16.9799895823054818
42.7263117664396717	37.8376876841952736	11.6807163551320841
5.1751929206345775	37.1020035422599719	14.6184242959949220
4.9699566423018169	0.3084549973665791	17.0572512170788428
1.6944654361157987	40.4379452904016787	13.1129607036020470
7.2339604441798224	37.3971668996031639	16.5116084423627214
8.8028011804174859	38.9989379676439398	19.3071852598031839
10.1532582253962467	36.8445565387179030	14.9918872057282755
12.3832651767750725	42.0937156267424086	17.3375083834863730
10.6568652238965100	38.1860370137582379	12.0934648957914259
9.2121398468678830	39.0718179369609686	15.5802226455394948
7.7931635247517281	42.3957968779484418	13.4436268323471744
9.2296372132252866	0.3342472042646527	16.3622039524379019
9.7720634641401851	39.7451895979537468	17.6494001294258922
7.3055137166343789	42.6423408727880542	16.9319748128248513
9.4309619795093464	41.1095263818740548	14.1225755537763433
9.1655418489251517	37.8394918286364756	16.6319876527689239
5.2482471455442106	38.5646242917186726	16.7523915165632573
11.4457616851175139	40.3186624589040292	14.0669779385992904
7.9390407984836440	40.1158693145578482	14.8645796986284768
6.1411692700354372	37.2920343219460122	15.3081162451229016
8.2397013055715806	37.7753641886947662	14.8825721347183357
8.9880535121535079	41.9720497133554176	15.4412024053835832
8.1005537538294394	38.9760603897380093	15.0797007748088507
8.7157448030172304	42.1111401420353886	14.1406149708354398
8.9309808411023113	40.6913546495795444	15.1891231095496710
8.1170382707042990	39.0338565618078022	12.2692075254901827
8.2289288707430508	42.6624561176133099	16.1949828807733134
9.8413361192422624	35.9739657120028724	14.2028838586870929
10.0255712269307384	42.4861337651248263	15.9738691603005343
9.3610708685756148	37.7260697719977927	15.4262730177231084
10.3096160177660359	40.4593472779610153	13.6483770878779040
9.3820999279917547	39.0302995175657514	16.7881723211428913
11.2114830805154835	36.8052928664041445	15.5438858416804173
12.8045055351470882	40.6621003217223702	12.2017643729014083
15.9645946310983646	39.5448743049120210	16.4448659920225566
13.8124295383488374	41.8362820610430646	16.2273585239626605
16.4949624653892535	38.1513967709050803	17.1500836481066905
12.5649908813819007	41.1839513931013244	15.4233446404193426
17.7888201635252834	41.9956233301642925	14.1582862973723387
14.0069018253027089	41.7034702052310990	18.2904010313848921
15.5875728645908769	40.0342747407903801	18.4319072539928008
14.3464153103657264	37.3370709146713651	12.1343651309613900
16.0096197587014366	41.4582573060276118	15.1856092690156412
16.3009442972593135	41.4765874659910168	12.7311954517876558
18.5097898566767256	41.3422959612872987	15.4633739964398487
17.5881809453382374	37.9274041896637115	15.5600846078695980
13.3330322345888828	39.8276837053208865	15.0159372477703137
17.1103872418692049	41.2968764477711332	16.3221300129470492
13.6940906343114843	37.9190320516059316	18.3864587727256072
14.3992375651118536	0.4954385997307513	17.4614331622120922
15.6106880723217145	39.2351548796846572	12.6340027438719051
13.4314991029951045	40.1469949437083784	18.1100663658054195
13.8267489778941179	39.0071208430963239	13.0421891955509839
16.5271450448608128	36.8320005835660709	18.9817797069410226
12.0086128147898794	40.7286603615183438	13.0779564276333762
16.6131791251020751	38.5714529729196016	16.0253523961835853
13.7495953247963278	40.8708996329054273	15.4950547610258642
17.2668326560098855	41.3882252297414155	15.0955710848773403
13.2201490215858630	39.4881423437197157	12.1060480907059418
14.7438361599307903	38.4517307790867235	12.4443657772478353
15.1945814582259899	36.8269609300490899	14.9060356787684736
13.7339875467965555	37.5517384352046761	11.0913281808992714
13.8224864813901398	39.1320742035126443	14.2017594022508877
12.8567120371679575	41.1983380730076121	17.9662856899546810
12.1287499319472083	40.1540329205108364	15.0163768663976427
14.1878337781725712	42.3501721572425467	17.2356577974914700
16.0600979626690687	40.7160258291070107	16.2237816541173387
18.6644163055339618	38.3645685981036806	15.9553050214835164
11.5925534002743493	42.9334805742457561	17.6539876828666493
17.4341563180161643	41.7093285147811130	13.0712933009481755
14.5509721512771151	40.5871534184095779	18.3397340017414514
12.5832026240643380	42.1169270863911933	16.1459841644808400
16.2222166363800788	36.9983011025006405	16.9948206742642718
18.8946295491751819	40.2275102755518077	14.9851587324929127
18.1819610713013056	41.7103511757458705	16.6920922737061339
16.0389655235061817	40.3108506475729129	12.5364482295860498
15.8680969011848294	39.0689221998358391	17.6381023124149898
14.7604198643769777	37.5154813597867687	18.7108074500551886
15.6193018713276750	42.4974477370964934	12.7041960808303021
13.2879100893722928	38.9664115559619617	18.1158014157832135
23.8554352686091455	0.2683373355075916	17.7337479544494272
20.2290677661063256	36.8539444597095454	15.2440797495298366
18.7121215423332750	0.4873545187928947	19.7075452268414502
21.0087206263280066	37.9996813542017549	18.2596321625175015
23.6720888757832064	36.3959529985587267	17.5733343397005974
23.9165608711602715	42.5537071191820786	12.6746529297451804
21.4214250803636439	39.8216771937887728	15.8690861883257011
19.3382870189620313	39.3272561473681677	15.6641287228583579
21.5399153456382777	38.3582473722603083	15.1732184661131413
19.5395909929555032	37.9330069885260031	16.7073433729772738
19.0015765931209799	37.4656494708685628	13.6549360039600352
22.5110136842202344	42.4541313193734950	16.6533472942244352
22.3959271585628876	42.1836121248530134	14.3311296067788803
18.7250797903068182	39.6536862853732970	13.9431804335814356
22.9459896816781814	42.5207344785008914	13.3622252150683352
18.8347477524831604	38.6302513940407124	13.3171695268074437
22.3028281794041412	39.2785500790606221	15.3329894725247531
18.7267287355402523	42.3979271117205627	14.8553379781226536
23.3697420982899722	0.3862977833638093	16.6042332429052273
20.0319141060274681	36.8569919233336947	16.4328483613386886
20.5180617590595773	39.0779681802552474	15.6054713345419103
19.3553706730156598	36.6756338317758264	14.4497198403109710
25.0285892606291043	41.8781636033608393	15.3452443629895221
18.7645186632390875	40.7689686832488931	19.5842343494135669
20.0842607892942837	38.3973172525213329	17.6641452385874480
25.8488532397567141	40.6621686612790114	13.7638644795365686
21.2762725849606049	37.2559600406521838	14.7600760740363466
22.2676696398300464	42.4996571328830228	15.4572548030544930
24.9575652231378271	42.1756803158928406	13.1143284416334893
24.0984060840998566	40.2261747198392996	11.7137436492945799
25.3886499208963201	42.4071338814661374	18.1129238400958954
28.6390090352345403	39.5768362692282167	14.3759660081942826
29.7158784469048527	37.6183188528556514	13.8799799847063472
26.4670311244825491	38.4386935667068244	12.3154487231734464
26.7497974593903933	40.1191662939360256	13.2398916510557356
25.1389220791503512	41.5390052006347759	14.1682263813752609
27.9028811865094752	41.2851850559230513	15.4477182836401088
27.4078720817236245	39.5952688629823726	17.1071900049518497
26.1942137277828948	42.0699404727401358	12.9006254860315988
27.8582132764882893	38.2558694446863896	13.7012885232491435
29.6381576282436470	38.8375546586305873	17.9715507276812225
25.6625004175948312	36.3873113506941266	16.7541111033749459
27.0924004479597471	41.7303988831110644	16.8357411337755920
28.4352561940424664	40.8115005386786507	17.4281653414162321
24.9431374764057345	41.6396062370135951	16.5310018971617225
25.0647330462917814	37.8513722270281292	15.5353053348361581
27.8721508174482366	41.8199255371515335	17.8075911015418384
27.3641668797691793	42.3785313003309767	15.7905188587427965
29.9329020961074477	37.7093891646712223	17.6854700584659952
28.8654953927462934	40.3419253677632597	11.4562311078645767
28.8876040504867682	38.3750911603127633	14.3058481677073495
27.6011408250721786	39.4361594936586002	13.7004046710578962
26.7048825120221984	42.6133979131067235	13.8605665805823346
25.9457719791638546	41.9404749812452806	17.1208982019130787
28.6796761454215385	40.6829439340776347	14.7975036501293928
28.5568650635664838	39.6212904522775275	17.7591741865675381
25.7427807674186795	37.5148391380987363	16.4266024493506393
26.0380332348418442	0.6520055213348891	15.6774441855426581
27.5996095326064506	40.6289857593568371	16.4869134338294607
26.7527219301570973	39.6394857306400183	12.0653956145692209
26.7913967027746338	39.4305775747379528	18.1360529915635702
27.2981091310148543	37.6867321144156335	12.7960313401219743
33.3632931010002665	37.9173370072739999	15.4917957652564056
34.6847402750918050	42.7420711810850236	15.2545819419659914
31.3504265411595959	37.2781747640058612	14.5024996167302813
32.4465071073598708	38.4084968088799883	17.1685514326749775
35.3660098304683430	40.7023651184363331	15.2999436082138427
31.4543482903437202	38.8479486039602193	14.9131992577737318
37.0984323868652410	39.3487647773459699	14.4229819075233809
33.8022347041603908	39.3436446183427577	13.1457278226473981
32.3801920562482621	0.1543709821850707	14.5959000539611381
33.9810082543651077	38.7377896666506558	17.7399450393516744
31.3366364065768792	40.6493274020777591	16.3493124942214436
33.9605891746181285	41.4081818161744977	14.0642555375223903
33.6098157719667725	40.3590051671607739	13.6796612611198238
32.2411917786305864	37.8713639161363815	15.0845373079006073
31.7201495753520746	0.1397313165307451	13.5809143147326488
31.4291796577542684	0.2046242143495432	15.3763109135524765
34.8610545364958000	41.6501522992013165	14.7908418330490221
34.9213604389477794	0.8189858895431392	15.7048973116554524
30.7686852518121725	38.2410927649078545	14.0879406696512515
32.8524661131916318	38.8655202839650542	18.2573107597702773
31.1243959216396711	41.7042134665224609	16.8050893468225908
33.5145160330718355	42.9847443302281960	14.8899700650313225
35.6946879213384278	40.6066738387660919	16.4482720043629982
33.5705481433676169	38.1543100653678948	16.7056561881590184
35.8825142855578392	41.4039516482193122	18.4171364185564350
31.5520630686798640	39.6339449346732735	15.8063006791271370
34.1728918941625253	37.0348748403691914	15.3569000764093726
31.9146049621324508	37.4207844434486105	17.6548805679158853
34.1437688736573577	38.6778641058005306	12.2563285154776320
36.1125441179804554	39.9156797901088609	14.7990582857337323
30.6883059740681965	36.3221801385133034	14.2026614386791898
42.0083978930355428	37.7913370896688221	12.7217601777814906
36.1505780116130921	37.2310223535264839	18.9100141024723953
41.8089978223758791	38.4374149130784559	16.8629543385666665
39.0884136447304940	41.5520760245686773	13.5022541476955649
40.1380369048013819	40.4539198992225337	17.6333329809377410
36.3797121146501752	40.9234821627943646	17.4117585266395878
41.3774442965167850	38.0384411863169873	19.2714130170045834
36.7446434253685084	40.0534736416566872	15.9543979034399666
40.8974991408032977	42.3783207065562237	13.3156565203206547
40.4481143240115699	37.9762436496135010	13.0740893591909337
38.1943728649908394	37.6747942878516398	13.3631705378646224
38.3754557799285152	39.9507472913402992	16.3832952165256316
38.7941712750150245	39.2409441069210700	13.5688586019169755
37.6335024940205898	38.7541468176833419	13.5303878283501202
37.8360119155855514	36.5117734609953786	13.4195038955308483
42.1306091525990354	39.6004230016022376	11.0256535304833196
41.0475039751267445	36.9770910554379100	12.6090771071754499
41.6850251593137173	0.1099933913825129	12.8863701855978956
39.4898761484186593	40.0822299807611273	16.7389271236067287
41.2757688798830102	40.7486757835119278	17.8790900880305337
39.8991715267192077	42.4586403673286981	13.9579594292404625
41.3394817470020328	38.5336633081364255	18.1160092860172099
38.9831286961823551	35.7395105038200214	14.8581711017539764
39.7034997559047227	36.8143899983339793	16.2416996280087780
41.4600289762829490	0.8117220926502273	15.5001209398262532
36.8685974118990600	0.1381580287561842	12.5125505766473584
37.4059533782967861	40.4453914113992852	16.9527214209694748
37.8877437780892450	35.9637643737262849	16.9013058201090445
39.1488997495782627	40.3671747377055823	13.4425901241716819
41.3042881477517341	38.7831903094180959	12.7891431749746900
42.8691623920448208	37.3731589220696279	13.4632195135352895
38.3540872790105425	42.0640609457733490	12.6970354276641064
42.3648575792817184	37.9845537129690811	15.9380473626658929
39.3000885672801061	38.1581242035324095	13.2464103871743326
37.7629440348404231	39.5270501690948137	15.4179965310175362
3.5995590350178164	1.5435173973057408	21.7002348018540481
42.8956434078404740	1.4277012216694005	22.9526571199212839
3.8334530825623929	5.1336334775554215	23.7763571102317108
0.5762791179508823	0.0421330805442039	20.8382055858978354
42.8969519712945129	6.6050903918305481	21.9285343992241799
3.6817436901336982	2.7833219654069796	23.1855168851582505
3.1431702106755566	42.6381369027829251	20.5410696010674911
3.2318243024298332	6.7409599598769283	20.1246453358157282
4.8979156658626248	1.2932938497207991	23.1846138090516192
1.9263182601617375	1.8811824049596748	23.1282314615373110
1.4255731808339147	1.6235940812313305	21.3171504826704599
0.8657128638046426	1.1322648643794704	20.3865018723077753
6.8349727105562961	3.8318912472485991	18.3771603478827252
42.7444911178318492	5.3356124477381375	24.9678189791390963
0.7497311621604270	2.4047006853274668	18.4054637712555405
42.3213749857661554	1.3667740976722262	18.9566673414489202
2.8877615010861901	2.2048035182857770	22.4550952295531587
2.9583928043505763	6.5091499560139248	21.2540197667505630
0.0611546578128123	1.1578905848615555	24.1214033929681122
4.7731905115791537	1.5886029420607453	22.0015611480449493
0.9801141298755004	1.6507598316243473	22.4197842329447639
42.9908782684243036	6.4383112705768459	23.1076490202117490
3.8420367473972208	3.9097454719232809	23.5870654034361209
3.0322941194355089	0.6345160034561951	21.1533329151431957
5.9312908257155490	3.4678258645086282	23.2480603590100365
2.0774342532602246	1.5577270013707059	24.2905428538570760
7.0690460124115928	1.0543917786819181	21.7099420784890604
8.4992208018293365	5.8160775059116725	19.9873851941340241
7.8236499269598569	4.2221780343064115	18.9762769149061512
11.5114420735976655	2.7519474679427627	18.5967066308143991
11.9726304840650410	1.9467685498282921	20.1820187309248560
10.3894279825816653	6.7213611643922864	20.5563227716425025
11.5045894627908556	1.3302709564809891	22.4029567601108894
5.9176971054903591	1.0885356083306637	21.9807435098830837
9.9001521885471497	3.0803559677979759	19.3360486146388055
10.4522956406674794	0.3706090577127309	21.1401278345972905
9.1788278234260066	3.8090440989628100	23.4975446224436801
10.5336330575797632	0.0975876820971745	23.0804189804761855
8.2160484104955191	0.8817670019530623	21.5981168823198892
6.9313566476767905	4.0545690132720251	23.0828667027547958
8.2194236712006283	5.5777875355319697	23.3980465006364398
10.9557125146099548	2.5645210252456465	19.6427510035250457
8.5893339674772591	3.3354182225969833	24.3757418776236747
10.8890768977031414	1.2250630703133452	23.4861943356170464
8.8794377476397504	4.7403731596936343	22.8695625230255608
11.9123082448368507	2.0135257026423568	21.4859791408627920
8.8904952186110400	3.6944728086232219	19.2521946343655372
9.3324162706541252	0.6063881257064119	21.3915631543649987
12.9045848525546774	2.7995606532121724	20.0891972394310407
7.0507216475691807	5.2157556499101698	23.3302814067902311
12.1622500696177163	5.1788699371449649	26.1186008786030115
11.1315834103540059	6.9179989650793141	19.6518260791715740
16.6537427381001208	0.3437950885455734	19.9168862320569282
14.2951167448701852	0.8723357694832725	23.2901143097827230
18.2140698890290693	3.4127634702287493	21.4136722573239737
12.6373220873209196	2.9843503964865081	21.2508981768372749
14.2621739304886574	5.3659576949382952	21.2859236926950750
16.0566225316871432	3.6069610593963168	20.5172645448117628
17.7738525434781920	2.4340337860520851	23.7137258805455744
14.9671667754051736	0.0791532235136864	21.6240026164968278
16.2376804272144426	1.4603727295869495	22.3058797991990225
15.0565978038305559	5.3723627433227898	19.5738137442165794
13.2277319320851028	2.7475463283766750	23.0805894717827336
14.0525312552788275	3.0121072347481550	19.6941624601280338
16.8937544012053635	6.2381287530337719	21.9401659837907452
14.9839236774128537	3.0915497088322970	20.4542769229260735
15.8508193217855542	4.8510881469254041	20.4065208508039575
13.0619761386440931	3.5276979732506666	22.2256543683694971
18.9400486964607921	2.5758900754454155	20.7141510306746000
14.0834140444079896	5.7081474447951166	20.1833153537313308
18.3574260564370313	1.4656189413190233	24.3465424425077828
17.1288854379973614	3.0702326721262700	20.8809625244175052
17.6538424001251713	1.0187444105163233	20.0188077180618471
12.2687178995156074	0.9014491839980279	19.5440661703250100
15.3883686289402792	5.8591227670172117	18.5075601236745015
13.4900199623922727	1.7207395738683022	23.6205773966246397
15.2101630909186500	0.8962018899492615	22.5095011793977484
14.2108790340929616	0.0895094030967528	24.2256697848626246
17.2515178242975082	1.6646735788971192	22.8937857485510605
18.1472026364101779	3.3286533185950322	24.4320190202060239
13.6689517706301888	1.0297822400126957	18.2800764712016779
15.6774428870267553	0.1746332611269138	20.6583873882163473
15.1063291193590210	5.9183036307855614	21.9300188901360364
19.6950895674268267	3.5237994948707292	20.7496902475407090
19.8094556774600363	1.3490243161756827	21.4468173515942837
17.8294222738205370	2.1364608835557810	20.4570677151968034
20.2000865090441657	2.0935807134412174	22.9438528469126268
22.4578852897534347	4.6785585972676866	23.6414047687123414
21.1095520442770699	4.9690409898204564	21.9754747902153440
23.5409030736207328	2.4537527054193133	21.8381243596459633
19.5056093344719059	4.3330878323234039	22.0784082287335295
23.1263801089873624	4.2379058797184825	22.2067544618895916
21.4841205262427053	3.0543304045037023	21.6715346180400843
22.8028228261450892	2.3135459994906831	23.7090434935573242
19.9888900155739755	6.6903701200322923	20.4589179776170660
24.9491140168431862	2.4317057762909942	24.0572446551452757
22.1789459712923041	4.9336590431922671	22.4883336921354875
21.8470470361299078	42.4684504099369491	17.6296554374584815
23.5330013277579333	5.6460221672471942	19.7573139125987680
21.2483621385233583	6.7775694324743601	21.7499729829051311
18.8168466619035613	3.4289801996424933	22.5110174574639146
19.7017282895167263	5.6429010940240962	18.5689701563134690
20.6413867279559007	3.9395731167367556	21.4580262057523434
24.6843059284998176	2.7702127100389724	22.0961016157266137
18.8835689521992229	4.4130738045538429	21.0134536056236669
19.6983125553685490	6.1456415563064271	24.5495591786528351
20.0282934443397309	5.4269564774551924	22.3945357983076825
24.0965204567106497	4.4648390462557694	22.9882484289390803
22.6892785759499880	3.2560709797143876	21.6077396857880792
24.6702911042970818	5.2295047493104141	18.0681285381014582
23.3885612590637315	1.7633682450629704	22.8231490902947947
21.6189760477170800	41.7685772760713832	25.1773623754942832
22.3564936234852567	3.4691594822637848	23.7221571649509464
19.3501265931060971	1.2549031189695963	22.6096517012249016
22.4605252606345793	2.0212797378067617	24.8203989755458885
21.5382909654891819	6.4695574129756253	19.5058926850105649
20.7992457759221381	2.0808920421791752	21.8678089878056419
23.1061231181562334	0.8019175058014147	18.6066025569497064
20.4239979427168308	2.6681042499901197	24.0356074267928363
30.1178081888260856	4.3651582104069524	23.6825986094858436
32.2347633209875895	2.5969026349365878	20.8461624002848325
26.1189444747115118	2.7642972346072656	24.0824270912051226
26.6282818833483965	0.5257292629410002	23.9542677499044814
26.8712429720782318	0.1703478625436430	19.9339077223479642
24.5655169799572839	1.9714916157954001	23.0379285824241151
27.0787187319961262	3.9395971183532525	22.5149624483423416
28.5841737109694094	2.4233757693949061	21.5106775830240515
29.2764017146387729	4.3550783455057616	19.6301028618498599
30.6507210115209716	5.5326417997719757	24.8685467712532642
28.6089027329535561	4.2496520770862167	21.8452685200204293
28.8065869185504617	0.9895387343490164	19.6413478849425829
25.0220619786751897	3.6989021545684486	22.7836650083187848
28.1821416087558241	0.7572385244837107	21.4610886982871172
29.5474665724461438	0.9886343592040678	23.0229031633205494
27.7051457724292263	2.1042026900509456	22.9975321743426129
26.1496785042486941	3.7177135487348552	23.2246337732428891
27.8003406846479315	0.5072902288426726	19.1875178558749937
29.4703177720594880	4.5174537236215508	22.6779621522938299
25.2535411021180671	6.2021564259433859	19.8790127934796139
28.6017857319732585	6.4993323244036301	22.7673684278608128
26.2030381473299343	42.6900373701412690	18.9884069518559286
29.4941817588047250	5.2295207255207332	24.3472329961453049
24.6396080030587079	2.1945637894366725	18.8716959413765508
25.5900717101999042	42.9654239023002944	24.3364418016653659
28.9298946772420820	4.0280879608830453	20.7030859977395671
28.6419484607537065	1.5834555264972869	20.6771875446572295
27.3223759643501189	42.4618495103147140	24.0510493651994928
26.8221441151354156	1.7476985815610009	23.7235996356242822
27.5876463001518069	4.9458290932754689	22.1045614718267167
28.5395823586818871	1.3761917077335426	22.4858789488112585
27.9387754035945832	3.1037088667347583	22.2856088402136692
32.3050102457229755	4.8244191381186274	24.2941941724321744
35.0492260017733130	4.1016377650577844	25.5152553093784640
33.6402025573523105	2.3300577619971494	22.7006567189309969
35.2403063471171194	2.2495667938676758	20.4573450973765176
36.5157142858123294	3.3998629997399505	24.0219059386479898
33.5888877304162676	3.4377545108257945	20.8021110182395219
37.6255547455754353	2.5839667940399980	23.1462439949361389
33.9788184102277384	1.6428099783651842	18.7654017203353121
35.0413412398747752	0.6375780786887451	20.3964337692144433
35.9061491647481361	3.7798261617836162	20.3562748090975454
34.5847526502810112	0.7359836626467032	21.9824532572697677
35.6573018274805946	1.8074948324094040	22.5678433416076487
32.3370355715659059	5.5722196856218238	19.6695006231142564
35.8308720310779094	42.2352277855005340	19.3214901809220656
34.4212240834938967	1.5623998984934988	19.8494113274254929
30.0777593843261464	1.2775162296810931	24.0958931239326972
34.0276926710845018	4.5494585305215134	18.6833815245976531
33.1254342590805209	2.7275788042092000	21.6995764663948911
30.4156649360037896	0.2451676121629119	22.6549223490213585
33.8518808311141228	2.7589802994174843	18.4158685418506103
34.6905366740383911	3.4039599595638101	20.3450561924791238
32.6079130296922060	3.4357217713729331	20.0922238049766797
32.7450639498057470	5.9817183154293625	18.5566050189494938
35.8336844747353709	4.9295244734364161	20.6758472100556254
35.8933082527996277	0.4358941898330803	19.5373294235899984
35.4231434618592402	1.4728898307713054	21.3983497193839511
36.3635653956131577	2.5503842820314371	23.1693634289040737
34.4834578433232295	1.5258852578322639	22.9049634888470983
32.9284350505439321	5.9414072445624724	20.6427500381462288
31.4321737480658108	6.4410087929884590	19.7245894925563334
38.6163488760086580	5.6620209897778926	24.0096115574607261
0.4454379378746737	1.6615292242831654	19.3581190459545098
41.6008855319771982	42.1030453503248268	20.3463319778540246
41.6148012182944456	0.5548163197432728	21.3577794902565365
41.2590533321188815	1.3871233924405435	19.5694458392789770
40.7444422736189580	1.6469443978566896	22.3626592100019934
40.0573439909624653	42.6351107009429171	20.3304014812983951
39.6530364054802291	4.8222946180206891	20.8825101743785559
40.4083947096751928	4.4856328782819430	24.7039757100980175
36.4124174535003036	1.5129928059512647	19.2010153856364312
40.3017921627127933	2.9834334927640560	20.6691798013326462
37.4613046049307954	6.7753858029818037	23.4875348367253984
40.7755808993529385	5.1822161414911383	22.7130546181376225
39.1831092002145880	2.9038521402298736	21.7926968867791615
38.7553167360831239	1.0356149248848598	21.9991657990948042
37.4186529247114379	2.9773053430318916	18.5389528601200695
40.7721409447855763	2.4586396810481643	19.7380558699736639
41.8957066097312492	1.2553466158952367	22.2957569333522194
39.2945271632592963	3.7002842312137214	20.8621941220612541
41.1518778289872174	3.9283543676012704	25.6891686492246230
36.2439766828071228	2.6636667211639264	19.8591032371920484
42.4424537776393223	42.7267994113492406	21.0423757183191178
40.8866673132752467	0.5387004848863873	20.3939635136762583
37.7287433841486077	3.4370102621975716	24.0081699278184288
38.3890713973117741	2.1848770076130433	22.3225911813451035
40.5177849901904636	5.2789726628583598	21.5505331660230404
40.3715240204281329	2.6628498454908827	21.8472735697539200
38.8741400166368791	7.4490873638866084	18.5244859355264140
37.4124724754682489	5.7856006493517276	24.2536697786559685
38.2430277313428988	0.3078230506214172	21.2145366409298255
39.2436702339558536	4.7413113196254155	24.4766133428997676
40.6043540909463943	6.7919167824461946	19.7044383936129961
39.8827918678846345	0.8321082534616995	22.3563268076190340
41.0753656871015735	5.1161952273260560	23.8675145580397405
1.9288518364881073	8.5295097394677537	19.5576556723589938
2.9721719342639585	6.3842314106443219	22.4122141425221493
2.6943900524254065	6.8239029775157407	24.5013346100093905
5.0587916318801796	11.7354446663133398	21.0116989667445573
0.5209895886183028	8.8001000841037857	21.0747702972674915
5.7067136282696449	9.2959223554398971	19.1943959530665431
41.2419760057282261	8.3548907803595114	21.8346650256299917
3.6639253330849084	8.2091915388416616	19.6868415451562768
3.9451065756090506	9.7852381941662401	20.2703209746309838
0.4671707994027556	6.9539631877042112	24.1649906488745430
42.4974799005157919	6.5453143823070956	20.7995856713561622
2.9343841761755551	9.1143253652101848	20.0552900615443193
4.7250612715978937	8.9163950852888991	19.7862540454070626
5.7557203455689079	11.6822400172248333	25.0053980780249248
1.4715845522104347	6.5049917854883947	24.6987757781064801
2.6790807375864101	7.4733915280480918	19.2292651320917720
5.6380970910088379	12.7175942232234114	21.3328787278492911
3.6685484260525718	11.9659622326434931	18.2593140073982525
4.5200342583797477	10.7776499109289734	20.6139237350337829
0.4514857490901752	9.8647008235456344	21.6170260741175575
1.6374734141199121	9.0504097290426291	18.4448498274164479
6.3465377761857216	7.0134013976504166	23.9116526508587768
4.0950405773387155	11.9739745597974174	24.3852196677855915
5.5705349348238613	9.8249241993531218	18.1264719135663910
6.2631690102553241	8.2006805095867836	19.0550131261831694
0.8956268331963885	8.1397038912153175	20.1480930882948606
4.3422362642506256	7.1453976300933402	19.8369787397492026
3.1263052857779066	6.0837751233124546	23.5478243606877697
9.4061126995363953	7.2699649033717924	24.2774462410464125
11.4976006077583666	8.6872335987713285	21.4295393440842865
8.4046652117795144	12.3332731141901224	21.1814776935566158
8.8812456140049587	7.8086974239173772	20.4721827971654271
9.3915584767705305	12.2447373732877320	24.0031785861385210
10.3380864346104087	13.1170588371586216	20.9325078003387901
12.0677585777537555	10.8782917179391116	19.7752027581332328
7.6764044221380026	11.7975571052040120	18.7350227591601559
10.8521925231050584	10.4010078405139215	18.4664290580102630
7.3721451855692397	7.8844605335236047	18.7516582665701819
8.9402646926923506	7.9097918321784260	18.3776100574623520
9.1484652743294710	8.0611571060956226	22.4830625313091197
5.4318038128861410	7.6401282297871846	24.3690500675246007
7.2749599757400292	10.5864263821697513	20.4682066170933972
11.1903506736098972	12.2231052043149688	18.8674562434510094
7.0448388404902671	10.4435563358503547	18.1036387098832634
7.4363656638399522	8.8929053416443562	21.9847455659532898
7.4908587343790680	7.3280885798178161	23.5759395579790869
9.9157172809024789	7.7023200341398752	23.2973637859497735
7.9196386372876413	8.0814334572249891	22.6982720662957576
7.3055180145284888	10.7219776638891311	19.2553131253935952
8.7331983327172651	12.2776511183613533	19.0461730903384385
11.8931548524149573	9.9992702061597676	18.9402975243577174
9.8731456340036416	11.1913327116069734	23.9816082893388582
10.5010286928657202	11.2557925323163506	19.2429568537579634
7.0738848649789485	9.8741710246273389	17.0190872523371084
12.0792700550139500	8.4494209167220831	20.3906366191296584
9.2238110512161047	6.6201686618383047	20.4414858756832167
8.3865077856266517	8.0779912796822408	19.4218027813486742
8.3949981378802843	6.6236648346825060	23.9846750457397242
7.4216018274184590	11.6613405599304265	21.0196954903191191
9.5066112948499040	8.2889470809049914	21.3580120012505930
7.1672562666635793	9.5749973973669213	21.0855457786279139
13.3288916999476861	12.5943691185185589	19.9153101051737238
18.7888875517297897	9.0514332827584170	19.3180396307995821
16.1205564119745439	5.4945610591909624	21.3696564804237958
13.0259840134004286	11.8040951366219513	18.4613947172596973
12.9356191829335678	9.9837903454662928	21.5946463606996666
14.9080482417486913	11.2494101920691509	18.9109518633439393
16.5994285133754893	8.8053422445936853	22.9787758910453270
18.5756340664796440	5.3993631092973136	18.4123813055858321
16.0882187664735952	10.8884950241835021	22.8802397359799876
15.8471076506577599	6.8330717689198615	22.2381615486269908
15.9577489474804146	8.9969778509735630	21.5505181235250127
12.2004592063568342	7.4826713584799229	19.6876026798909862
18.7410090547701706	7.8960777566484470	23.3246946974836540
19.2898818639327096	5.8996769675548713	25.6163017449601469
13.4427045062226966	8.8210830023454552	18.9118610157155409
12.1223932326541171	9.3763943114439741	22.1476726665946835
15.9576995439835922	8.0326315383099924	22.2576981275228469
17.4907609808089752	11.7854860654901508	20.2560953529713039
17.7048323789385087	8.5772829637286687	23.3558194599881261
14.9104186853637763	10.3256448095906972	18.1777332585485105
15.0363846886611654	12.1318772675823432	25.1488551957705617
16.1959195070571695	7.7045418098778500	18.3446782991302761
15.3257015809574231	11.8444901642948182	22.9346697398789914
12.8901146983842079	10.3127612224111385	20.4673059061831850
16.2547490579304572	9.8243994006319131	22.3534125085731574
16.3793262633815395	10.9049730946856211	24.0835126247156204
16.2049389473888930	13.0062735487411434	17.2467697496321257
18.0081464853736399	12.0744422069286301	24.8802509113745067
16.8913189818364380	9.4129241173333451	18.4973350987981924
14.0516728143965057	12.0122443274146775	19.1385805505858890
18.3358102309867697	8.0606049844050407	18.8158755111822664
19.6942096178350887	6.0961268764316454	23.3692812953149769
18.0446407131311695	6.2861172803349188	22.1463555014592188
24.1256649643361385	7.9593638937643902	18.6949290194985629
21.4952020785105269	7.9229040947710674	22.0061415551133415
20.3407934999221105	6.1943453635238139	19.3899477374461782
23.8626845665831837	8.8880116250165582	24.6929017665059263
20.7559817868022982	8.9757415805274707	20.8000384226589610
18.3689545795772347	10.9894369975099462	20.4619698054122061
20.2218636188403629	9.3533762261154614	22.8119103360415565
23.3481748372716886	8.6646332039839855	23.0776551278387387
21.1877448228701866	7.0361957965097330	20.5285370435783427
22.2157300518044138	9.4280043963865889	21.3838570076231917
23.8102108622898925	11.9377672163375621	24.1221549473317225
19.7138537804259428	12.4853602675582103	20.4611607698952831
20.0743474563915818	6.4216149853152658	21.6351600811993414
18.4993570392248508	9.4596455752914252	23.6031426599523364
22.7598556905716869	8.3908664801118391	20.0429807105668409
22.7086315197278381	6.4188107321687093	19.3705333809372462
23.0213173661231174	6.8038226609041770	24.0932523735425761
22.8788432198147511	12.6068776237562936	25.3445079303127976
23.7043669120457139	12.0595004355727937	21.9858912011556278
24.5465978150364741	10.5373617416371985	22.8677600814500757
22.0707391036826017	12.6770593923220840	18.3660377494367673
23.2106436640560645	10.6230568325548216	20.3932911449013226
20.3489155246662605	10.7832441003144819	21.4314413688113099
23.6910722196568102	11.5141029535340351	20.9578124743543022
23.8193554822658555	11.4862060708908356	23.0090916535492021
19.4990707497896416	8.8021253914102751	23.5930130738887343
20.2134397368933065	10.9038969274485140	17.6402299794390984
21.6594860498741575	8.1938327477780550	20.5376533154578311
21.0288513464535178	9.5809558306636458	16.7389559899707869
23.4544233287873780	7.4710168752995498	19.6359789288404762
18.8890779089135279	6.8328711244949289	22.7796340587822321
23.0728245103266154	9.4639022586402053	20.5170549789089662
18.1954055886942641	9.8535442037164671	20.0245546364871387
22.4222535984890108	8.6700161539024361	22.3103747872537852
23.3935578224702816	7.9311427880729006	24.0640443553502585
18.3451902788859940	10.5616701174695606	23.9730779443881836
20.1631770376687101	10.5195608695400757	22.5846815261055269
19.5090810271898469	11.3304928259154671	20.7480255468534480
20.4795165924928888	8.5985505998850069	21.9083468242121739
21.2510772981243861	10.0660736684168945	20.9884051295806060
24.5977391111953736	5.3289185448381273	19.2417591940826860
26.9100041260297438	13.3358229247544031	17.8800264307997381
24.1593592617396808	6.5993764561869650	20.1666855762992263
29.3068442209189115	8.5197231609870681	26.3787054492243804
29.1245168487719326	5.5584993793571842	23.2392300450067530
28.1577697932127009	6.9619576350565655	18.6266531696882964
25.9506590474695962	6.9328257002523257	19.2685372168839599
27.7781005759549977	12.8253432099984259	20.7707664724252155
31.9449135042416152	6.7066589992391155	20.7860467815753864
28.9910866077524147	12.1475985086239948	19.1255052773413894
26.6857452002006390	10.8525546791590894	23.9244906903509396
25.4541727438691190	9.6652632158301515	23.9441898362938161
31.9652114579604714	8.4270330782809655	21.9554889501814507
26.6808309887371990	12.8378311579616078	24.2848813342665082
24.1523402320993270	5.0860819292947355	24.0638540142701380
32.7063651725351150	11.5672509096087150	20.3363315702655072
27.6694983503874674	6.1147338846057764	22.1941042338625358
30.0797122981690315	9.7939928272861039	21.8452813454039969
28.8322428295936959	11.6160099679410997	21.1010619146026421
24.8607644596260222	9.6435427476274516	25.0742212454282623
28.5690073195323535	12.6670617282398563	21.7120956652242469
24.2697638816241543	9.4275075331331593	23.3113574730990933
26.6057048661396998	9.7334844794437405	24.4746534995567622
27.3964946295280747	11.8260630294096476	24.2852416813019936
29.3473993033295173	12.6774311115526057	25.2501869782716923
28.6468456160957743	7.4823142884378289	17.6845898344420718
25.6754012517664236	10.6647668982110186	23.2477927125809352
28.2667104027344074	11.9532878905005564	20.0683443543734370
27.0507519346581482	7.2477444328807534	18.8842753584133582
37.0671754090191072	10.7027713932098827	24.0317393499911240
34.6281510048489949	10.5158223412531733	20.8688943505453999
36.5991123568653478	8.7861335435974066	22.7900828639528932
36.9653708076876768	10.1670371485825157	21.4231037138221261
36.4045163365997837	9.2682319157720752	24.6631021795627454
33.9126958062805670	5.7103144617356474	18.6389997680302919
33.5492730229758891	6.8328357790388585	21.1885017945288325
35.0420250242153344	7.9897935836751248	20.2724259813020034
34.2799275860675721	11.9298573873123974	19.9837771892516614
35.3158846608822330	9.9758288237840329	19.0533333987108300
34.2650232999593882	8.3428588998198467	24.2432533898763296
35.4330163999090502	5.9910660746383249	20.9398828382076410
31.3645656354645865	6.5190444332433906	24.6653219908194252
37.1969763362967427	9.5613385404657425	23.6018618567954128
34.7075283534849532	6.9508908507390341	20.7832182194008404
30.9970073949367482	9.0696784484325903	21.9014430660736785
35.8451358376520801	10.1558873518435107	17.9522799496972922
36.1051731776500802	9.5146875503467925	21.9372312376447347
35.0258255491430646	10.9132290849300784	19.8087045308741416
33.6096157703842238	11.1335467498504226	20.9568030775308429
34.9769292325119210	8.9423098861936445	19.6019759451584008
36.7039708366093720	7.6471905562160805	23.1610741808888925
36.1222421160177589	12.9373194229170725	21.5163376342712347
29.4593755155058012	10.7526721843798345	21.6044866840885348
32.5545786602031981	7.5498480222467332	21.4113026506451085
33.0463650962126394	5.6705822784102144	24.0284606492536206
38.3701708494240847	9.3527408192350237	23.2543303149890548
39.2434765009628066	7.4756823914894408	22.5827304405111313
38.5674921578997996	11.8418040208015878	21.4912666893875581
38.6439817609403775	8.8138880306159315	21.2963248313602769
42.9865903836676466	7.3303422180362503	19.9313088577343756
39.5476437109564074	7.3944561150738650	19.5635952567863391
42.2868438088834679	11.3089185748724557	19.1999733382779816
38.6150631224050613	10.3799687815245036	20.4247049128467388
41.3447438877218829	6.3236214172050378	20.5153492042678991
39.7238603554508103	9.1299225140782436	19.9560087552139720
37.8971199810212340	6.7958724881411516	18.1903776050692123
40.0110426146290550	9.8413526039938084	22.1687993633991027
42.3458480579445933	9.5702620629687196	21.8921288779656749
38.0703757864620869	8.8721536335339231	19.7219471048474873
41.1753569703003848	9.5600387788630403	22.1380836320221412
42.3957188821307795	8.3914970660557646	21.4379809754616915
37.7099762419379019	9.5067614020267008	20.7231965690518614
38.5296902604289997	8.4721727548264081	22.4328025558979398
38.8985523133922939	8.1666908375843779	20.2815338635650910
37.4822655217767959	11.2788343820147112	21.3901743154800990
42.3659225831511108	7.2656879110440462	18.8724972816256482
38.4009055726138442	13.2320578875348200	24.1070710563098984
40.8305773639693683	12.0516051888286029	25.0716562377357768
39.5135305900902907	9.7501936611343378	21.0365218854280798
40.3140322681305108	7.6614572358119322	22.0710559748811619
39.2814467647793819	10.0976425269539138	23.0703848198693180
38.8128841266841462	9.7768187386867087	19.3022141459573362
39.0276906466064446	11.5737663282560721	20.3412021757149830
38.6828128132925571	6.6225835449320449	23.2496772729376993
4.7584635210705013	15.7525440583457836	22.8867119122314548
5.2513582345473395	16.5598041538283489	20.7270577568722452
4.3177569504397963	16.0131414746027723	18.5750563516118135
3.7268545756303615	17.3133526535153628	24.1064926776258410
4.6850223167832530	14.6470460777392564	21.6941415977477519
2.8935071884914105	13.9315533078503329	22.5095239832785836
3.4831887487488280	17.0991474996499946	19.4560260515947547
0.1704571122964424	18.9133890307029411	20.2657518260674223
0.8580349225311580	14.1512674983012197	21.7114734164984675
5.7838899083905639	19.2331396346746217	17.1804083839527273
2.0231766360063226	14.2113103956266169	21.7594789849257850
2.3679629018999524	15.2870604133202157	24.3935177749084033
3.8890836287708548	14.7163401827110789	22.6186011398511972
4.3463114081124017	18.3439087189799253	24.1590017771138008
6.0313893156816683	17.4923209516616609	21.0858714214065159
5.2706670870011525	15.8448692308133179	17.8282678995212756
3.1796960178480806	16.3744772954135804	18.4646993819507337
0.0809136172702833	14.9201487300212285	17.2935968010173227
6.2950109631750069	15.4189736044334538	23.4197622363411142
4.0308149175664827	16.1287662762093404	23.8712769659014477
4.5476190630297193	16.5305956734029067	19.7095424335243266
2.6071200918191484	17.8801494802906902	19.2625134018132407
2.7308291521637336	13.5543016958193476	23.6639444175383993
5.0351163977044529	15.7980965054695890	21.6691667465668658
1.0395360284017758	16.9622986525467034	18.0482682932298140
3.0115414662642896	17.2756259962644307	25.1079711997646839
9.5713742944155111	12.8944975346347253	18.4274949221719666
8.6266868960918330	16.2832517388232887	21.2359618346495260
10.1718507879107918	15.8234266280980229	20.6248668369543680
10.2119736181131486	17.5008960485791185	21.6630736481333734
10.1576738106754849	14.9790407385079902	22.0390843320707432
6.1607371953777905	15.9296559871263792	18.6132157575379047
6.8325575143632271	12.6875271003403096	21.3548670189896548
10.5667683395908032	13.8509388946466618	23.0862505222463454
13.2969815385320125	15.9171808648474240	22.2892260384762366
9.0169841884900066	14.3646104999605662	23.8575759535565410
11.1101227333713783	16.0757411134462060	22.8988191675087229
10.8853666627826389	14.3544646716712734	19.0746191006374417
7.3781604020635561	15.5201879889616290	22.8927540810949068
9.5293536383816502	11.7281567873425807	19.7674588129420599
8.3997511036510737	14.3963905852563308	21.7928731340314386
11.7529066640216087	15.2348504362411621	20.9967891615377908
11.6522082873550605	17.7168925063828446	23.4048500130298258
6.6910740982661876	16.4665622183197726	19.4976745761870447
10.9918928846502855	15.0999971212297091	20.0344495376587517
9.6406997679060780	13.3421125903042928	23.6469324895803368
10.5826788016816487	17.5740966499917270	22.8391460681948537
7.8580255374187242	13.3846830037147271	21.4623742691583388
10.5958953556285049	13.8419509799985097	21.8507027147364745
9.2123876813068701	19.3949874189549121	20.1858338649200668
8.5462033783688778	18.7049952983841195	23.4429061836836965
10.9456963394417297	15.9004431810888107	21.6750107387367486
9.5508185797049308	12.2366981774979156	20.8604162880493860
9.5991911585036256	16.9193716952367801	20.7764397922577295
10.4690835069462711	15.0755384997768900	23.2327267734900325
7.8377301379566537	17.8096635796061697	20.8237786323113703
13.5422329597890290	13.4841468456717859	24.3735295457759200
9.2177927819937544	15.1914992088841387	21.2704611266618819
8.3116732022649433	14.7391259759888342	22.9496516277244353
12.2905719366832358	12.0582562244052784	19.4908785817225123
7.6976457316693763	16.3118681216797476	22.0130244781778934
13.6439632295119324	14.1400609631281640	21.4214521785791447
15.0485390256541702	12.7624171701006439	22.1749520902714323
17.6225105263683979	15.3874825813584941	21.2403531003122410
13.1096037423746612	17.4266630101569788	18.9630186068095270
16.8341442906671048	12.7383538375909886	20.6255787194949640
18.3702330196767925	16.4474320321244001	24.6950352300009257
12.8119752291191258	16.0135186086176766	24.1963533647795259
13.4798337604748966	17.3473069864449734	20.5794483680827476
16.7994798979813709	16.4984719161995557	22.3463793625326268
15.1312508586294125	13.3369321066315276	20.2009454705364746
13.7481674319856992	14.1495776919062308	23.4060126862457949
17.5501696723591465	14.4824804306735526	23.4813601293476033
17.1021047180291994	14.2932615601422466	19.6639386725501808
17.5414582401000843	16.6841273397969267	20.1486320410475095
14.7230803978116356	17.5237600675602998	22.2403251914851481
12.5540870980244588	17.9321755770196845	19.8957090299076995
14.1972906376742127	13.6388111562045218	22.3818284637142675
15.3972044302323017	18.6846638385766006	20.2472923812451029
17.7214196903393386	13.6645222871284364	18.7662479378863303
18.0851860244700973	17.7401965495258764	19.9772260905888004
14.7323921534200917	18.6754991020808276	22.6438054178834207
13.4570744282143782	15.3433848923522884	23.3804950779339329
17.2601149478911111	14.0222244859395513	24.5632822459254427
17.2957506324745331	15.4130086865227618	22.7021321849188418
12.0844869687738861	16.5928364316960248	23.4007416460969146
13.7439249034330917	16.9528980836363381	21.7080173864447694
17.5031460739402895	13.7710343394089954	20.7298092775722900
17.7315300745671038	15.7903305815988144	25.4235472341705311
18.9451958626840202	17.5443211763624980	28.0989266059141691
17.3180255763028725	15.4940861532499081	20.0557484999817994
14.1587091553849085	17.2166290663196548	19.5275478967558236
12.8507441335254402	15.0726073962942237	21.4757997307406718
15.0414807264454158	18.3219571773619130	18.1806817940662029
15.6852302046053698	12.7647265240484113	21.1267865760366824
17.6706403328021437	16.6848434443597142	21.4414011053184943
15.7859355181963235	17.0631734213295445	22.5531130673343938
16.0215402640723745	13.5681891960817946	19.4047064530000206
13.9260818944540770	13.4954752839049412	20.4336454192830672
24.6608581936111406	16.6458614182080282	22.8625924231587661
18.7792323032475501	11.6607104815129983	24.0284563259389934
18.6608318033359808	14.0567120956059366	20.7894329223141305
19.3380455978823207	14.0718034048169649	22.2261423218950434
23.1264338718808240	15.6024377845401112	23.6722060265661121
22.9424243268427794	14.8175360247534069	21.6569592107426843
18.4703179915767635	17.6636797052084411	21.1262210470970189
23.2736965617776796	14.6641311684850706	19.4896603307535408
20.8176797045744593	13.5803362627180064	19.1352419063721833
18.7509112185091809	14.2403217271352531	23.2710471171178206
23.5123287985709766	13.0778593650268835	24.3819182138352915
19.7415524843847052	12.9633319703469780	19.3344497749686433
24.0311806011373790	14.8659804180476023	18.6017880484851403
23.4926136806864072	16.6080311952559114	23.0839907477645205
22.5311573726887211	15.1540539979134579	24.6229109687533914
25.0688433225950789	14.6071292852853247	24.8085592327434590
18.7852322941017462	11.8949172466759627	18.1022366178098650
21.8492039023473339	13.0028938032091137	19.4743402351599464
20.6566183471833789	14.6100055499269050	23.6852415797636588
19.7307830298214455	19.3962793931605191	23.4782120051011844
18.7616431886878452	15.0234337408833696	21.5877925487131179
23.5851058269737770	14.7984712969520444	20.6577961498851330
21.0247002086795156	12.7487008697268340	17.7752854265820730
21.0764506878372124	14.7322459776121839	18.8881147770883722
22.3938816477287652	18.9241212569095900	17.8540470359243493
22.6094664189420271	14.9179673718865544	22.7832608581173233
19.5279411309609081	17.8766242761008449	21.7105439840150183
18.9223697874491990	16.0158687229653474	23.7277974504637115
19.4977282217466126	13.3438886975554389	21.2864863529463726
21.7257234238930685	17.5073229416163691	21.9161380883653436
25.1981822350291651	18.6844351772797097	24.3889062152309002
25.6161705487849432	18.3589194205942974	23.2829247560770689
27.2385016927140846	14.6631726040212840	23.4423107628803393
27.3555617050698423	16.8533153855598918	23.8617614283549848
24.8169631982270751	14.8088203203307049	20.7452010334990611
26.6018805002546976	14.2110746381581254	19.6747368971706322
28.5869115068018793	16.5630785173123378	18.5050282458783677
30.0826068787692513	13.6735373215510787	18.5226049427167538
28.3253158818099635	14.7556794341575959	18.8443600221781189
28.6772215805886646	17.4330207228406913	21.1640934995298942
30.2021023657184600	14.9104687877788962	23.4929433721471348
26.5366550212827796	14.4230287736738774	21.5891656327550443
28.6223568276430633	14.9169828646948659	22.0084076771068098
28.3641536118614574	17.8342742036496809	22.7628579309280283
29.6559518129334343	16.9364961784595067	23.2213565268474582
26.5696158166783931	17.5496946538021277	22.2285170760433957
27.4287086403134275	15.0089833490706823	25.0779378534549124
29.2881120286825087	13.2231389211448551	22.4474929963735583
26.9418571631852863	13.6842399709364742	20.7150260109360431
26.8382903315741643	17.8974020844802588	23.4258404510789333
27.4992605992274655	14.6978850114214712	22.2861565309974345
25.3491570191138571	16.6142302569025482	24.6991686718041734
25.4959202717735458	12.7487327298219046	24.2270123759992480
29.1785071340494078	18.3024200473603216	20.5234090332010979
29.4966463884416896	17.5958615871409023	22.1853535177783314
28.5390027939799431	16.9978248517032178	23.6650428526123164
25.3842138362956327	17.4625639004089521	22.4435137393235316
26.9583828011435678	15.7068739254721521	23.9794683839064042
27.2734337187343492	13.9215068362201233	24.3948058786138198
28.1840384493029141	15.8380812134228677	19.3375831696266083
25.4166598260521894	14.8105431495121795	21.7769848999838587
29.4899279748108967	14.3767150852585139	22.6209588356439717
29.9224039198058129	12.8540177308136983	19.3395024529708373
29.4393281209579634	14.6887186728900314	18.3360238976068715
25.5642952079413917	14.8271880230215398	19.7965796857723326
30.3111506303515839	18.4674055010558895	24.2297958027695586
30.1042007883505178	14.3675547835881723	24.5766771626263498
31.4696699372333626	18.1517371441443345	23.9985259321127700
31.4877242337916350	16.5834131837860959	22.7467888164193539
31.6111914288353866	18.4357583788612445	19.0273714854615470
35.9547082841366858	15.8850316041203712	21.4043815274986287
32.4758696060390974	12.3782277693486513	25.8834878779756430
34.1938405832396342	17.1233184005468040	21.7969713517019095
34.0525663900795621	15.1868080910190226	20.6691973129361770
32.6698929762375840	17.2371063874804129	20.7535194369540896
35.2491782166317904	17.1063452345215374	23.1527375479137447
32.7204501996201529	17.8250279531592639	22.7656119118715878
34.6394084078995732	13.9622428449920761	19.4955408234488026
35.2966569786518676	13.6772006262173971	21.1138020234140207
33.0415639920214446	15.7659494647680987	19.5242076271593739
33.1679985046968255	12.0210928285861964	19.3460823204813153
33.8842513017349134	17.1865522144318277	23.0428709476315952
34.5286605812951990	13.0924179241661349	20.3346590682329236
35.1246228581877844	14.9446524212036369	21.1647639890483497
33.2359400881804490	16.0954669490874664	20.6662790946050485
32.2560135296673351	17.6126120810405027	19.6524066688757841
32.1159734521935363	17.1017543604785835	23.7297306688979148
33.7510275278781222	17.8953896451440606	20.9996748990666262
30.4783219086001864	16.0587925748650662	23.1522021618057359
36.1986267237021480	17.1448032580242149	23.8837212401182661
35.3587065758012713	16.8108481078596022	21.9758934899898009
32.1303666902954461	17.1897052947778448	21.9059217025420843
33.8099879268380903	14.8411905761078273	19.5098320910774667
40.5935983061441874	17.5052713888884419	20.5059344026148302
36.8392552695836812	12.2162863347119295	20.9226363765188950
40.6947893745980664	17.4407721852720066	22.5098029245786080
38.2586953541487134	11.9856136885753468	19.4139621812986576
41.6344217736647977	18.6989579002046469	19.0922681386218329
38.2804473787809840	17.1000003487590142	21.0805417157524566
42.2116930219845159	18.1550102101285660	22.0475890835382700
40.2257765247097154	11.7107682915569846	20.2514656766118932
37.7302805733868354	12.5137418775491103	24.8098744439743264
42.0127302782681724	13.1372477679718216	22.6018099667910057
40.3455788644430982	18.9045552396063776	22.9504086031545569
39.2589508087189643	13.0128041976106577	23.2423299829054493
41.2567991573278050	11.5019603357324609	24.1142577652440728
39.1606524604655490	14.1267972857772364	24.4301084638304147
36.8803184722601287	17.7218177277602358	21.6410545691497411
39.6044886338480069	17.8944443808935425	22.8008167894240827
40.6809932908969643	17.9446512850845927	19.3391280160705747
37.9254622233203165	18.2954695498658886	21.4010263128126255
39.2626958829218466	12.5031247419945490	22.1736785312418476
37.1458764874497120	16.6086190268863128	21.2896333400941984
37.1975885454839528	12.4295210331070098	19.7730532603222606
35.7594893321354803	13.9782799011618604	19.1242459852822684
41.6469730630079553	12.4565138467939498	23.4944582248252622
41.3381425954690869	17.4468061033201529	21.4657317821909679
42.7990384460865556	13.8004784319949394	22.0531058932044672
40.1233745060402072	13.6853474484399822	23.8389227890922548
39.4400577648497119	17.3907003967435081	20.8946242681620653
41.4425747220638172	18.2297940141188555	23.0831172307324266
41.2790509949387285	11.6158566147637003	19.7332829533870040
5.0494403738006595	22.4241288638485905	18.1478162460373618
2.8965112800746549	22.9276924058663241	18.4677597142189178
1.2849958964030284	18.9427299480290827	22.1315311807559532
5.9943235247247806	18.4536748289756609	21.8064891687717903
0.4653130613263477	22.8587110962997748	18.9254804142292592
1.9188017061579912	23.2110560806688895	22.9325406600147872
5.5429717952054087	23.6200089835431726	23.2048633157014130
4.2155576874592349	23.9088234388683496	18.5592414378741672
41.5878638345322500	22.7129919127777491	23.1441933448439983
0.5869946130232566	20.0192651389415985	24.0819583516404094
2.4210870972671059	21.6341700978975524	22.0086594524939834
1.4743443017420599	22.0667503072079789	24.7761721217840361
42.1919484252761450	20.8002973585749054	20.7969829582432233
1.5239086747737738	24.1851378414003868	19.5369146265680342
2.8882038617051218	20.2057502732934609	19.1196724273826035
4.8231623668903021	25.1631712539570813	22.3470617573977002
5.1245480295781265	25.2059377414724999	20.1971830791764120
3.9028901147134012	22.4349760293039502	22.0475858570432095
3.9101584197823125	18.5757747256242141	25.2963760103591326
3.0622425456668378	25.1371228421705837	21.0556806104506542
3.1477520392426914	20.0195262813521850	22.4945173864681678
5.3906464774014298	18.8027336638021332	24.5885034774763724
3.9972189333786177	21.9740805152294989	19.9094893261181127
0.3632411629211064	20.5374713862606875	22.2265433651655648
1.3055198306906584	21.2473547118826680	21.9578248672066536
2.4904479815679998	19.0967942633136438	22.2123901922812763
0.2617367481572062	18.5539250445041759	21.4591731255262843
4.7911568525690225	22.6745085139902862	22.8828881081009250
0.3679664863692774	24.4124117500673812	24.7748023170987004
0.4747804683254944	18.9269894459184798	17.3746920681048564
2.7389714160062613	22.7979986753218284	22.2071255914852905
3.5125532371723676	20.9047445912420962	19.8223921479605387
4.2281061144081917	24.8036598900635212	21.2992184191518952
3.5234386025567410	21.1703323086187787	22.5086676216330268
4.2211256399573065	22.6152861251499608	20.8985212634051187
2.0251697954601964	20.1816356065573856	18.3394324736253189
1.3392207126467099	22.9565157315317272	23.9185216970311245
4.0376888511270783	22.6477016939632492	18.8710013902694911
5.8727586590313958	23.8453552056208515	20.9852844906462153
7.2180040611895357	18.5968222262535363	23.8069061876829302
11.1095907104305667	23.0421443917971445	20.0603222335582423
8.9754600363273536	18.2560557965597887	20.6156306623334267
9.4170058185812326	20.0090604683554290	21.3093417607490565
8.9314837955800801	25.2242378732182502	23.6315183030763869
6.8976468299810723	17.4133408867095341	20.1637900376322108
9.6187366594606516	18.3310866449519843	23.0090819287000379
10.1794401718016925	24.4018265894501987	23.1448581880482749
7.7400915596007138	24.5293525931700209	22.7619226189207708
8.8221739093711875	24.1381414904204341	20.8590363497360762
8.1917755335858669	18.7831441263303454	22.1647997272351098
7.1482063186745437	17.3431679768600944	21.7719607148109304
11.3554187895326208	24.0743255088659609	21.3439051376213662
10.1033924374239952	19.4306844216175634	17.4467602528768460
12.3716457771221044	24.5825161949555486	22.6602243818622391
4.6825464258805969	23.7042191120494827	20.9908840500232010
8.1539434950105889	19.9286035111036313	23.2883355134524379
11.1522220865598278	21.6192931890900972	21.5974703649944715
6.7647208800556466	23.4252391664904671	21.7039906600031181
8.9687532114355673	24.5862792078699144	18.4906166387574444
9.2245996057009290	19.9271659939787078	19.0906477002825810
8.9827972671644254	24.2951228574580043	22.7930524282341089
8.4302498514932989	19.9843192287476334	22.1085726374619860
11.1199657247637145	22.8198403689319065	21.2633713756517473
7.6848268523068457	24.0476242790130463	21.1811958366882607
9.3647275416323712	18.4080260663392501	21.8062491703159615
6.9938698573212852	18.3753068419065393	22.4663813773601220
7.1858898772795401	19.8330432687091438	23.9866966059939735
6.7204948759586882	23.7970903910227243	22.8396229687641785
10.3934219515330053	20.6935815476770912	21.5694942716519336
12.5036488695936345	22.9219218716233968	19.9640731691291329
12.5303558857628534	19.0634795881739656	19.4040640484470899
15.0977881955915567	17.9675821924708323	19.3480171954026900
16.1919364021678689	19.5311670725714244	20.6294909255457242
17.7443350809673426	21.7388984087248076	22.4703450655016894
15.7837086285298440	18.7044542940934981	23.6354307205873049
18.0427274580851496	24.7952076501207586	19.8868061833485292
11.9977486888116385	22.3617190658542064	17.0152199077398976
12.5573181328189047	23.6254612727915330	18.9824372245716475
13.1217407634205436	21.2736609419505740	22.6536792355252921
15.1742825350148038	21.3465063483487114	19.9721733317755792
14.5544460669330036	19.5162313050345304	20.4343495290260329
17.1368988733424104	23.3526895522997648	20.2618999891981382
17.0684304832720208	24.0964740500765977	22.1196578562239949
14.6723472313916474	21.1863680657418811	21.5202705432414376
17.8280211588189879	19.2853469887704172	19.3533968344870289
17.2822709540737485	24.1528863493404629	24.0757200810407603
13.2490927102161233	21.9650300175394477	19.9317115344463218
13.6984242043251463	22.5333451618898088	25.1960972129841423
12.3963054564466013	22.8137064734995683	21.2406350577059158
15.8569179485960294	24.1870788594172765	20.7656411133944836
13.6361080377214119	20.4823847862709805	18.9487008894676308
13.7831825815380284	24.4623278029786952	21.7909740088506396
14.4866430609849548	25.3851192160027495	23.4694689569967458
18.1939781168695554	22.6540794497119542	19.2727761331521243
14.5995350603197505	19.7801158546099494	23.0778260044764671
15.4414149231293933	26.0327472464730363	18.1747057038305080
18.7593292815243018	20.4953438907102061	22.4289437296797729
15.8041560399963998	21.3215105122779569	25.4466785132083473
15.3215878413065774	20.4215305922374100	20.8130229057356075
13.5758347987035499	19.5898414174295858	19.7558820024954471
14.1925599333741683	20.7859497290495092	22.5459353625100398
15.1752860507885607	19.6766161327297873	24.1321622047675355
17.0107823663369366	22.5608434173484760	19.3498370398255659
12.6748054692060705	23.9379005324740639	21.6231879576266763
14.7484822162902045	20.9703445175412888	18.9183246300777022
14.2324170073418550	21.8417543156575036	20.6031342100577639
12.7777247845924968	21.3035733256579967	19.0358830758988518
14.8014250870855832	24.4505723348992987	21.2052226326801723
15.1693834763816415	20.4592591641500761	17.1323104511778013
16.5901602650380759	23.3276492459631903	21.3651727105314784
12.4111018683368091	21.7215204260643802	21.8404210549732127
16.9201284277993800	18.9168248205794889	23.9418202763749228
16.4711045031474050	23.3632205620788653	24.5188629809227585
12.3188525544537253	19.4275668883132937	18.2146060356093145
17.3188154143914836	19.6782779426320467	20.3477800578386088
22.4835491996703425	19.5618100498420873	24.8532020167513110
19.1020842788056910	20.7434577459727905	20.7581891589650560
24.3291438120055190	21.1826532425034024	20.6509763282880456
22.6742270426599468	17.2954221954822955	22.5542398692176427
22.7623689937322986	22.2792363615641875	20.2182163077378831
19.6219813075738863	18.9275710006461537	22.3683918050330846
23.5734123233184683	20.5835516428350509	19.3034062449748447
19.8146049014459926	23.6583068185124823	22.8655608915033284
21.6673346287258113	23.1495687761150499	23.8952366353920844
20.0715707065460371	22.2751937761622330	19.4983569605733500
19.4184775620256076	23.7985673333165408	19.4820993841701124
22.9571913908407765	23.5387372542233138	21.9047580916761753
20.6578324241411693	17.6204556087805599	21.4542222809958112
24.4445934774638722	25.2144631307857168	21.8492622262042957
21.0803036853475270	23.5724404174907853	21.0532580275222259
25.9962145841731953	24.4583348180738867	23.3182750277077311
18.3608132457484530	23.5436046642974155	20.1371620212230127
22.3772157750549887	23.5494386156388593	22.9634036374135384
17.8659015412451936	19.9606270819924738	18.3567939274684164
20.6541392249398221	18.3924393128540409	17.0981850853854063
17.8618955676192428	20.8110795897201477	23.2424112533839491
19.3382213316869631	19.8333348408698136	21.6098772081849759
19.5421120917311946	21.1782744267511198	19.6236037585192591
23.1160253377302460	21.1130670856813154	20.3017362240000310
20.4019038208416958	23.2788355102597677	20.0779898673948018
23.4359744816762046	22.5704761650169310	19.1849045778064102
20.5525238209105261	22.9595379108626112	23.5080281553791330
18.5314305470507072	21.4407502504074863	21.6407829847175641
21.4679800330391686	24.2929588953667874	24.3968966363107782
18.7813472843804696	24.0488898012579249	23.3808090369622832
22.2919975205207308	23.1551061774720921	20.9347191637998620
26.7052705614629069	24.1675346305832086	20.9151977515862200
29.9683917338211216	21.1621910993498581	19.1761688870402303
25.1047341660257111	23.5322350891052778	22.0571375009610939
25.3191413892765986	22.2465175434157629	23.5723534213458201
27.2562203986858798	19.0682506870702753	23.5856653732345691
29.5168517733205213	19.0615450070117340	19.6662183643234663
28.4484817484096943	21.0690683766805584	19.9915046568583747
27.0420682803512200	22.5397029969717373	21.1598255920284188
25.6833075649460518	19.8834473554646181	24.0361845467981361
29.3641230211635076	22.3758879883310975	25.0499110472524968
28.5957657256480893	22.6583786091692616	20.4233733590373809
23.4905696126614743	23.6990970129212428	18.8756420186519804
25.3262188919063647	20.5617721492046428	22.5407061012634244
29.1559910599638812	18.8883023344188103	24.2100624713074346
29.1784425923558359	17.0605755442591445	17.6318097715520068
25.3540942427443632	23.3842735341180088	23.2374169160917354
27.4574376097343951	21.1558002946738384	17.2982272004045683
29.1264494225563979	24.4900498243614528	19.6683635297223560
30.6004610582122716	19.5045137414792684	21.5647468919475891
24.8531677562715458	21.2546422889959352	21.7030286824825325
29.3133136380709622	20.2506083403921018	19.9079453492683314
29.1033206715199704	22.0993409203031206	19.4307739565363740
25.7966073893967618	19.4800636934565645	22.8240536909489116
27.7836633731141980	23.5253895125667576	20.7282287211409404
30.5263004359220815	22.2427002364645681	24.7067986298444708
25.3183096160603185	21.0641441398757827	23.6715571191005019
24.0543665371388933	24.0740674488266819	21.7344974136287696
26.0948519276175759	23.2682579693092890	21.4093807435455865
30.7441625724757728	19.1076019988355306	19.6417684263916250
24.6884493944807915	21.0589800836256416	19.4890231488977754
28.3821035593142064	23.7380840305381184	18.1076385072363948
30.3118028635462693	20.5928881133688755	18.1313802385551135
27.8733888999946480	21.7297142936659675	20.8063882146088481
27.6829646346320359	17.3863910276378526	21.8250372190497401
31.0184980538815154	20.9259174839631612	19.7989179327242368
28.4186737998047931	18.9346277970083854	23.2588247040765665
26.8463739851148233	19.8432925290875062	24.4113515398641781
31.4013432265379606	25.2957684497514812	23.9948059166076071
33.5017020215140491	23.0853342108748478	22.8183960469980960
36.7804733382406823	20.6630945295691042	20.9314053425166051
36.2275597597550458	19.2638958149782482	19.2349215453056104
30.5010390676919236	20.0542249308303084	20.4709028253737202
29.8745138910116594	18.5419158706290119	21.4997808034409879
31.1527407481363454	20.0775633000318976	18.8966404134081891
32.0531667637586750	23.9495442821456770	21.2267928392360723
36.5517780434172650	21.4243208499091580	22.5839348125030490
35.7674758689376802	23.1406827235764680	23.3044047426324781
33.4723410017729321	25.3057321939852606	20.8615235894954338
37.1087069713655353	25.1421753498909446	20.6218519984665605
32.1918333730256094	23.6337863278016620	23.4738789328002362
35.1910756010289845	21.8773531262545617	18.0395215868761802
32.9786907705958967	26.2959985450735765	24.1676702454108856
31.5406570647203672	19.4359628247342222	22.2636737058755685
36.8867066759421078	22.9698150406729660	18.6310995638145904
32.5435733303142243	23.6514866519974625	22.3016401145929137
34.6609567791778233	23.1440553839722121	22.8647240673116094
36.3150837833547868	20.4376326475425145	22.0170088254883858
35.1232680479990975	18.8470364954654563	19.4397023852823168
33.0700295042829850	22.9679322616203976	23.9741686806891678
30.9773474395598036	24.6187121584815642	18.9353404902424352
32.0627449183649915	18.8074538342121400	23.1085773684449478
41.4807297156890442	20.5667202268759794	23.0833153586738682
39.2822354820447330	18.3628713613483328	21.6994298620788406
42.3915173651505413	20.6403594637651651	19.0643062002268842
0.2334452113477882	23.3984880863120850	24.1166403693047684
38.4969766165319598	24.3038539327193206	24.2253537073652474
39.4129491133188026	24.1848723729382336	22.4687965797600633
36.7333142623946856	22.9593642368923128	21.3817348775270695
40.1036603389938620	24.3602414016456024	20.0977942374478538
41.0637812621511387	24.1359718592508443	21.5439794744031019
40.4984391597599398	20.5581753310729702	19.3032899988629794
42.3886098640899576	24.6896554740268321	19.8746834123094374
40.8954805477225065	20.1151094746781602	21.3978264836434882
38.2301697441669930	21.5922809382943548	20.8427827366884060
37.7879934772991106	19.3983736124747566	20.8969906865146946
42.8013664597920922	18.3505532031811214	19.2139550178369198
35.8328399604449856	23.3970881038658689	24.4830491000277881
40.2154415742726883	19.2051525268301546	21.7395238782673417
38.9360412396711197	23.6089892422115142	23.3777668571835875
38.2123295829136111	20.4681823459204573	21.1786414653452049
39.4785427780663341	21.0077407323085481	18.8587485377435087
37.0650495089821277	21.8936418725387227	20.8234354848971748
36.8382973304818506	19.6720578424718653	20.1939331764802752
41.8507710389240231	21.5959075785690153	23.5829427760793706
0.7889748430481619	19.6789073428947034	22.9638004573383370
41.0412395109257844	20.7580569784476410	20.4001538001703402
42.8559927433504200	20.0929513818218481	20.0852739373592684
41.4006175309242863	19.8572191626448991	18.8151600860390076
0.7037856901869752	21.1567295474666608	24.5686939760507279
42.8892949842288687	21.7757832020785855	18.7909677789895646
41.3251240115286933	23.0942873434576477	22.0541787354288488
42.0771621848381585	23.5321494308105628	23.8871097220828155
42.4279513774121000	19.8638916646157355	24.3794905291693702
42.0389859458785153	20.4287615400578559	21.9684732504554638
39.7404391039654215	24.2615717534752093	21.2660519012455644
40.6520653867675108	19.8593724060723034	23.6409256988906122
36.5191034771572376	22.5967292410285872	22.5336765919296980
5.8585417791545522	26.6467731145757369	23.1640580746120115
41.9999162548132645	27.5348584902939955	20.1831552197537825
1.9617225505969023	26.6130934252588425	22.4050210793976454
3.6103510279870519	27.2837907911670889	18.1689525622395536
3.8365985692150866	25.7669276950660482	18.7455078407318787
3.4010682495008631	30.6464046188578720	19.6171101814607844
1.6315156702450171	25.6151094392639216	24.6382946088871861
2.4350871797108420	26.2079084296122957	20.1114703522368785
2.5048213724099972	26.2081346963395205	21.3673896426150947
3.0960663748573252	26.6279266477633350	19.1817647901463779
5.5804629976222655	26.0536721241726958	22.1705122707856752
4.9859935132551021	24.6789034967891112	23.4660020024602254
1.8035067639838991	26.0216973546767925	23.4778680803371103
0.3138249867755286	24.0112899318009063	19.5190124213827332
2.6634050511107690	29.8643866964816205	25.3539458667523618
2.3215232937382777	24.9484403495871554	20.0553830827539237
4.5529118993304980	30.4561191682373220	19.4071125432445406
1.7280067670644317	23.3161211546092488	18.6296047711764317
1.4683313799190962	27.7177974296446834	22.8770179530025111
7.3559854006434406	27.1792200603407430	20.6087518231675162
8.7181842546772792	31.0684962574522210	22.7141324147304466
10.9030597016966713	28.3127033416269924	23.0761735319135113
8.8809931214495812	25.7794220221651287	19.5280106728281595
10.3416287958456508	24.8593226275505863	19.3617328527320041
6.2651407793835556	28.9411105195829492	19.5880755314739048
7.1873844306142942	28.3713670468333312	22.5955857856126343
6.7664627936040640	24.5638420734349801	20.5812501753969919
7.0571973973419375	30.0560665467496086	17.8701270089645341
10.6721891881340092	27.0830273755248676	19.3963928667700465
6.9190151551969974	30.4612999940186242	21.9756637419945697
12.4158572872970119	29.6352801789038836	23.5031224537716241
7.8554309194625427	26.9243866481356484	23.0470166252400546
5.6187871508804550	30.7309577919473504	19.0016121579539750
10.9684341381968977	28.7040963962765048	20.7251543669403979
7.2351124761471466	25.8276633175312611	19.2598265212733750
9.1293265652176689	28.8504299529379153	22.8670831544290891
10.1150946138801032	29.9063142463401199	21.6451603645513906
10.4023588412074943	29.3672658929048502	19.3723347387719826
12.2389618032897474	28.7686737373870045	22.1302928520719533
11.0774609798306596	24.2725571165442702	20.1414550296147254
6.7701397521261359	29.3228275537242773	22.0501198721757348
9.9500397896303365	28.6354906324648049	23.7368724702774081
6.2828234193992101	25.3735496583927862	19.8516307379791819
7.9718168034481254	26.2893735961223207	20.1456925347818974
5.3289159884248454	26.5700502898328743	24.2497878750567395
6.8288315319505726	28.0074420760334775	19.9820223752022095
7.9440079955915026	25.7312383025189249	23.1831301125998905
8.3577955434670859	27.9654566604765478	22.5828144562530220
10.8364192273548507	28.6825434295481045	21.9090576844759326
6.4671964747117237	29.8722688198483759	18.8702782912418705
10.0594157060433886	26.0928939829817956	19.4050855824450288
9.1585333121464441	29.9765921461144629	22.3690014904309535
9.9964708159036650	25.0946626587003401	24.1064574250649777
6.7610575376367850	27.4256600835625548	23.1912385217777590
11.1735864279098447	24.4876016203614668	22.4830902920756550
10.7513535734778927	28.2456164191139756	19.5979635323090449
17.7079904907509267	29.8132948802094049	23.7777702236324089
14.1805096236976205	30.0686117632272207	23.9837219030922562
17.6992976212478759	26.7880730397598690	22.3971460590245641
16.4729126661506413	25.8510799082774980	22.9986162849845996
15.5692317033989287	28.0105289660147143	20.2001223819006377
15.5451199175037633	26.7047591876356165	21.9007884306381726
16.5633937796966926	29.9064436472253909	19.2778021297016764
16.9666753789759817	26.2209630068113846	20.5163318467217053
16.3587638966579689	27.6669831138683975	18.8213118744382903
15.9975284697190627	29.2664359520571509	24.4014269025491686
14.0217939364284785	28.1445773694713282	20.9521743078169465
12.8704432344196569	28.2108148802459375	21.2824472449208173
16.2794794804758780	26.9667835481881966	19.8235477771514468
13.5272120478431770	24.8859419496104657	22.9240710104152967
14.4355176014925028	28.5945049376474500	19.8773688707995362
18.7961746121339139	26.9316305035904335	21.8933819113266921
17.8991831285075840	28.6157954827089540	23.7423512386487339
14.8263905052274261	29.3397818002205106	24.7198089132904109
12.3515907523876205	29.9607082817429315	22.3591856302212193
16.2925138494754620	28.7592649605953774	19.3783214986080381
17.7980324264606260	24.9633977239077574	24.7995121892662667
12.0459835906664612	28.4818900204072243	23.3626103583124447
17.3326869555285299	26.5672603907453464	23.5474439513896350
16.7914160374164183	24.6822741773869119	23.0910371980880385
15.0890083548575973	27.6230457709829054	21.2877136269433294
16.8266300208910273	24.6124760669494052	20.1438430167038085
16.7416752700763709	26.3231563741071568	21.7610405914678644
15.2838623840833598	26.1030293721237392	22.9294666891304146
23.1851192498803833	28.3256260203865864	19.7364458506402123
20.2007108435212110	26.8519760253551958	21.9326108640213171
19.2614704909857650	28.0229254737489164	22.4182498998731781
23.7021558378682684	27.1143947081559418	20.7820540052264704
20.2444841548762682	28.8788393964102283	18.3505842469197695
19.7446600596269981	27.4884553190259098	18.5129051169965919
19.0886043874896920	26.5717261971667078	20.7532878424226688
25.4812667363919196	26.4510818146678872	22.2106539325745018
22.2971724284240871	30.7967575529110853	22.3595392387442296
21.2861927946809928	27.2512929637391430	20.0706005883277463
19.2149838581837074	28.8473954408301516	20.2856572101239259
24.7226363958917581	31.0507312472805062	20.1866090647604217
19.4131324405238566	28.6618170995636632	21.4190483944014041
22.5036933980171021	27.4239247520224048	20.2933064967550294
20.3324542458563862	26.7805161294626757	20.7419222497168896
20.7731512333936301	31.7206621545387648	20.4274294623072734
19.4251185677149962	25.9030772781005787	24.5468860185986628
24.3522224125237727	26.3974441781030507	21.5659877698339670
20.6944533034076947	24.1868580855480175	22.1099835881020184
18.8806898403785368	24.7647766371390858	18.9283114702310478
20.1509541074640204	27.3442408261068586	23.0174128488762832
18.1620811961176969	25.9653526316993286	20.2802592411719758
22.7586123560563003	28.7860144537100631	18.7121784046282862
25.3629607499342988	28.0206694989168703	19.5680309063816580
30.5845933272969006	25.7017662196451795	18.3998614329706918
24.5357950666860631	27.4783793027352630	23.9871788299664743
26.8478743102309600	28.0282457435085774	22.0994928210578578
26.3156893948150952	27.2094723162430405	23.9977642555118571
27.9689273708411790	24.4814997944184043	19.9799083774240316
30.2932679240748755	24.4932855331970210	19.9825779141907631
28.9728869030181748	24.7521790747978585	18.4887353905375242
28.3645981536360665	27.8212005725555862	20.5723539273298179
28.2938685278947197	29.4018959530740531	21.7675162000680871
25.2552795907172438	26.5926713204267884	24.2985191404241441
29.0270275631176382	30.3890221421971489	21.5351990913950360
24.2798233616303705	27.8842148626667061	20.0391157971279412
27.2791782881750322	27.6120299105387907	21.0644396386373742
29.0825890509522758	28.5988252595212558	21.2554465433740702
26.7908793047340907	24.8191384261925876	19.9116050926183483
27.4114168781176240	29.0139881137543227	22.4481831390633886
26.0799677840125490	27.3355085404673375	22.7939021629437697
27.0486899159151335	24.3384947217071641	23.8866072333703698
25.5369383339868925	25.2107356499907986	22.4143903362809915
30.7321315355707902	30.0529189975939452	22.4480521685171439
26.2728717594275381	27.8403106306568979	18.8607315549322792
28.4157055018029112	27.4468448841319059	19.3841260172395238
25.2462271243964054	25.7294816695661943	18.3455164373593576
33.1279987273284817	30.0080189768952756	24.0341175826140834
29.8994554277201026	29.5093964205549035	21.6594468112736251
32.1595534009337882	28.5045884938264003	21.3030599902005626
34.5621883406001231	30.1169786609370256	22.6981685685532284
32.1189093067133555	28.1182535727038783	24.8313982068213654
32.6706454856565784	28.5349900203038942	19.7272713001699955
31.6238077195499798	27.4039996865114972	23.2967474866052058
34.1990138725046933	28.4472624678780157	21.1816817357021066
34.7123905486562592	28.5718426214297700	24.0296415762670605
35.2972602466446972	27.5528581217128270	25.1375501892906215
33.3802046973020197	30.6160367288796600	21.8764304868306958
31.7017066436632504	29.4272290045279519	22.9139197013771465
36.1257805116857682	27.1173065602580259	21.0214030705470307
34.5963808574211811	29.8538184626034813	25.2450075634741822
31.7383866550044367	30.1902702500928619	19.6379841267008750
33.1369624274748134	28.0306598743312954	20.7424981617912145
32.2319929746197715	29.2709753143774769	24.4724706272454320
31.8215282433007012	28.2912808324425349	22.4621901436281313
32.5331531527020630	30.3767066887887935	22.9171772370772544
31.8257816612253883	29.1889673216348768	20.3257731603819245
32.7306572918533405	30.6730909502262641	19.0841192855589092
32.9566844958698937	31.4185690595092417	21.0352928148748930
36.5260754176242841	26.2047849645255511	20.2709618047171247
33.4632953397107187	25.3359386846455230	24.6595954225682803
32.7305227291281753	24.5648074764005848	20.3385057016378745
34.0514300333659463	29.5364418092897694	21.7557978786774342
35.0946970030339145	27.6818885213026284	20.9114020036427526
30.9305675710778196	24.0409303110500900	20.8633296524359473
35.5345221806630249	27.7163129759065754	23.9774990327285273
37.7535990868704516	26.7805093613561738	20.5806170350513895
41.1229228743186681	26.6333068298142805	24.2863382103405492
39.0161328686687483	27.5118605605093833	18.8632810485649536
40.2709796333407155	27.7711424684385051	22.4598927148038356
39.6178993985042638	27.4143874684675062	21.0123466735537257
41.0662717371534214	28.4615501422998207	25.1119345297815606
42.1750178962384865	24.6125610802553645	24.4665614729963110
40.8689968644005432	29.3541937247919655	21.0179470993432318
39.2442165154886524	25.4351636135275889	21.3960398002473369
0.4074767911111431	30.7563475424407891	21.1772288767652874
41.7921515279837266	29.7405858962205407	19.4551988218000425
38.9263437247716340	25.9514501975642276	19.6472558454327313
1.0806752376143247	28.8074687832402425	22.6125054674258585
37.1583198718409875	27.7950305685068457	17.8191443270958061
41.2300032065020119	25.7480812564396757	20.8932386585223320
37.9470543294268978	31.4687968329607877	23.0892900381247905
37.9557813449733814	27.6575992410007494	22.3459658065022317
40.4755970460475183	25.9117355422071114	22.5996426196845128
41.3045387299154712	25.2477424910261732	22.0259177628146361
40.7991096303673260	30.0816429299482735	20.0998991067097634
39.3673083688712211	25.4180178149447578	22.6140033240858820
42.1140285842175786	28.6349672035606098	19.7675637292260689
39.0341444322647320	24.9896958576971606	25.0924117324558686
38.7868061226544825	27.3016701241932083	20.0606517658043053
39.1080232669760193	27.6696496125099713	22.1306759892363196
40.0997394079151093	26.2691890458313644	21.0063867280111971
37.2100960478380145	27.3986152630534576	21.4782407184864468
40.1261944432187789	29.2620366965220917	25.0485353700677003
37.3869356731123972	24.8911778479431867	24.3505208858713189
42.0631072433953577	26.3553664666093219	20.2376157695917094
38.2527424669017435	25.6329625292753533	20.6538501834896913
41.6209754472586155	25.6328200927188270	24.7658202129063625
41.2924778620262174	24.5629509173863774	20.3098285762854225
39.5232937749295203	24.9526093189141314	19.2289061110705397
40.6743688031371775	28.2513842401510011	21.4003523372301494
36.7814261394799900	24.0040468177724371	20.7864277072133028
40.7516868049550922	26.9475898597438075	23.1922755731054480
42.3762413281724548	36.9382276600626440	20.0630996922233997
4.1994970417890212	36.5836235183439626	21.2022931959228487
3.8374601710563550	35.5598173994888356	23.1215223856945151
1.0109202318991697	35.4191454875286311	22.3330461351801759
1.2340203174777318	33.4981044770726939	19.5733227080258985
42.6767187713074208	30.5258665650134908	22.7047256401938640
1.2111937763804694	30.8724242905022024	19.0691458330203609
2.1643335439596294	31.6919854700404358	20.0650737198181197
0.6386697759469339	37.1263203932453436	22.1823013075054938
4.2227487419424081	31.7790136653330144	21.0300734007383028
0.7117455594530523	35.1859846616478364	20.5099284560608695
2.6153860829793683	36.6494635315000679	21.4818259602751347
3.3332744857522734	37.3600728308432650	20.7924299578910059
0.4925445411324537	35.8501287797727670	23.3210749065531111
2.4265328487978981	30.9140265298044667	18.9625586824884920
3.2184189982986648	31.3603243686860331	20.6031672209277268
4.8784007094765105	35.5920495649011386	23.7434115717129330
2.8881852671368904	35.6135543329981985	23.9778890540433238
5.2336671052020369	36.0659650318982514	20.9776642154925135
1.0130192360865651	34.4884057899312495	24.6298433197030811
0.6618258403788467	29.8926004238394150	22.4299406255868909
5.1794368644020201	32.1935683843111136	20.5045341998127704
0.1887656924017622	34.6493916528244341	17.9685844225873907
2.2658019868373747	32.8144654645858580	19.5627606562299299
1.4883028394061666	36.3810576030730672	21.7721575347081533
0.6115754501727469	34.6497363774435172	21.5569883928527588
1.1270976309717506	31.0427517368040462	20.2751708212854673
5.8208343726414924	34.4586114488098190	22.3119520129880051
3.5162625846011197	36.1172548746332325	22.1223433714957096
2.5134007656815305	31.9410211531120112	24.7804493720252594
42.5361465568335362	37.3943521297619981	22.7373093727182578
4.3911517777041329	32.9030862715135086	18.5536466021188282
1.3652397950246129	34.7007332646516105	19.6136772386306362
7.2858959275043667	32.5061255414486965	22.4582414859370871
8.1167251944842516	35.0127149072154467	20.6230604461795508
9.3576893167469013	33.7793964440783299	25.6834360786398292
5.9475044944520095	35.2042711989569952	21.3408081913650705
9.4771498130247629	34.2372621578796910	19.8851956634874938
5.8760595663794257	35.0339422461041892	23.3768228743593980
10.2358096044176019	32.0542009513711079	24.0516430758704232
11.9272535773072033	33.0279267283854807	21.3289864169781929
8.9245083372228784	33.9255031798154789	22.1821040452100000
8.5659901583872529	38.3283643363654676	20.7722541088100172
9.3026483719144384	35.4861521380103255	22.2072129382048011
9.8140979805618365	34.3441912143615937	24.1751650739565598
11.6464596682264787	34.5639579714124352	20.7445163451979759
8.1203063581424217	34.9363452267771777	24.0777475172761548
7.0555798407606529	34.5165358092435497	22.3538633260594928
8.6178736636592248	34.1436593681387137	18.4164046611002270
5.2077803026233669	32.4374397119239788	19.3501439573196343
9.2027358951307150	34.6680318442732585	21.2102058385693262
7.1795347685781934	35.1613875855379447	21.3172324781267335
6.7717025159863793	31.0363126646090990	24.9531165709960590
9.3370412516183876	34.6265848499430007	23.0890888527405771
7.1058523644102349	35.0419056343697761	23.4807079513937609
8.2902176941261576	31.1730408610753322	26.3072813259029203
9.7909326264196075	33.7765578510357969	18.7824418466883643
11.3761360778949250	33.3772107277495635	20.3185176926599205
7.8042824283536669	33.5431801166042760	22.3016450358580443
7.5768844219742828	31.3711071041575877	22.3330188864207493
10.3604101235842858	29.7980708706584778	20.4714497868424736
9.4945514495906522	31.8917491756382816	23.1283457164796431
8.3787579412091215	34.6052265417036864	19.5323798969585809
10.3198190151365790	33.4684123622562666	24.8622802676498047
16.9380778537482435	37.5646121885489848	20.8754282899746109
16.2038370013987141	32.1277298500762853	18.9900985284220916
14.3416035144856053	34.7103088856375095	23.2285292671477634
14.3726553100377572	35.2295869447118406	17.9361187070516159
13.4381449293111128	34.4488196231200519	21.5575616438735373
14.2936795078113992	38.3103598093022271	23.1977986104323719
15.7015915171871026	34.1843790676013413	18.2010024073851575
17.6096403432698452	33.8028000267538360	22.1902600591201775
13.2160113583092311	35.1422550536285669	19.8031948925336039
15.3696836791282152	36.5141725730621971	19.0041574399206681
14.9049653532114874	32.9909821448494469	22.5696648912795581
12.1496178601909737	33.7355436804484654	19.4391460158379346
16.1586812755788927	31.3498265232343556	23.8577016512100180
16.9842288940865771	33.2306710767600464	17.0847984779422220
14.8796704901048447	32.5477255795965945	18.0575462488706826
14.1293432532735306	29.1663881378813095	18.8958188091402342
17.6562245217066440	36.1140952227242380	22.5058636515334669
14.2649349138783847	33.3459227329920225	19.3285011677288026
16.1364880812141642	34.0747755793813312	24.4637502438028385
17.5207344016006417	33.1167337807031572	21.2514053932625480
15.5914760705254967	32.4226266750310614	23.3315446911175925
15.0594529945604023	32.4493788325105896	19.2731561639722209
15.2504271422167079	34.6180164738904423	23.9320463985498399
17.7004543588175061	34.9747459092319772	22.0633941805449538
18.5771759033162134	36.5388420384597836	23.1262713766132535
17.2450175754181494	33.8692397542086141	24.7336423124291436
13.2965364415658183	33.8016454196495957	19.8318638279460693
14.1540429792851921	31.2509021122288431	23.8693973117703564
12.0368951926654209	32.3355074768795205	24.8673802537417394
12.2745246197286004	34.1172078855445520	21.6776955456638305
14.2067590597819784	33.9317024193287722	22.3371596734571263
13.6258719912216719	35.4038650722584478	20.8837893993239767
24.6939587117190165	33.2115410772511339	20.8202430121721811
21.1300163782131349	36.8912389425227261	22.2648931050397714
20.8994562834977984	34.4654342658835162	21.9782239646536262
20.2136663245608368	33.8757617010966001	17.8631047562609098
24.2372651134901851	35.0718924591259480	18.3617100052901669
21.4947588790271560	31.9502720676923140	19.5124534355157913
24.0945932961389708	31.2491314067547385	21.1735214513774643
21.3097994575279266	34.6117679675543499	19.7515614178605752
22.0257824848671611	32.6213281117063403	21.0782737564961984
22.7570534727123928	32.5658054540988715	18.7517660665470913
18.2939600623083471	32.2514660071182604	21.0102051380847179
19.6028983784047348	31.5061795690393147	20.5514961475744968
17.7726169608037630	35.5435607698758247	21.0183228002440181
20.6283059300684251	32.3367097742322258	21.5590693387657701
20.6953583596206911	34.0340008431169707	18.9406420414282763
24.4221783757637070	32.3771677658386565	21.7083291682309429
22.4418780945662952	32.6024971150477469	19.9415446399707648
18.3482957413636569	30.6765890839487483	24.2875339915763675
18.4849616309397753	31.4147188292161488	20.1613471597302123
19.4090050224235178	32.2387597309557421	21.5318299378748499
22.6591234785151272	36.7125678811635439	24.3744762204369216
21.7577621911267833	31.9171009543013113	22.0886194956031190
23.2315183374859906	30.6109559614816717	21.6780536297725739
21.1690167975070977	33.4851273094818822	21.3798907083145409
23.6992839405431575	32.7677901190891561	18.0549809457656849
20.4036354119634993	35.4293495912268241	22.4279540329445197
21.7654987271605016	31.9393547601039138	18.3364601634046736
22.2113003020106774	36.2744828952633895	22.2026140321947381
24.8306587604443294	33.9825165847439621	22.9452001922566993
23.1371422210982445	32.8786914696066788	23.5194784123718534
23.6405564210454244	31.7454032316117534	25.0303473114060893
21.8204806123425108	35.6194234405309587	20.1290540314528776
25.0252824614227620	32.0943313334365286	23.4714968864619848
22.9791861773370734	37.0578920332406483	20.2162942753106556
22.4082864199551146	30.9779882848080774	23.5740050438295086
25.3780757038962221	35.5034028385078955	21.0387000281181997
24.2150206812076298	32.8977186882590189	22.9158467947632118
25.6379313892523548	34.2061494263255454	22.0317170248543448
29.3784214667404520	33.0626306106335122	21.7064372142768818
28.1027046475088369	32.4761855297067470	19.2000459087079705
26.7512822081818911	35.2040030616584758	23.0642593297538632
25.3712778103272356	36.7687756020304093	23.4352614804126240
25.5611457765286296	32.1896800900191593	22.2581012538550418
30.0350892925908290	31.5967815851017377	22.1636596944322228
24.7633789603660617	31.7529215697260554	24.6128382804348291
30.6083792190738251	35.3995230682936537	23.6624333544985426
30.7788257596950139	33.0821400141796929	23.3315756079715690
28.8773931829166983	31.1695613430680467	20.6212632180347875
26.1700289601327150	31.6612693711099986	23.8228652550161044
24.8737757972329128	34.7350643346009136	23.8723655569375239
25.2008600471781534	31.6882235070224141	19.3222876750070256
26.2962550715238343	33.1865874256235145	20.3037115734713716
26.9865405322161038	33.0196022992380307	22.4328986012543439
24.8589865864276867	33.0155880395239194	18.4895791033391674
27.6192103886328759	35.9454717407726037	23.6530631848593735
26.2398286760340405	35.4108859568821401	21.9183397830545701
30.7240214619366974	36.3245718083615117	22.8437481976382628
30.8533163942823663	30.9662926578700635	19.8172184635728961
26.6858759621700017	31.9187655273204847	22.7853328556252741
31.2562569435916231	31.8027231146379528	21.7986760266936450
28.2520332341096037	31.3468913282319406	19.6196926673003524
24.9100831270417267	34.4094839220403728	20.9999408712781488
29.5976393442265859	32.1058510672485866	21.0128957903878444
27.3744649778271381	33.1903913793421808	19.8065914437753641
25.2264196666403535	32.8745601410524202	19.7454305049366852
26.1306187300207000	33.1400581544294184	21.5406778298359924
27.0159563326903864	34.0383680686295875	23.0260710618593549
25.5659425652241126	36.6677398742055445	20.7833458488287377
25.0157779824610742	34.1837933522767372	18.1411014553077266
25.7305957525613742	35.6156673195598756	23.7092269500710096
29.7125036195097678	35.5049013605415809	24.5156609204420484
29.7962054337620543	32.6605154606200259	22.7374625054588471
34.1290766469758040	36.0633700669867281	21.8066508656488516
34.3049325213372640	32.6261877524132231	18.6843469868545782
34.2605981520703722	32.4426776880877341	22.7131594909336521
30.7265895853703626	31.7084310861358922	20.7027130494604776
33.7967843035129505	34.0010023930921292	22.7125691234205220
35.9064533474080747	34.9801974202572552	18.5693997242997852
32.4333008879186622	32.4804570782575937	24.2890455204112605
32.6769157852981351	36.8905698721225050	20.7660600144889749
32.1899259698152349	37.9592043998959525	18.7255005546101714
31.6353042203265602	36.1297655265960174	22.1055493044571243
32.3675757298610236	36.2877971184362877	17.4977481233513075
31.5382461318224223	31.1191378038766189	22.8341873912250115
32.4480988787781683	32.2337446740720068	21.7799508114245981
35.5776986346607984	34.2107928405035793	23.7276248704783939
31.5854798294568404	34.6109442634103388	18.0826151911622581
32.4409721243220730	33.4014052769259493	18.7897450560569403
36.8820928848567320	32.7027845092752614	23.3122330473913735
33.0384950771231871	31.5586498328938916	19.8437692131078300
32.3845015117532853	35.2471741213357816	20.0866099887368179
32.1516574855198485	34.5195626733837102	19.1784313459667324
33.2233791038248327	32.6111017372230592	19.2340455872090565
34.8322477161546544	33.4508620728909420	23.1292180622947434
34.3072801679354598	29.6778185562329959	23.7863769662033810
33.2612763663960394	32.7248594628591079	25.0715297510326884
31.5354567835522772	32.1252472220240648	23.6083258359352826
32.1680556766821226	36.9252414680239127	24.9248617411350075
33.4495276923635103	30.3069477096594149	25.3957659916454013
37.2355547063674095	31.7450796196049119	24.0056905515691490
33.1872241714784622	32.9691030993324858	22.4010426050276656
33.8700714977050055	35.1573217984518962	22.4938040979056559
30.9212116665865473	34.2720732039464693	23.3746708592299122
35.5016167293864342	35.1695552046750706	24.4459786907968137
31.9968610388479036	35.8451840004078548	21.0211968433911380
37.0330384119976941	34.7655498058996741	18.1544122972270578
34.2739845317915908	31.2666505075670464	22.5136078072617210
35.1454168770420594	33.4845654750291999	18.4390454887201720
40.6770908025029740	30.9837212366099557	19.3225344818080416
40.5124456066950387	35.3934532915032847	23.3751209349727063
42.4358343371470994	36.4889542546627581	23.6015652544383769
38.2238511701419696	34.8089988335442158	18.0600269161805898
42.4964145284145474	31.2876064992656673	17.7906164511300453
39.7708641204282500	33.4974661581879332	24.1212336998512065
40.4522994553683901	33.1320947575634221	22.8168631168746963
38.4221471699130674	33.2471940049411359	22.0723651197527850
40.2012363071250931	37.4457786261762848	20.7424066787101857
40.4709834897759038	35.0838105470434414	18.6942531704128463
39.3859220318223109	34.7019378597166579	18.1901443431753158
40.4884321009967749	37.7859031563019698	21.8843881493780756
42.3180560065335456	30.8526608926456234	21.6381693043777403
41.2414521045846740	30.8926433989695397	24.7536219056041595
40.4673815395707308	32.5344020541411183	23.8962845056334032
38.7334378980411032	33.9286991079504716	24.5478076697889342
38.0482557974561786	34.2476545355016668	22.6147074694817150
37.5119437278503227	37.2348922385371353	23.9106033774924001
0.1465486522347484	33.2201719816185701	19.1675339691086855
36.7124219265422056	33.7068006840451133	24.0001765756059662
41.2221075004183959	36.3242466292147057	23.3629782861546538
0.0647859913510730	35.9842759150508300	19.8351037900845277
39.5586868026853580	32.8994559822881101	22.0819887847949481
37.6148298246422783	32.3724763357316050	22.3799243027190684
42.8607086547701570	38.5560253537996260	22.5163649550601761
3.0920546153117803	40.4566154629368597	19.6881305937414410
1.9258545528281925	41.6517670194420546	22.3023715548574941
5.3643285512430445	40.4995786402849731	24.1249524794287069
1.5103669826841697	40.0211397172240453	22.9878582459759535
0.3579256264892388	41.9942851248807116	22.4107650097749271
3.0785785963688692	39.9111937497908258	21.5314023012953513
0.6258787144099289	38.7382169040468867	20.7127472853508792
3.3988089792764535	38.5570177262542657	20.7270477555988570
5.6507645791157914	42.1968352932578483	22.5638237269164357
4.3362121616600033	41.4483224790140454	19.2794015509815324
1.1964671444373465	41.7205628243793853	23.2952486773460379
5.6084261514675493	0.3252768761543373	22.9629200795928980
4.1991765565859493	40.3040265157491149	24.3284515682246081
4.5572763264007330	42.3934679752793642	18.5843118692620948
2.3176301137550217	40.5161653747474872	22.2406483540763773
5.3347981285750476	40.6804156316961354	19.4425510309755722
0.3710310449922227	39.5604128627704554	23.0714237402308662
2.7385009831503329	39.5562949553463099	20.3842408195191638
1.9031038861533438	39.7797533484959800	24.1182850250422049
1.1959805726958648	42.2216208458952096	21.5177622796574433
4.0131564980003889	39.1669554967200853	21.5803829702277490
42.3421007425157399	41.4181107346059179	19.6323463184124769
3.4279389654330550	41.5530030673416206	20.1399410197700099
10.0563112203795999	40.6363989563912043	21.9396859910671793
8.1589247979253781	40.2350598042231766	21.3191404503914690
11.1398471347024728	39.5502952356649331	23.7741188252530016
8.9152210809212988	41.4186015877446678	23.1517344342092670
5.8696686312860153	41.0510525779782611	20.4402014729534081
10.6923008710264078	41.1324214488693798	23.7717044588641429
9.7841301362915747	40.0995536875464467	19.9895019716252023
6.3972247654689411	40.8201435691108685	22.2389004821123031
11.5907182322788422	39.9656967972418258	21.3206818865866801
12.1101290827736143	38.2402484997456469	22.5450314239154146
6.4402837822165724	38.7999997875235039	24.9858381777268761
8.0329080793423859	37.3771983227988329	22.4484461943793043
6.7634041151693918	38.8712895146990647	21.5230662105422859
6.6666463403139700	42.5895603254906732	17.8942181619443623
5.8216849216764004	41.1890550444434282	23.2285354461498201
9.5822441852004800	39.7733412339969803	18.8190818254226713
7.7383609008410135	38.2041703248862419	21.6473395120095908
11.8794861136436882	38.7970098690549392	21.4863193670353247
11.4749919492135035	38.4487877388419577	23.5099508462193540
8.8779426580041960	40.8577721093940838	22.0441752306434431
6.3154784430888435	39.9720481744600562	24.6787155084081746
10.5433091704241679	40.3667453670046612	20.8648382699325730
8.7031753711175899	37.8838634357291824	19.6764667131630731
9.9962646495054717	42.0149101659087023	23.3008308274999116
10.7541937948597877	40.2884279476559826	22.8451202033651484
8.8350272231747322	36.5363265184945618	22.4378343423778404
8.7258950206205181	39.5479840642804419	20.4580546379119887
5.8958210483970124	41.6434459901096687	21.4734797586364472
11.1105388416050559	40.4025326022453726	24.6267730877127278
6.9555640967240562	40.0425495601061385	21.4863725026878143
15.2432603114212526	42.5716698613838034	19.6598441423131973
18.3161575454411043	1.0986739558338756	23.1718123287264071
13.2912793674378218	41.4641344171785207	21.5219445837480272
13.0055041806697851	39.2340251298582103	21.6566042977294302
16.4326782374647529	40.7121728586142666	25.1240056311074653
15.5320444254212564	38.4567645044223312	18.6969555479758043
16.9136420735099335	39.3353382493695136	22.0184754469075692
18.1770022123454140	40.1069907466872522	20.4253035030372239
13.3889755622384072	0.4517491098097120	19.3156210888819437
16.2893684247286927	39.4866567641367538	20.5185609643555438
14.1051605738372778	42.4602007713829082	19.2848770532742932
17.1860451689731768	39.3401560090818521	23.1955997849073583
16.3676695725425390	38.5166052633822673	21.2701470080123620
11.1917290698120322	0.1941876273497989	22.0397472749875583
13.3447571684590631	38.4683560217728555	22.5288265403971728
15.8403394466108800	39.3624766261548373	19.4310653948865699
18.8067328131020517	42.7843127842465663	18.6201504393994703
12.7568507258775199	40.4046184520674529	21.4712881746342426
17.4476483000367466	36.6304207444533390	21.3827587861773054
16.2682923550706597	42.6236148348072987	19.0356983138362850
14.1262400848153131	42.2483345886090476	21.7456511776058008
17.1804629263993967	40.0854927347628660	21.0938613147659808
15.3071259693382000	38.5512174983234317	23.7031329836578628
22.7311763927432864	36.2862312171420172	23.2626142265657876
22.8035228695852261	40.9385905611343333	21.6911730329123174
24.4501312621757734	42.7837643781482910	24.7511107577930609
19.0942897194660084	37.6061217156765011	23.2074835336141163
22.4737096989716605	36.3122541332449629	19.2996076952277207
22.5719607084236564	37.9548594885939821	19.5407153337367845
21.9122728453619047	38.8121796693248129	21.1500645686887907
21.6791756555909778	40.0173367373618944	20.1261287657272590
19.1719971476058717	41.7460741889988469	19.0800968064261482
22.3249738014301968	36.3684674660154315	20.9797661244658293
22.7027385739207936	41.5864969018391122	23.9171779858714189
20.4307836761377004	38.4943476441066679	23.1193107240351026
23.6420580376982876	37.3986791347118341	24.5056326749649642
21.7897392549382118	40.1446852841383972	22.6492061864859018
19.5640746801098686	39.8064430029203891	19.6501744967291287
24.2330551850111959	42.0924891496565650	17.7734874314703077
22.6366884393465320	41.0099768702387451	22.8640000710052078
21.8773404680977102	37.3654175809243938	18.7525510759375358
19.5883555314390598	0.5839400284180921	20.5176513287846767
22.3305332134827239	39.0125585328429381	20.0155978056754300
21.3698813272647712	37.8935001430226208	21.6225165220345019
21.9963267549155113	40.0923577552332375	21.4048677474546913
21.2881141196483341	39.2873984663528191	23.2462922092148681
23.3455355246217948	42.2974739114446621	24.6093911646889048
20.6618234588214875	40.2519124609305905	19.5941374386682163
18.8780313512111420	39.1329346601113315	20.3716160254058707
19.2231129146881550	38.7811028573718986	23.3283441116654693
20.2786977648281130	37.2379278212388201	23.1176070961939537
31.8684969011892072	40.6190873614573462	22.4980386395816865
30.9144550542973384	0.4150597827133932	23.7114517513001068
30.2031306894627427	38.8121779125204256	21.6221305179932806
30.2241105158588823	0.3378423916331061	18.1663232442542437
26.8520784091455020	36.8320181580231605	23.8704699649371257
27.5424003977742409	38.5191170705653008	20.8571752381756106
28.2482696003281539	37.7310457617839816	21.9119273925104849
25.6633476496544652	37.4020601418144381	19.8830199924858988
26.5162017553040954	36.6138708672470869	21.6292963964778338
24.8677126721205326	38.5621617535921288	23.2671319633905682
27.8919810589193418	39.3561643646792874	18.7434046730337194
30.3366715875647834	37.4652926593922189	22.6677695396399592
29.5290845284281787	40.1513432340561067	22.9575578629324859
26.4748575287783403	38.4666140252233433	22.5301346426870630
30.4792506221060933	40.7283247137362423	21.7383467099248406
27.9319202836552343	41.3572063436737594	23.8690287214962780
30.9876329214137343	39.7028613545570082	19.6925433731438240
25.1454786535220656	38.8319621765259555	21.0349352001508478
26.3249097197120037	39.1635723236155471	19.2137199250352246
25.9463621735979615	37.0915424469706636	24.6640273445709575
24.3811885240167356	37.4833155252101378	23.5495110884224879
26.9391575278343822	40.6674345678660956	23.8420572153426207
30.2568226780222744	39.4037810054421058	18.8149417676143358
25.3479308626117934	38.8401060039868611	22.1946048255244506
27.5318370998239565	38.7448424436502421	22.0649261780793111
26.3336113813454773	37.2751793571207060	22.8222126527647262
27.2228172421856698	0.1915244348601667	21.0657657995619374
27.4026097954620269	37.2963163250505616	21.1079139565761693
25.4579144808721267	38.9844441397767270	24.2395516474171551
29.6180668458817991	39.9024387203363347	21.7854303077656297
25.5341560776355578	38.5861456197619930	19.9446085157806579
25.0427546780492918	0.7207466368384386	17.5815680957096632
28.9909590041514527	40.6706856821736906	23.9426788593210809
29.4281947719144910	37.8128875095242378	21.9173280509940334
28.5068079921016597	39.2455247987595968	25.7609858421961953
27.4014363914601979	39.0366514399563300	19.7969969258109693
34.9240438625477125	40.8882146451160864	18.9542625485991856
32.1446076404931986	38.4071454024861083	20.6571333882865282
32.4304953847705164	40.2863771202098775	20.7522240251794337
34.7194991557471013	40.7686818487224727	20.9163452156522816
32.0542236721110356	38.5913021394772855	22.4099395516017914
33.6092333763645286	39.6297366169188265	21.5017375231681953
32.7929415259815968	41.1167434256286626	19.1111703797173718
33.6534313346561689	39.2899189881130724	19.2730775426680516
35.6428694211604338	39.3119059053424564	22.3281349840367689
36.9401688201417713	41.1086851917963827	22.6674162162617172
31.8226040698589685	41.6990166698411215	20.3457368186967535
36.4399495171082961	42.1766322056022318	24.7715168644505610
33.7898676257764876	42.0567153583624460	20.4992444406764953
31.6938564833479433	41.0574689689068606	24.6241380888133214
31.5726075420885479	41.1082923670543821	21.3937251534412987
35.9578740556207919	36.1941655293724978	18.3091784969941465
29.8430921875489510	0.5853135581782640	19.2303849019849444
32.5943233392864684	39.6786092802032186	22.2510118023538084
36.6909397723481447	41.7673543334417872	23.6742750686190817
37.2846551360710876	37.4330573137968727	19.1939630951514104
33.7842433584612465	36.4119768130460031	20.7496040957257861
34.2697859860408585	42.9959636207887925	21.1182591401600241
32.2154180402403369	37.5232162157087501	19.8121271292691041
35.9132157933118492	38.1795007420550476	22.5946894072261664
32.7894674132037665	42.1599476293309436	19.7728592166399402
33.0522276170728162	39.2502070122269870	20.4204273887609560
33.4942305203807109	40.9454785049070509	21.0259929372497005
33.7930175320986876	40.4934350074996701	18.9436253656975602
31.8205095047283280	40.6232457610847604	19.6802962597992810
30.8896922160134082	38.5586741257441403	22.6820578093732834
30.7071798777973974	40.6948282899707436	22.9871124416800576
32.3498316374678154	37.6918127650851034	21.6696420499092568
34.9874471504735212	41.5653154225808663	20.0160791539100096
36.2013350090267565	40.1610992165895127	22.9953893212490073
31.1238339826710586	39.1156964967371792	20.7675987438490210
34.8120262858984546	39.7670097526790940	21.5743230326630631
34.6426205014687341	38.7533408361070713	18.7193320697455015
41.5568047797588562	41.5512833330005265	18.7081836470340370
39.8713234754511348	39.1912612617121141	20.3004985131263744
40.6090142927610174	39.0000066526191489	21.9694461961751273
42.0218647144113433	39.0607478251549054	20.6942393621204808
38.1947381256017664	42.1310791974510224	21.0780910794788738
41.3428270010230179	41.6262599469274619	22.3655481070161350
40.4007028218288369	42.4407259097688296	24.3172573485737047
41.3157223485597171	37.2248999343848155	22.5540990967535997
42.6515169389238267	40.0305954142274132	22.1437556606170141
36.8192257189137635	37.6210605049706999	23.0511502183730492
39.6605374516715656	41.2468881922899300	19.4013299233821037
0.0343965514592792	40.9362497732746533	20.4431427506386783
39.8185416785086161	41.0011341549389741	21.2643375821929013
40.9140935579867104	39.5417917702526935	18.7249013457826514
41.8376311472415452	39.1031794275050189	21.9806748290190512
39.8669668697785298	40.1862352784423607	18.8710369630053094
0.8275078768401207	38.2527911765810131	21.7895349718302818
0.0710001476988397	39.8453833023127260	20.9066950404380520
39.3187211031871584	38.1028893211823387	20.1914076100601392
42.7024389130947384	38.1389869076827708	20.1836499342109867
37.6093708663825268	41.3251068581266594	21.7228302646008551
40.6063875877065996	36.1656418266808544	18.2155648503067873
41.0535484375988347	39.0818521147195668	19.9142177986264386
40.8438146418603623	41.8278939612247811	23.4229105356572802
39.9537301032282670	39.8002456646343887	21.3507381771291591
41.1699687887201407	37.1394239780786108	20.0927518435700385
42.4829637403397911	41.1992462097624355	22.2887250939103652
39.1718155838745901	41.6951090641306052	20.4330240748571619
40.6176454220589989	42.0037912251220789	19.3636530171953467
40.8421624304988100	41.6607573724783009	21.2513606282316374
0.6531884585440991	1.0600482194599694	29.2387965116935611
3.1721793533599407	0.8720477112439502	27.0781131611098829
2.4860637878038436	1.9652749918884820	29.1341297498207474
0.8917572045063226	5.5870490564220781	25.3389499969956589
4.1362214467646439	1.6302361927108859	28.7471050494896723
0.9711201256191057	5.0647096457317939	30.7374043854680110
5.1870258868783763	4.8320040267221573	29.3156756558999056
5.0362061896338242	4.0494963288230243	23.7396752251307390
1.1724241370894539	1.7735187702983775	26.8301496513033406
6.7546229703055634	42.8758325720562183	25.0908367126975591
3.2121244064453593	1.5601885214649258	24.6386496301714999
0.3092372802222983	2.7807196584583065	28.4213828221009273
1.1608247209508666	3.9021803221036344	26.9014432980677327
1.0510798194962954	1.1921868806600158	24.8734624994549876
3.8762230978322041	4.8524939422926288	28.4193553064834070
4.0907724004119652	1.8409940637253641	23.8928718630517025
1.9968786527278655	0.8699384156556871	26.7382149705614438
42.8984940547904117	1.6332481816423123	28.4614582743174012
4.8831020947345065	0.7376604807619908	28.9416027600567389
1.1108202751045710	42.6354701574442885	25.4212288404398841
4.3627264058154980	1.9496235333874057	31.6623428865355443
2.4015079591421471	1.6300323317454213	31.5062050194921603
4.0006450685921102	4.6985107667542954	29.6157607388673298
3.3407191377171479	1.7621838645244552	27.8621485023069617
0.4904996868212536	0.9636530793111227	30.4568627681691595
1.9178875611763115	0.8478104733026102	29.3141808043020831
5.0501775307814336	5.2634733952136843	23.9030504524124154
5.0210283187254179	4.8768588314863814	28.1439643157730259
0.4296567968332783	1.5771261078215040	25.8719303645442835
0.4933549311724147	42.5822843448962232	27.4960654690079807
1.5948659271522065	2.5353425562197143	29.8729946257091825
1.1887128196131747	4.8607206854399347	26.2470815034744760
1.0109715652865747	2.8488039878798905	27.4125338557352052
5.0472707608790017	5.8555938371243821	31.6364457724304842
1.9169871032173418	42.8297358336104921	30.9237001957896531
1.9699139117824493	4.8392681624358671	30.1524441548648525
3.5671537192667473	2.1996358295222032	29.6551582542304430
11.3142088775778333	5.4721213084814515	26.9320191342714637
6.0998010097970630	5.8353197854678172	23.7333663706812494
10.5208049388128746	1.7419500631877010	24.5476757039892135
7.9011468153105433	1.8590128636506835	27.1215644114110290
9.0122573053074255	4.5772646270070059	28.5013843697833806
9.1228228582274120	5.7968277275445717	27.1638480850591861
11.4323271540327696	2.6508433083049248	27.8784714070862698
8.5013210002820223	3.7311159465459927	26.8751854932994192
9.0133570513164045	0.4457735165302232	25.2438385842390112
12.4895574346026397	4.5400313756794741	27.1747104712165815
8.6267288741156349	2.4711238481890843	25.1912464784620873
9.4547260531829060	2.4147306024830613	28.2487760379461257
11.2391181508110520	42.8604502528676790	28.1090228692898698
10.9600746071490214	1.4519201795272794	29.5204969551620486
11.5202339529203606	2.8436753401451575	26.2956511197359255
11.1384422179734646	1.2495852310031974	30.6881684950864759
9.0428762443719570	3.5328791397174073	27.9598679552929390
11.2146492450867719	2.4731880155043426	25.2181204267214412
8.2534670973685085	2.6916856128531603	26.3376595210829372
11.5885204244198370	3.6891864040677889	27.2317198360565698
9.3619501133750500	1.5516059458656635	24.8978625228034183
10.6019047789643359	2.2340652741268729	28.6555619030464754
7.1540443184327485	0.9266236446237350	27.2471511197485192
8.3303411022772487	4.9313539541042619	26.7900292746785347
6.8104646551422867	5.6596873274983883	30.3903138518758844
8.7028640410014191	1.5106873196111665	28.0045709337846169
12.9034300204551471	1.5109946856088508	26.4656572448549170
14.9683287905517641	1.3905470627916248	26.3045047448828804
14.5300898206250828	5.1176639803734219	29.4340880979540813
16.5044128781049970	3.9228064001882017	26.8663554635924235
14.7603456193656282	2.7927296934021704	27.0546430701570699
16.5076438821792202	2.2295274772934630	27.8555549726929748
17.3899025851465687	5.4686184272555929	26.2369732940210021
13.2664968782345269	0.6751159143794627	24.7069490953978672
15.0254357587054770	42.5113695390322093	24.8878163316743795
16.2007969124918745	3.9002592104505389	28.9780441623580707
16.0481817946097465	5.0482318025678614	30.6013152769586334
14.3741980523630808	4.2975782371502058	26.1561127186986369
18.2271975796039669	3.5396125264138050	25.6220699121381266
13.6770449010827519	4.2709470021355145	27.1478753689989674
13.9763438082416815	2.0970928991479574	26.4317291943027080
14.5079248712306867	5.8810837419903974	28.3955239244079642
18.3995199776707103	0.9421254725704370	26.4372657648360381
14.2202839190260253	5.3892922621611099	25.6429148493182382
15.5786103963294398	1.8588469004466917	27.2442302344985983
11.9445282771016998	1.9275429152089227	27.0430466149304323
15.3563267189990516	3.7097772871365864	26.5179735740940821
11.4532504941947657	0.3520344518996107	29.1535423598045078
15.1112595141399098	0.2646904988942431	25.9020536521903999
16.6499802545206315	3.3909398060804032	27.9689680472324333
17.5215885012360033	0.5172172437467717	31.2136966043243405
18.7603803856850178	0.1156083760691529	27.9759825021305559
15.0317462205575367	4.1743194685807605	28.8144224913691644
15.3256158936333442	5.8094837753512651	30.0632932022409918
16.2627034831513555	5.8309957336909912	26.3338231045649387
22.0671868468171937	2.7132523797884169	28.3229702100387648
23.2486288292182337	2.0656396037296259	29.8343573502837458
21.5738359582022561	2.9459881668911647	24.5847292906114276
23.0021374761939015	2.8587721699875788	25.5543013843921436
21.2399558827687223	3.8404033331950025	26.5617616079599301
19.4569082360778971	5.2741383263570496	30.9195115817707276
19.3516865079754936	2.9611933027167465	24.5260440545996268
18.6934572569684470	1.6099140974948218	25.4922951672433982
21.5320127370659691	0.5695464643710270	26.9558197437964502
19.8496750860924429	3.2857293077296621	27.2157713524603224
20.7054750137973436	1.8847839499695982	27.7804400252961337
20.4014409831804571	0.7340573642355736	27.3048033321548225
24.9066680212512175	5.3252932530353378	25.0088452592418768
22.3310082667973546	42.7101509257456797	26.7874000693257450
24.3868788332755280	2.1614781180720795	29.4316746712034707
17.4959332022527789	4.2571153357581135	26.2516418449312674
22.1494957331510633	42.5875471189689421	29.0485735332225978
19.5401901915007379	2.2682389537283592	27.7935549766756864
24.1341575064662308	4.2155706711285159	30.0543594786813699
24.1448831041608187	2.9708812145594767	25.9254008455550284
21.8299849131158155	1.4960906583866285	28.2061349634799292
21.9481427275647434	3.5358685570609816	25.6601814710726650
22.5941189358527090	3.0330080513184292	29.3724688907910121
20.1416781731626457	4.3210013688658790	26.6842313675628091
23.0672789214890805	5.6302058104335755	24.1341962860979002
21.2043807926222669	3.0358984676207013	27.5111957935115150
19.1436979621760486	2.7133803795962455	25.7565347674259897
29.2208146553680344	0.6530200503528152	26.8834529056483902
28.4131532643517026	3.5848130120100872	26.8131854147892170
26.9457499658477424	5.7831489390633530	26.8691564212908780
25.2230944233555654	2.4760711194334912	25.6438739309787884
26.6747808172352450	4.0603980807026590	27.8772992034465794
26.2884766835626245	1.0285751116268087	27.2381930247435484
27.0577314445167652	3.9104581711449709	25.9514007481477726
27.1407770491903761	0.9445647210189586	29.1181314325863774
24.9167287141195679	3.7465190851651640	29.2945417122859872
30.1731075581625525	3.6963034091876796	27.8478667897927856
28.7192321421480870	0.9045442931883325	29.0365513384869800
30.3978715126681429	0.8820422642401538	25.1887584138970588
27.5118299746597650	5.4321466269458476	29.0032468132733214
26.2500317674281334	0.7675232577967767	32.1415623278190239
30.2215165381187738	2.5586539569738123	26.1147966587557363
29.1113564080055625	5.1142651371779744	25.5063932983714459
31.8111726273711248	2.3217286561128141	27.4540990669616249
25.1021361308279616	1.5358262652699253	28.7538457365005549
29.1180143831106975	4.3741599444187260	29.6080416334691705
27.0066843366383758	3.6417255286993218	29.6621333181891842
29.8871609687427799	2.0841305330111797	27.6457553667110609
25.7534417732333871	1.5221889131292823	26.2706865175745925
27.2109840754758352	5.1429158387337708	27.8717339332735961
25.8585624489446460	6.4529840952085937	27.0345468113619773
26.3669535133781245	4.9673906038201103	26.0645612038801460
26.1880593106073079	1.1917290786015786	28.4460688554676153
29.5513732422410342	4.5357925771457763	28.4429826226198266
27.9636388309002939	1.6378774948139032	29.7385863207993566
27.2527530052815301	3.3821999598117660	27.0747613720417846
28.2866257260884986	4.3006476885709590	25.8462315797139048
26.1754731625820867	3.3125169484861123	25.2311031288837526
26.0683394794049583	3.7637028476356500	28.9287976655566261
30.1314902047759006	5.6044328820742848	26.0036272643455462
33.3234498774190158	1.6300477654277348	29.9721730884861230
31.7901897392168742	42.7047623489304442	28.5015441244503087
31.4575423331695347	2.6549269713192643	29.2554997616693235
33.0436618140754845	3.4687168527019518	28.8311375404386467
33.7832326855464515	4.8092549207357136	27.0841237480710824
32.8433003588295094	1.3497247117667786	28.4813511144512290
31.2630420863337548	4.3637599211715470	30.0712259896871643
33.7740527487814930	3.2183538364272621	27.2947932696045790
34.3679020581349377	42.7886222100400246	29.2658692876573596
36.9994238407638321	2.8762422091455826	30.3934908788936617
36.9776760087160454	4.8710721445115714	24.9159474621553407
32.2179036790347197	1.7775414532267841	29.4829512796831494
34.2530920854750960	3.8921221081816837	26.3727262884475842
29.5015851464978311	3.0741493700490414	26.9985014131348606
29.1663862310368600	1.2002111561966085	27.9790569680821051
33.1443386084669243	5.7598015928313000	26.8359799407595006
32.0275040664395050	0.7693929163620871	27.7580292898863874
30.7968952746376274	2.6614778450216772	28.2289476061898661
33.7099272980770763	0.7652948660485245	29.1651653867118483
31.3617200970169883	2.6744343511034128	26.4094784905272846
35.9437655877898834	4.1814241906656102	24.7448646452598986
33.4276678361269290	6.5328870389645388	28.6185540355740677
33.7455059968290669	4.1484971703757116	28.1130262289053512
31.9869048776452090	3.7428297109056494	29.3716702366960227
31.1695468310599857	4.5354373566654616	24.2424090635328895
32.9435838948693842	2.5193239295173337	27.8945608886650653
31.2525979490994636	0.0685285290977007	24.8268687392331699
29.9635079873393551	1.3549306446396767	26.2146203886999096
0.8359789593492771	3.4382928164663458	30.1540711040429592
42.4521067502444467	1.3457349812501578	25.1630637385193481
41.1685288367845388	3.7721287211896368	26.9682369534201705
41.9720559606072356	5.5464405234207295	30.3612031816859371
40.2755128506600428	5.5648685451122759	27.1953378584156411
38.5173172755070254	3.8262795896194834	24.8847233027564698
39.8821290174829102	3.9675862041760857	28.5550976176647886
40.7870020301312834	2.4690710703376508	30.0850486568084143
39.0120202367605415	1.9199104750685831	27.3543311132340570
40.2216675038060885	1.1416367351005550	25.5776605422745114
37.8616247534552599	3.6318223134063734	28.4156125715361298
42.0113442537944692	1.5527834735161268	27.6043032308245060
38.1478013735088268	3.4391544888627257	26.4129655614503527
38.5140318142525402	5.5868701004514660	28.6440614495245498
40.4943396618752587	0.3126975599356756	26.9330996770625362
40.0271363732563259	5.2733502020990750	31.3399734827910912
41.2609779604293294	2.7140517835709796	25.8714058295935523
41.7651019743845282	5.0053576777232429	25.5695768436964563
39.3681104242954802	2.0351893109900021	29.4818137905976130
37.6746489961117135	2.0620354886828522	28.4014522825464191
41.0748057810520635	5.7567191736659806	26.2518716883471974
41.2973923451235905	1.6597332396925342	25.3314371741240230
38.7769975476477669	1.6048646372997419	28.5351373242980451
40.5376030370632350	4.4789548215224828	27.6849623078820741
37.3437720832911069	2.8801638007902635	29.2284055689798237
40.1245292106367728	2.9936540079252190	29.2299613226656270
38.0046095463634259	2.8332185810085937	27.4625141282487881
39.0476799967961909	3.0805143233657470	25.7144420913105769
40.9241040242073169	5.8805487803196188	30.8037157116614573
39.7878364582890001	1.2539505277282410	26.7269461248607563
37.3748727425732383	5.9223732865917782	27.9699659159273644
0.0446941817322044	3.5900243401938972	29.2621396256847106
37.6465423157036625	4.3080490200689034	25.7461674959208686
41.5678646404632346	0.3757953120127230	27.4560305369313475
38.7530467906985265	4.3905608639462299	28.5681464741684827
41.5712335886893882	2.6224839169080951	27.0571519570913068
1.7504080827364841	10.2548351496648831	27.6807385498130252
42.5043995660734311	11.6303170089168812	28.9044126650913711
2.9419069540017064	12.2706420974335710	24.2194221721989962
1.0839209200771029	8.8598028312852986	27.2399699884409294
5.0819999552109971	8.4669220196726513	29.8063340378052253
4.8353372519563811	10.9736541700403816	24.6765741602280997
1.5343105263949846	8.3663025012918126	28.7756256999508153
4.1241567174371276	8.9938888487969386	25.0658589990808451
42.9216037386222666	8.0695987963454030	28.9670113160934868
4.0424296913103754	10.2391134357091751	25.2744980853957131
0.8371970772200311	8.3728164980254736	29.7888551087536158
5.2368029993192797	8.7272964719676711	24.7264698511684493
5.7516175869659598	8.0397921418468279	28.8922324887355977
5.2731896213326577	9.6434453386388999	29.5213471708942592
3.4690846185010020	7.7370323681337121	24.8008369866773002
2.0411164399162418	13.2778629979480858	28.6648693632650335
0.8139337215445385	10.0053004405260921	26.9758537056952932
4.6200352191252252	8.0248916527858363	30.8499804804107214
2.0502567232355289	9.1475297170381662	28.0303975526555504
6.3944866405414276	11.2766273222561750	29.5280265283745216
3.8659702635360813	11.7989979016128004	28.9424477835515965
1.3863407605631854	12.5890262744352288	26.8004652238270289
2.4302755065138690	11.7719554288926496	25.2037164039047568
42.9384188771864643	5.6798554291271337	31.0236293332271806
0.6339563870004958	8.0338889553019079	27.9951707249472896
2.1844077768350232	11.2979996451021520	28.0203500420951777
3.5529130398970885	11.8787753185433882	26.7313523934739727
7.7972824249955819	12.6890174448027508	27.1713455584084542
9.6579448475344449	8.7103356136430392	28.1988293857832133
12.7573387415121502	8.8109970990246076	28.1922308441240830
10.9835294702386594	9.3276177582891115	29.6157167337336631
12.6584613637434344	10.1036805722756675	29.3236395841854112
10.9428441494632214	10.1492429541617977	28.1140674492682727
10.0608492855906348	6.7580578600595569	28.1183477176467704
9.5219948397260339	7.7041500223321639	29.9230677368351259
8.5406482115856441	6.7176487480228513	28.9990989951872571
6.8437389343299619	11.0486294749946570	28.4592197297179368
9.3562332232433860	10.4886751447359341	29.5750598056931935
5.9090479103250306	9.1864623216325647	28.5640432973393388
12.5831349644474333	5.7677723175826223	29.0489424576307798
5.5569387374818513	10.6014906657938681	30.1650458121726679
7.6998473022491751	5.9060753561028756	26.4609818890441595
12.0495599222704115	6.8700915790991433	27.7844416598812600
10.4357603379429928	10.2547028065140218	24.3918932016238337
11.4453898870456072	7.4216956531141856	29.6413343835606931
7.0267141479597175	10.5456628191821888	26.9619654391003287
10.2277626415031033	8.6997762202028373	25.8689253548222275
7.0932204414248332	10.7677074315909138	30.3949901321622242
12.4398127238745655	11.8348773849284594	27.7727915884134902
9.1535943486809295	7.6615245996002175	26.4593077027623771
12.3078150095119021	6.6307178643393083	29.9293382632647358
11.1691856127786924	12.1882580112962025	30.5985450232066540
9.3198336772011015	7.6400917860031363	28.6918430048286979
10.6228079030867715	8.2327591544675176	30.0657840482317091
9.4805084542103639	12.2067613309255290	29.6081262205207238
13.4977326023678028	12.3194409446545983	27.9684807265566171
6.5911199583197311	9.9678004671466667	27.9184504684476487
11.7752208719119409	9.4103170655952102	28.6601370002460811
9.5960977253073008	7.7809074357061006	25.3551954195829161
7.4068244146482556	11.5552911560609566	27.4849056087318502
10.6892557808378648	9.6439973852850400	25.3469995441418483
11.1300784022273138	7.0985184938197179	28.5325858697179733
10.3000968562941448	6.0775617248246636	27.1077666930499674
9.0749650104047550	5.7640041822228572	28.4514012970443311
9.9846156239441868	9.7340387400469428	28.8442953932151980
11.4806153961661224	11.1864006081843250	27.9219398795196909
8.2283755847985756	10.7850767951157920	29.9803131623608401
11.6762638218830208	10.1634444755147388	30.3419727526847893
8.6177627781139332	6.9119510935036237	30.2002134598796488
9.7772846436142409	8.5601789617255850	27.0174524612435540
8.4454056457265576	6.7692289802846171	26.8194811449737891
14.6026762556434910	8.9329092314210374	29.3180578386900663
14.4048161494823521	4.7632905149273554	27.9608786268262222
17.4274851156506116	11.0087008415850747	24.6162702200950001
16.1465744821986661	11.2377064158458371	27.8638690636341657
18.0597945504385322	10.3170647731333496	29.6574990846272968
15.4559939622610560	11.6880738910964492	24.1419369744280097
13.0954231706579023	6.0110425927591393	30.6161517436797617
16.2376353267164149	9.8264862675719495	29.5614818272557827
15.1447965734454009	6.0117318043447279	26.0684827991677395
13.0531108842744015	5.5273310582210167	25.4470206887227413
15.0221397297484849	6.6590012340796507	29.1891002276243370
18.8184843763963485	8.0452041070984013	27.6011620826719444
15.0297465634691001	7.8280558004287695	29.3379802733747468
17.7786626761145428	11.4852066019220445	29.6031675756024697
16.2993457486568332	10.2714973703934671	28.4701347197510657
12.7215929358966147	7.8111774850150546	27.5706748607075234
13.5541282242671475	9.3674567571775995	28.9378726690460972
12.9658184425809200	11.3037547354622703	29.5283285520947558
13.3728423859282657	5.1781553757981751	29.7715476314163823
12.1719933212092126	5.6208700846528696	27.8969300926294324
18.7576039440486895	6.2677620116400155	30.8392103302234517
15.2001372694823775	9.6309540334576180	30.1425678594176105
17.2335450800993399	9.6026079018894226	30.2054763487259272
16.5303400263549349	12.3631484299912326	28.0140800029097647
23.9325773340183545	10.3936255363181722	25.3768671827519654
22.6234146440949111	8.4723359298142160	27.7549358421331291
22.5197570018186468	11.1486636210106003	29.9253657214931117
22.1659426757584477	10.0875369149075880	25.8979878409693889
22.9498705663189995	3.8859034023044137	30.1544845175149661
18.3618015144855207	7.1894218304065420	26.9580192638720320
21.9510297680550295	10.0066504534595122	28.1600972281188291
19.0665583265839622	8.8882430803535648	28.3664915611102799
22.2640881394660362	8.9282195759752963	28.7702398325784579
23.3700667363873862	11.4314566563766196	25.1576331905377160
22.3344351345470642	10.1699633262904552	30.6172101240801844
21.8763724739171543	9.7528961632485203	26.9967043930407122
23.0720700873074911	9.5215359766017684	25.3832566607871506
24.7908619892720594	12.6448609534715484	26.9199565684131628
18.3372112360930259	6.2358982433690215	26.2617303311290762
24.1841646015893410	12.1052696227795558	30.1602948775905197
22.1412517898805135	12.2511837595212061	30.2644971862309404
22.4211517679979266	10.8691745073729749	28.7806157968983065
28.5092937105927398	12.0884208498141668	24.6466344686831142
26.2450424051770916	6.8274264502451416	28.1833089032348170
27.4414330065210095	9.4562060340273906	25.6115199580419599
31.4377823757198236	8.9274057068572805	28.6585964295551001
26.0240855740671755	9.6366797341019534	25.5913222984651760
29.3771891246901049	8.7695079725253446	28.5114816531773805
26.8064939546845515	11.0104944241968106	28.9682059379098895
27.6557584524447648	6.8102328297309764	29.7856088249142559
30.4449306049766157	6.5235130802687538	26.7263618648688350
25.4536099471993076	5.8073310190831471	26.0415536403392629
28.6903104531760071	7.1496824085519632	27.3218285501820404
25.6417966927618473	4.3863709263165509	25.2154478740923267
25.2428326836023764	11.7872353485802979	29.6456669647180142
29.2816396763487106	5.7059507217252614	28.4402683123019031
26.7874002709734924	7.6591079327468670	26.7634385015205538
27.0768748317704144	9.0589210464826788	28.0133568350664426
26.6386757050214271	7.9617347040338577	27.9656248869014732
27.6752195175588227	6.7914991567939200	26.8006055398099932
26.5929661227308500	8.6516922755540904	26.0988954377326934
28.6004373017200315	9.2532438864289581	25.7802841334967958
28.8682168656578781	8.3342491026735441	27.5441824520305083
30.1542242258965167	7.6320109203241255	26.1874519367860685
26.8232173226707005	10.4854804076177377	26.1271830267193295
27.3322223928533745	10.0100520207712602	28.6565663314804908
25.8256481461541334	11.5801119113893556	28.6012727092703187
34.4151159766610633	11.7141839050215015	26.8529412079793630
32.5936266717946737	8.6818288033478179	24.7673516037571808
35.5105360949032303	4.3974593334820939	29.9408286701064270
36.2591446471870782	8.7439673658812129	31.0226813674466300
34.4335988525215271	6.0380899889258863	29.0039993222276991
30.9000530387671120	7.4894104733582507	25.2187807359640352
33.0686868873299034	10.8944534604227705	24.6246953148438372
34.9880384360441425	10.2864258127211308	24.7796600460966552
36.8816739069209873	5.9216871776512097	29.0846880099155101
33.6937845651052754	10.0505542049209140	30.3301399241444543
30.6166183523781896	7.3136484311201304	28.1641977871436993
32.5937629818998076	6.7175302982342204	24.3937483975692473
31.6272022724931468	8.0918606637005990	26.7092386614837913
32.6906561934072855	6.5103479428006770	27.6448390408100551
35.8095823093342318	10.2152835387630248	29.4951213247919597
35.5582696238503999	13.6135817304808988	28.9239252955368151
34.6186460356955692	10.2098854264221632	29.6777232093544505
36.5132035735854643	11.0407356125881737	28.9449679499088965
36.7110620033562824	12.3538461829371951	27.6077484444570338
30.4271299927716541	8.3124555202515733	28.8330687903428995
34.6608180057570365	12.0239638304524714	28.0018482094836116
36.6255582756551519	9.5721252387116547	30.1747121684020385
32.4032754281699411	11.9144502282713027	24.6829162167710088
31.5130542326644765	13.3027763651559177	25.7654271459954423
37.7991759492235389	11.2991379418000761	24.7850572666740696
31.6618555316986203	8.9532632727739561	27.5245709592978045
36.1854422510560028	10.5109250180742766	24.8794285824881314
33.0383712395112994	9.7185147565583119	24.4208994552201624
37.2666432078903398	9.1967020261353838	25.5646154447585658
35.4343151951388080	5.4555588202918770	29.3806786925322854
34.2083728031687215	11.2059156054922795	24.9374774006711988
33.2156681345072400	11.8922610752860418	26.7686975702923853
35.1591620913543750	9.0610746608614310	24.5456334442208224
31.8146031040723898	8.2065391754234422	25.5282890216648504
35.1489014139600684	12.3500536617947745	26.1674903597082036
33.2196329105462311	7.7664321285237001	24.2521907957719449
29.7130104171205289	6.5962558568076082	27.7550850998473067
31.5223887270539755	7.0144160754943226	27.4016299917443114
0.1320801364417542	12.0177555735249548	31.0094433429445786
40.8045786756835156	7.9673094079876057	28.2019646707903462
38.1515059042323941	6.4202638722100183	27.2139839770452063
41.3560110553982909	6.9264078666790274	26.2208704067614136
39.4862790253801847	7.4078586316245545	27.4316940492689518
37.8404509452422673	8.3554827383125296	26.1505767239096940
42.2518319719525124	6.0493033143752273	24.0936893599438555
38.9610848325145724	9.2986430755201770	28.3713014526596723
37.4956982271347030	10.8519864353878592	27.7995295806034299
37.4180146614320535	10.3569419624716073	29.5314481419281130
41.0673851694049219	10.5125508073747689	27.5648601114952285
37.3039715929320366	10.4861747213674867	25.6214206250446672
39.0993154702660490	10.8034168947364346	26.4130586405871846
41.7418177033521403	8.0587307278513443	28.9146606039745393
39.2729298281202261	6.1576155325973234	27.6739447970036849
38.3866234849691708	7.5489063190495438	26.8122029138793643
37.9275328238065512	10.7379836134862590	26.6742562785112796
41.9432937791026177	9.9231585731232528	32.3425271656045226
40.6972995456963318	7.4277601289522952	27.1006196010414904
40.0034693709303539	10.4355909691526314	27.0757507331534413
36.9931636360138754	13.0607020346346925	25.6114319327834963
39.6242214591857973	8.3320445074721263	28.2745099829422095
41.6672333758831073	11.4272268625202269	28.0193320658847398
38.0843689335855800	10.0812960992791929	28.5576473195833032
37.9156516075976171	5.8525093166763762	29.6794563017007249
42.3854935890704851	7.1272933553907016	24.7106672900589110
3.2599962242946998	15.1769959826489842	23.5851658010389436
2.2587563891127380	14.0983781179567345	24.6443727744329451
3.1540427316486719	14.0945809732248630	30.5702834178283211
3.3609773318410441	11.4764001594027043	27.9015195092807211
2.7805556122373210	15.7140058472968622	29.1795967138039494
2.3951018265304196	12.5593810317003332	26.1259246192976313
0.7994862822987999	17.8433395072261938	26.9768841318785100
2.8364951293583762	14.0484462435825339	28.1870766656093679
4.9891391259040985	12.5970279641875376	24.9786786571970438
6.2546143324832491	15.2442360035697444	30.1960046161888584
5.3083276646544784	17.2794527538286005	30.5389340016523541
1.1778515930646813	12.8419482844227346	29.4052906498772550
4.2455897967646594	12.8719025704821828	26.8518997583175256
2.5013729641842453	17.4479995247607533	26.2116986276375599
2.6735523105098919	15.5809911769972995	26.8949528126527717
2.3406008721386793	16.1932494881485489	25.1745057353326906
3.3704613525525033	11.1520431131227511	25.7042947559220423
4.2352960139032252	15.9795501455353683	25.1711736707537028
3.7496533739365949	14.2379259896691650	25.8805833627496007
3.4930822667703119	12.0415962830605423	30.0855906570007647
0.3808691097342512	12.0703486141479139	26.4405809421452211
2.7889901851165457	18.5354177552588766	27.8876395828802828
1.8318657333941759	17.4824100072441730	29.5275813038776853
1.5901284452342861	12.3377024803843511	27.9707598409912315
4.0992387324178772	12.9879817207501631	28.9203536438088484
42.9746347803259070	13.2293040661293038	27.7940660379123265
4.6127325477892045	13.3994217577081116	25.8264558233451353
2.7441804991354730	16.7389929284576375	29.9462924602450897
0.4289094228481921	12.3850558388854424	28.5448871518677905
6.9292680630699470	15.0421367293029995	29.2194376022396867
3.8679176232255870	13.4814779498385651	27.8408855699759457
2.6983041296394763	13.6721159955707083	25.6845009103947461
3.4322195534977036	15.0870905266720214	29.9729780785388407
4.3543987521985894	17.8536262600060063	30.0199024146373574
5.9234013263414580	16.3951629786845317	29.9050042757162124
6.4436100600274404	18.2157784801914033	24.7207392487917623
3.5399340111147737	15.4274836511138602	26.0120796524037097
1.1488902362350841	12.4587894164404318	30.5181681752591096
1.9651931767002215	16.3673551513974438	26.3129384991338533
3.7912646343269221	13.2211169745517854	30.0590624456234998
42.3272454666429567	11.5504460860515223	30.0972969120691545
5.3842043306271670	15.6872434143500357	25.2966178093425107
4.0365727055612082	18.5304211320983363	27.8746203855725270
1.9926160692501316	18.1300851198715733	27.0577308033116779
2.6867384613052243	15.2542478314257508	28.0591231331596695
7.8723581437408061	16.2647501606098395	25.7769308430273050
6.2795081285750411	15.2209364095845405	24.5993167587309003
8.5739629696331843	12.7912354431347310	29.1173006045063687
8.0067339101776103	14.3478094189020773	25.6329795013479789
6.2551130948323026	15.8373350905511003	26.1109297324829051
7.6299031523043679	17.0775806362037201	27.2327493715552826
7.5791102822418654	14.0599833540157118	29.0513885915033150
6.7550442553262595	16.2497763912621664	29.0312269461214569
10.3503656879929142	12.9176685322549734	30.0641691168353269
11.5851969524608034	16.2077067927795291	26.0637379989594322
12.5031749917897983	18.4746717976287158	29.3296990929482497
9.5098632762597877	15.8309526764313695	25.1676892499002207
11.9473874059220027	11.3775751293481182	30.1760358372747852
9.6893846205605634	16.5078092455194358	26.8452499041292896
7.1477542234786631	15.2406735520549681	25.5057573902657779
7.9784973721639316	13.2984559808047589	26.1638354047685269
10.0627351332251980	13.9689911200713244	30.5827724706576802
10.1264209380221324	17.5870561969414503	27.1824248483601139
10.0223429150354448	18.7635092352842285	25.4891407724756327
8.9100209171227522	14.8213036481895912	24.9591093922250806
10.4057648046040487	16.0697230401150968	25.9421573746730907
8.4983202513761817	16.2877501939718137	26.8574266775609090
7.9830393646352462	13.2911792296489200	28.2148019354921189
11.9564070299241791	16.7167232750726527	27.1384008576560873
8.7880606662755181	16.8285894247634857	25.1254271582564108
8.1690288091921310	18.2651062256461394	27.2077775602307668
11.9476324773829852	18.2413042958902913	26.0698146112119744
7.3859484293950270	17.0805698016749119	28.4454369749661424
6.8126748472434064	16.8951405006644038	26.3014588318272438
6.1809833625225385	18.6062245009844816	26.9322104583759803
11.9156334051963917	18.5364028191541870	24.2454180161426933
11.9221767835613353	18.4087163004585683	28.1687331591466688
12.8678776906398440	17.3112921354165294	29.2817910943897566
10.3194694590609668	19.4752634904306703	27.4800490893762976
8.1432777734747432	13.5334350466620297	30.0216053182255642
15.3781549283629726	15.0695962555560730	27.6165642709664212
16.9197788766392563	13.3689806793687538	27.3562952678144882
11.3308313359849482	17.8228473028531234	27.1172892173621349
12.5883723344381142	17.2673061252984077	28.1019155363822684
13.8633324912408202	12.0278340081404984	29.0806279917006592
17.4702381313264432	13.0670031726408720	25.2529348295716716
17.5839531363553725	12.3344767207709936	28.7454608524715312
15.5236302347881718	13.0357505424246956	28.3541878127144429
18.5000229156137124	15.6703187424510393	22.6297056191112063
12.6831809846030499	18.3914394766781690	25.1414961324137280
12.8977241555681470	17.0536385417333705	26.4255422715359849
17.4511519187137054	14.3160533139648507	30.1865706586058167
17.4687462346293856	14.6606885201481845	25.5720653874286583
14.0131865730572471	12.6922804018178130	25.0810227172322051
15.7467609128394539	12.8601009519481515	30.2709804145768615
17.8088319672901676	13.2710259470766569	29.6623575683811751
16.1156113537581867	14.0350734797204080	30.4718910905389535
15.8885325357448473	14.0267328241912015	27.6993644795392235
12.6233386005319090	16.4463632766493646	25.3788779627453494
15.0003027180615760	12.5714832008173829	29.3382857742218235
18.4414094564189313	14.9421184910119500	30.4216307071873509
16.6596549334636137	12.5020980842607621	31.1692661871737116
13.6198571970679243	17.4603938993606249	27.3078306705929350
17.6166942410464387	13.6649817067001216	26.3602155308786941
19.5493491392075818	14.9737471594313423	23.8572057165678864
21.0693781785792957	16.2093409525987262	26.5895976099586662
21.9474841118039983	16.7983160243908216	31.3007221655921519
17.7246950406348844	12.3207909106563474	30.5148681512864322
18.7531459619368199	13.5152456343041401	26.9723549798695430
22.4818161854341163	14.6784670959521506	25.7422822190510701
23.6427206693580878	17.0717908477767999	28.9114868492856907
21.6610684895516847	15.1795586588216480	30.0633786303709591
22.6636070846120283	14.2810516739601976	28.3316527624866019
23.2064287443050823	12.7485303031092805	30.5173092065461731
20.5357510620181358	15.7112964862586750	31.5548151710472844
20.9835606288405643	18.2128898118521683	27.2473283778115949
24.8419904898563502	16.6397063807623056	27.2551666365008103
20.6646343914992023	17.5220512488333888	30.3197320507088044
18.9125170548708326	13.1852221881295666	29.0454641041500246
19.2660841603413893	16.3861232991042947	27.8568722408254708
23.9712433203107693	13.4917142541086843	26.9993085878895869
20.8415813042078817	14.3628371195186926	27.1113325397534624
20.5552707365748297	12.7812631766363669	26.0375013792715073
22.0673266834326007	18.3742581339344397	29.0305425799775776
22.4972094423421503	17.7039113830931498	26.0692350516558449
19.4357388451799231	15.2235852126006215	29.8022685018503601
22.1991723442049746	13.0266800344535287	26.8633231352358877
21.8344553825391010	14.6794655263743596	23.7186638345614540
21.6839392671421294	12.4726448289005720	25.9131806336355304
23.8477674879908967	13.9409408467451055	28.1121701417135377
22.3455838577246588	15.1508740646816751	29.0937815848935735
22.8311030035720890	18.6508411448514018	25.4929869209472670
19.9268007924341539	13.5765946717509589	26.6442554016418711
21.5360892736551151	15.0996853942906881	26.4011480178408924
21.6257900812856292	17.2989218083078526	26.7453945336383150
19.3519546998155860	15.4680379757914590	28.6390170106695656
19.8483241712052525	12.8843131415605310	29.7348599055225264
21.7366494996082196	13.7295225127399032	27.6980161710629993
18.3649849884089136	12.9439050853771533	27.9650633786867111
24.7049115808652466	16.8985999682103625	28.4250309769782632
19.9247222832273643	16.2351766396742256	26.8658789584592590
23.0426578790056134	13.6401630051189944	26.2239569918237017
29.5444852069207080	14.8812441895739198	25.5050353408575390
28.6420356679748629	13.2006642979336259	26.7768330434258353
25.6245586914153272	17.1757649648469304	29.1505388556646636
28.5445265145131764	16.2571325366072763	26.4256588127695515
27.2771997411573288	18.1916173930252221	28.0327670702915484
28.7901038300611702	18.7068811593930704	30.3726229592631434
27.2515956483410129	13.5792498465881657	27.6677619602874465
24.9919462857297034	13.9051774094898892	28.6292939917063158
30.2049163143021140	14.8289422616285638	29.6827808393796708
25.1615265300846360	17.7617866008598675	25.1647566960111426
27.2034220940867151	11.5325493325266795	26.4793085222266882
28.5912853460486502	12.8398198911307180	31.8306642279543297
25.2982230466410236	14.6659908202202978	30.7435340228124581
30.4244686939673983	13.3075006497677517	25.1584816974004823
25.5976700490965960	12.4361693382713057	27.7651562153061704
25.4116742834494360	14.7291314563795837	25.9737494399814821
29.3616495420045567	14.9994542430745614	27.6006463701793230
25.5968449336829664	16.3055737825290770	25.8832947689424842
25.8541049927350599	15.5152768125453768	24.5138446882425072
30.1444293408844253	16.4555901381869099	28.2214436224214111
24.6305427869814544	13.5476478324641416	24.4313764733855727
28.5784663313880110	16.9021977456891470	31.0336520439631904
28.4730541575224052	15.4367726777803931	25.5617813886690328
25.4625546493715937	17.2998558411910501	30.3586836036439074
25.0650102038297362	13.9142312219373885	29.8434410288026726
30.5158686314638281	17.0906363405668280	29.3182024938377843
26.4384256711700765	15.3883484757051754	25.7118294191083443
27.8992959738153132	17.8934801179988767	30.6462291149571264
30.0847193026588613	14.7030685299768660	26.5780599239604314
25.2205502553664758	17.3752193647572781	26.3567484590449048
30.1336271689085820	14.9628196477626236	30.8580249047663671
26.6306785358458669	17.8235148647371489	28.9685919554647455
30.9732088919425799	17.1958236936503219	27.5613889620131545
27.6073701210684952	12.5665864407837287	26.9229051880296275
30.1263365580373375	15.2026644438905940	28.5744723755208305
24.9079460583128309	15.5880066329609246	26.6659800361585937
29.1400880130815629	16.2375851764703540	27.4362143099512856
26.0754728894108823	13.5405611872513667	28.0419601313411135
28.3938535194194550	14.1217749312192993	27.5178052216023090
35.1024854403269373	13.7872514896833280	27.7445570898534974
31.2731184676862100	14.5862653196770289	26.6994473757731932
35.3126594339490723	18.5395282497513385	29.9457587699225556
35.3842991473959998	16.5783443626883589	29.4980979498847873
36.2706331057310436	12.6302542555449353	26.4886600977291025
37.4649350581942286	13.0954191988707844	28.1962786046509635
36.7035311396003650	13.8770629710092841	29.2769129038336686
30.6510645610674075	16.8215699721743910	30.4941806972888649
33.5864384585770566	15.1355912350586532	26.8919724266076088
32.2434050242242165	15.2435192219117486	30.0823683237142241
31.1663042120146443	14.9000351334417029	31.5186951732164502
37.2215086654736851	17.0706865807583590	24.4566156945959889
32.6261468851637062	18.5598147847861128	26.1484668797315400
35.8262319952705397	11.9682265545300339	28.4143738450232917
36.5615931616106451	14.1524138492528309	25.8301467636969520
33.1858776986163448	16.5883596981882491	23.8329022828913146
30.7717343656546198	17.7279478806158082	26.5230696631987968
34.2806856685423682	12.3629281355463547	25.3307343573812886
32.9294829125524302	14.2313759015707113	28.2951336025814619
32.6256003141380901	13.0842437024150158	24.3981281007559048
33.1600802489164508	17.9768095214678709	32.0964990136851469
33.4142873754423704	12.1906130211935508	27.9470599282312335
34.9242395862443473	16.8751491712868251	27.2941963428809409
34.7580378374344576	14.3170754136341358	29.4299232357768403
31.2611120335857890	17.7519850490524362	28.6055369812570959
36.3528586656131694	15.4029284077312134	31.7185719648678450
32.4834573220994045	14.0971856042185220	25.5306549991776244
33.9308495242651844	15.5771471202209906	28.6609134813865154
31.5952694713649294	18.1995580281310261	25.7128299366279123
37.2093435308683667	14.2792744546549848	28.2509223124253879
32.4723089161349776	14.7418940254532167	26.6059090609035032
32.0862293823666391	14.3478683636852686	30.9021726890751509
35.8680918794043109	14.1056125493377333	26.8582402978627641
34.0077667116645728	16.2482336418265696	26.9274292386847769
34.7584323228566134	15.4934418482684322	29.5488604045737304
33.3963199275105964	13.2183354158393307	25.3969474660451162
32.8446745315829318	13.0795194973263289	28.4597849444158477
32.0689727834434350	18.6954200021239849	28.6608103829134926
34.1007218931099914	14.5553096156409314	27.9045456064878579
32.3679847993514400	14.2615651764037068	24.3165784678040318
32.8304888971334492	15.1915672012865102	29.0378945387670235
39.9680914634567443	17.8730268291983450	28.1247526911318708
39.7812273743404887	17.2163767238685068	26.6414533812588452
38.5009123929630093	14.9761309889627121	26.1957316197070185
41.5328767403825836	17.1236651173499936	26.7324639438387734
42.9576468857638929	17.3204231149115202	30.7575908220889076
39.9904439616674807	14.5049823453075568	29.9249823571358249
36.8012449973533435	14.8228038289794117	27.2782272513896373
41.3721178504083795	12.3572893237908854	27.2594736554137995
41.6091156914186513	14.7594539622480276	28.9646477697988125
39.7814884994583622	16.0420379165345359	25.4986328154502395
40.9520806749648827	13.0256219028953435	24.3800450912950950
38.1580014427450251	14.7013151771907467	31.4357102314657730
39.9306107945708959	15.7129767118120789	27.5094743500041794
39.7614981539088816	14.0292118132204955	27.9481313145730859
41.3653964586014098	14.2315723883968825	27.4690626761135377
38.6339568170112315	13.4196566773010595	29.9115151778903865
39.2021969498361571	14.7848125723222577	27.1499607696162002
40.7345810211387800	15.0390110045113445	28.1554651056264937
42.3341488857332280	14.1515762816928170	28.2033413648748734
39.5042323363739953	16.8162537610478324	27.7820074551219527
40.6427814313982836	16.2807399076799655	26.3872186669365334
42.4517105832067614	12.7172208639501783	26.8239754965619674
39.1676775548842997	15.0493330982837747	25.1844115004527929
0.7095267964289553	17.3986384178380220	29.8726124196912970
37.2998194909579439	15.0358988190252791	26.1945140424973388
39.4191029532394737	13.8157481573449381	29.1054874430301140
39.0635132185498861	16.9895525046514422	25.6975782859644468
37.5294173953577115	12.9506015676515958	29.4458259994674378
40.6302531979960619	13.2841595038675582	27.4599310039199658
4.3162783186862272	21.6551838723586947	23.3682155548257313
1.2574074670371282	23.8959336584618711	25.4181612085601678
4.4861217997450913	20.4822727465559637	25.4014563047570263
6.0855662437965030	17.8519951228956337	25.8932162858926738
2.5665954891998615	20.3594555382917584	25.9735889561436970
4.0499938609063317	18.5650006734942110	29.0983090782321199
4.9699039681855428	18.4607594806388491	27.0689875237635782
4.8339818140093040	21.8304592321667528	27.3115336882921156
6.7349849461165432	20.0346180786464849	25.1070760005400260
4.4786641939911140	22.5864803172617528	29.1367329178124592
3.6080172321424397	21.7748083051473955	25.4309587946071858
3.6544864309752936	23.3524699042550168	31.1167559780308416
0.9772858248382206	22.7733910111251987	29.0021496354692410
2.6916876617951200	19.2967209677685467	29.9507423925641056
4.2440358397753357	20.6007358729270500	28.9700978304143959
42.8224859154994775	21.9018453563091526	29.7340892240826165
1.5666739452176051	21.6927140102610494	26.3075955341616030
1.0861487775626164	25.3077015720255112	27.2476854444260219
5.5140812647137292	19.8748925117403488	25.1449936390943876
2.5106273042546410	18.4090086713810202	29.0837461684362246
3.7578488088149937	19.6960742614666806	29.5117185254258061
4.6713740321003518	23.9744970745771546	31.3798851366956910
2.9524904119859241	24.8303997768213343	28.9725208057850594
4.2956476349381729	21.3660634755156451	26.3483372799449569
2.4481726059268016	21.4918760523629260	25.4027036672136397
4.2493415023473782	21.3570700072852162	24.5089676408770991
3.7166403789882412	22.9906464209960397	29.9644854502232540
4.7829570642696631	18.0016164919311166	25.9476228471546797
3.5103362632483139	19.6786235789010888	25.6092437887574214
1.1781006674980903	23.8834973769124979	28.6276101820998861
0.8154450812519171	22.4396395020983057	30.1609782831983857
0.0647703656761584	22.0842867016589999	28.5455474020016666
1.1940159494634961	22.7470959993797095	25.8154071251747474
5.6830021817514549	22.6645333207231019	27.0318239319741807
4.6510284462931697	21.5852432575731044	28.4910016467810330
1.7609995990330298	20.6322220453708525	26.8281060653386838
4.7553128786019379	23.6095157268407725	28.5557149631266505
8.0750293773719370	21.0520658370621412	26.2143487623981386
12.0466230546478048	20.9832753145998723	25.3908804680202671
8.5866618787064422	21.6843570122372142	28.0671159679117643
12.9999686454638361	25.3748413762657421	29.9998304882013969
11.1379316119505667	20.5345234909149852	29.9960617960901175
7.3012963962059549	18.9992844168966926	26.7489949059167991
5.6449516985690735	23.6213874149629639	27.7609977434691366
9.9544485233065814	22.2385943140563462	26.9394197552746277
11.4757200774006076	22.2885782594215272	29.3056232084448318
9.0162497692157952	20.9535259448614504	30.1085342240897766
10.3643691942056488	19.6459732406808492	26.2782489144817788
11.2054002121434717	18.8968143899976226	25.2023617840052196
9.4502064707077889	19.8088059117987321	28.9871719240707897
8.0738649905200504	18.0650727852486490	28.4442293436350617
9.4731833487272166	18.5263983960553489	27.5957357672373860
6.2682424749951364	22.3356655479314519	26.0581863908433853
12.1761437593825086	22.8557017778356233	27.5889443037232027
9.2034193876220431	17.9063428928696098	25.4059268296537084
11.5700854335576189	24.2432399685827242	29.4451030275924737
7.5426830499032391	19.9533151910871176	26.0577679243813769
9.0366035953325436	18.7176678392496818	28.7546669993653445
6.5667687434030881	24.3527549334279954	28.0871048239884828
9.0100552902718167	21.4961194388994770	26.9260706661142386
7.2797852159094409	21.8359267938647399	25.7990378174036294
11.7498728140278335	20.2599767379775955	28.9817901389796937
10.9470622384790239	23.2865791017609425	29.7507811492965040
9.9922818236639035	20.0810290462519276	30.1232137504873414
8.2643378061123371	22.8084328246908186	28.2683240713866724
11.3165080959031474	20.0829018577623266	25.6281480095214711
11.0236111282261806	22.6283200845296051	27.2390318314787834
8.8626670393725533	20.8738880432428253	28.9146110851499110
15.3923632004082869	23.9435936322135454	24.6133224973229403
18.0794801316351332	24.2312402600706172	28.2500620791133841
15.2531160220854467	20.2651120950657457	25.1802265954343092
18.2274851188273779	20.6238476972413665	27.7935746791167055
15.0109135477876308	24.9759813776285888	28.1535359036125179
14.9489587317669272	21.2168750628763050	26.6185855891226346
19.1511049613087110	23.1433865243380197	26.5777007634216389
12.8002219552976602	21.0054053400104230	28.8262462916738933
17.1548231249464429	22.1084808143296954	29.0940197481785781
17.8231585823831367	18.8283481733823308	28.8341109267913147
11.3618656605062647	19.4852831755315172	28.1136171185688291
14.2906451761938360	18.1543064534937528	28.0008057186941244
14.2177990357027983	23.1503192580691319	27.7310970612797512
18.0818208111560494	23.2526910191838176	29.7338822601511623
15.9634852502015558	23.3564127435631583	29.0560032106310935
15.8908303882099098	22.4435381286230431	25.0617958026994145
14.8640876364267971	21.6434946558366015	28.6547343535256402
17.4486518490018021	19.9567183256760252	23.9659589448061254
16.4016456357871263	22.5734743385933605	30.7170349040899993
14.0330743412685877	19.5002620610739470	30.8611358443818560
17.6618528056627575	18.6073139975570321	29.9635413942980868
13.9729730245949924	17.2232678547760401	31.1380081699236975
12.3344063482800959	22.0936095482485122	28.5400545773051242
13.9501054255574122	21.0076763685878980	29.1139383794730833
15.9305375790424506	22.0798980510907690	29.0585508257642928
15.1129559870990438	23.7991429058312711	28.2551824049635165
14.7729335733185199	22.9878177249233460	25.0576252404817517
18.2558921446585778	19.4301457700222322	27.8947803912110999
15.8513244621504370	23.5567919579041245	30.2833716362185825
14.5604057332209518	20.1832189144094443	26.1597299520673019
13.1364441297934764	18.8974234059957098	30.2894639972093529
12.4516790077080159	24.8976507840953722	29.0363916299982741
17.2920622730812212	23.4684232802742585	28.8136838579308154
14.5942900536318465	21.9969079778510164	27.4719691738904785
14.9636781287978859	18.9722137963417232	31.4937122424764269
13.1117549313738149	23.6282495722383246	27.4941588924365412
14.5598598818417351	18.1384931573757164	29.1313320988309528
12.8358924350786747	21.7611509973277677	25.0123589192891558
20.2735682147108136	19.8359019935542378	24.4707734659499430
21.4038096918537661	24.2780627955424784	23.1154261857391354
24.0001016344218279	19.9795007656291759	30.6237323065420881
19.2518579184013277	21.3760176589315272	25.4790497099061675
20.3081734818360999	20.0277173311565910	26.5242722334763954
20.7757630951402348	21.8809299556748762	27.4820149185028342
24.1409292064053886	20.6492664589585964	27.4172443817699865
25.6144209186331118	22.4975717739567322	28.3862878749719982
23.3150278739246062	24.9265304465764821	29.8884924079693768
22.0095523757432652	19.9925840104755999	27.6926028700117079
19.7182055875762039	23.4840633259891547	28.5333636802041006
20.8889976872667766	21.8278371060218639	30.7837417444195367
20.9368007515725303	24.3657147994146683	25.4797406936814568
19.0242608802652740	18.5642092209887437	27.4860128986636170
22.9863030739018939	18.4363035767236951	30.4165638575637587
23.8089402853995296	19.2874753171547759	28.7915071920490497
24.4974526411165492	24.5339807929309615	28.3675279479200810
24.1227436831703095	22.9927828025558476	28.8974867572062095
18.0030054989081165	21.4691400771626739	28.5540459457930709
23.2752977433816675	20.0313171483986459	27.9703695999795876
23.6613801472754481	24.0671395308231695	29.1361117984386091
22.8361653755204479	19.6494542427879146	30.6224772923822748
19.7204299778822687	20.2991822948033089	25.4883116008252095
24.9704454983592541	23.4432829416552728	28.0757060481514635
21.0912203130931459	20.7311384670317373	27.2517482586040565
17.4990506790126013	22.3801308084230755	30.3034760173599906
20.0576589415234920	18.9325428582595698	26.9799400194411909
19.0046509353605693	23.8059355992026624	27.5794323104585679
21.6734559218331846	18.8672979032043813	28.0331183070149059
21.4382398758214379	20.0317109161016589	24.6922178266968153
20.1280206148228125	23.5915420272313838	25.9891496420345298
23.2646103525376020	18.1963563001093149	29.1217599489188963
20.6381822732371418	23.0167351692656581	27.8298544589772483
21.7846077390780088	17.9319016578274208	30.1385047448688574
19.0639650438673449	23.9095322570218123	29.4839434598151371
19.0255850131058182	21.9581934740991969	26.4624347260139920
30.2249001474656112	23.1728069476794722	28.8280246177263386
30.2997603267139297	21.3078661613958182	27.9629284659075914
27.4563408648750027	22.9009586446064262	28.6605932749299264
25.0723317544798405	18.4939871009072263	30.5396347121815346
29.5146576771642906	20.0442048524657501	28.5768139014897962
27.6537952769381299	20.1014849721844833	25.2596498830124467
28.5401115597670980	20.3517699425492928	30.3851627980421135
28.7212750138480324	18.8464431771414915	26.2991051909723410
25.7344896629162534	21.5580543329960435	29.7095733237226547
31.8843984342676947	24.3419692295041727	28.7991229333422787
30.5582540696050167	24.1515298315932476	27.2775770649368674
28.5744368616536697	21.7603010476376895	27.1272883120696768
28.2401789812277570	23.8739028868805470	27.2425898532816504
29.5723405136914330	23.4205352943992828	26.1148623904859711
28.0233964387783843	24.0625946795032633	24.4712366516977369
26.3616695972163626	20.6930745987309486	26.7132319011083545
27.4095930146742965	20.7996524462857906	26.2053514051462813
29.3074997431921069	22.2132015710449444	26.2453501906841673
29.8758223188206244	18.4871424157879254	26.2813572559394366
26.2095660434047666	21.1680257370659390	30.7497420398422285
26.5639901946268964	22.2126448556367677	29.0950744783065893
27.3735595907401184	24.0299793499421419	29.0825328455504497
28.0234208764251207	22.7621775253736978	27.6160312620244497
28.6049582079555158	19.3560404037438190	25.1880708188358575
24.5872392938583033	19.3880495139146021	29.7419986708566704
24.7461574286225670	21.9623978001490876	29.1311831473966443
29.4362466217997110	23.1374854878720946	29.7125832808796666
30.9939496157317507	20.0848704027185683	25.2694187314869545
27.8745464027823964	18.4863026043691789	27.0721288908129374
29.1349899701196513	20.9930652380695939	27.9023573596161469
25.2772244519501683	20.7695687975429628	27.1654187380819501
28.9384187272704771	23.5211999335561472	25.0211118999627224
28.9462892961980103	19.5799344661619621	29.5378732820004366
27.6820956158941129	23.1794527712448790	30.9691860791120170
34.6840169038956176	22.1274924916351878	26.7444880187239278
36.7535469914470241	22.6202314038225509	26.8691697944298902
31.0606305356689987	23.3162324821777496	25.0306957097416181
32.8396623832807180	21.0692718119482407	27.2052441905934259
33.9985239029181088	23.1418202453159267	24.7300125018300250
31.2529507263677182	22.4688393635514778	26.9057245178369051
34.4323249622346665	25.6504150529832664	25.3198561901870853
35.0436400752777431	22.5659425488346486	28.8269581903094760
36.3891039149957507	20.7971892404905851	31.2219971721081606
33.8104213287521773	23.6490925282133730	27.9332488539452299
35.4309697223932645	23.7002108248823440	25.6674088242808480
35.9641531628040525	23.8853225150177053	27.8027194806537210
33.9930593871714777	19.9826007043647245	26.3586225281123454
34.0024773248743912	21.2352330044952957	28.2406318091416324
30.8512303131672780	21.1119204641910763	24.7147096941506810
33.2191364309290620	18.7410931507956349	28.9534940214747394
31.8707221884124898	19.9125588380868486	28.5642132824420436
31.7412136226263790	20.3108927345458596	26.1670220902269044
35.8926905049230527	21.0086335337190029	27.9942205540460023
36.2852428166263934	24.5319488094281262	24.6410273623411946
35.1991850998054261	20.6076488631398149	29.9584021711564716
30.5742961357986900	18.9164208218971623	25.3587985486155070
35.8446867938195837	19.3085114970754752	26.9728414701394250
34.4530686449562253	22.9103175712929854	25.8223872654307307
30.8473147032921631	23.4359411562590019	26.2506723945854112
36.1594324696506249	23.6447559862522318	26.6469014659312897
32.8989894644484835	20.5616958094758786	28.3171707684500227
34.3143516194611564	18.5989936822499367	29.2920834924220159
32.6621715752511435	23.9530416574458549	28.0036352018858956
35.9323548263467529	19.6395335233943236	29.9598060903057686
35.2444835133997785	23.0339725943182216	29.9487984066724451
31.7936842648699489	21.3961156682897524	26.6897694850734339
34.0802157936519592	22.4555930027173893	28.0396138615146242
35.0880898764057392	21.2256713936943555	28.9106235044457129
30.6425411430923482	22.4543406264119376	27.9564935998479882
34.8209132083416648	19.1370803190488417	26.4196749322923949
30.7342889035608984	20.2746169913120475	28.4299343047395610
35.8316017625179555	21.8384540694108757	27.1362339410546731
31.3603532586077485	24.1257080584089074	24.1876338467702361
34.0303452745848958	21.0451964976708759	26.9169377862285231
34.9085720671046573	24.0272586094153979	28.3944735765932457
32.7891649976012687	19.7230551458914540	26.3372092535537732
36.3728759346192518	19.9409427296258599	27.8039662263128520
41.2370418462761776	19.0092902915368320	26.7063664373896152
41.9126745161148051	20.8795156885001489	27.8331460593426634
37.0696785739431576	19.5735531912304062	29.5823646198224957
42.1867814159149503	22.6870085476679684	27.9416426696989006
42.5045121857565391	21.1331298823752007	24.4696730800394207
41.0229922884330307	22.7608084082743396	30.5855835346438774
40.0020867860106790	20.0212117461881469	25.4850995965234866
39.2743371267974055	19.7095454025380903	29.5019802040832815
37.8157095678472643	19.1784588774638465	31.1814057220193313
40.5553130025432367	21.7496136599610708	29.0949399552585604
40.3919302850123216	19.8466830428182455	28.3004287018297411
41.3860142600030372	19.2378534632478910	24.4215909888851854
38.5451517943672997	21.4447562902697761	26.5546295371785277
38.7631685620763946	23.2422811896181116	27.3348069465646333
42.9161476735697818	25.6463090096757185	29.4631451950085292
39.8071732863350221	23.4028340959763383	28.6355271720617957
37.6748402318931994	22.7520998443826485	28.9494341955891841
42.6506299904342185	17.5930396932587847	26.8036397672744116
38.1770621756553865	19.5193551015724509	30.0287212006299207
39.2641733284762680	20.6093649247440638	26.1754555600633836
38.7558863667790945	22.7989285612159129	28.4908596256740907
39.7626044414611783	18.8973502271569664	28.6994169914905974
40.4352563421140374	22.9033354896431334	29.5397224350301286
41.3551473737255151	19.8659246045254854	27.5735749512657939
40.9206638076478342	19.2780697166727677	25.5653005262833659
42.4858967216958092	23.7526350588008661	27.4754301880626741
41.3000344533736481	21.8581053837571240	28.1082262587039686
37.9754583912491199	22.4578329999029833	26.7889870582030696
39.9860865292579390	20.6701260023961240	29.0863683776918123
39.6729629871574687	24.0540841071897447	27.5850248770100031
42.1618452921972349	25.2388631251594404	28.6132123924010848
40.6949282430084480	17.9931592030813832	27.0985554407827891
5.6859328137010809	30.6511968002758799	24.7924296567307536
1.7705923108153689	24.8953218194927750	28.9810238580205315
3.9452004016602751	29.4299421097299678	27.8722086926647137
2.4546591038017089	30.7806922740234192	24.6476744348162775
5.0878312192320765	29.1366349976744132	26.6836186842774516
0.2976987636515963	31.1700053588324906	29.6932521054788801
3.3609328827044238	32.1787536148549478	27.3323291294266362
5.5273933209211661	26.9751132624232000	30.0979334136220658
1.7382935852208909	28.4491185345243771	27.8432396199218175
1.4256859557005561	27.1028959939511296	23.9456100667116090
2.0344121092262220	25.3422134038885858	26.5206074610118741
1.7777226445811851	27.0567354179456885	26.2683199127780931
5.3640851855014526	27.4348143119344421	25.0602834260330454
4.9818749774791922	25.4127521305094355	24.4683060723126253
6.3064953303535045	29.9013751453482932	27.9105352318276339
1.1133449099019548	26.3278626315654058	27.9360103798592334
3.8262404624469530	25.9999499211736094	26.2260180643357863
0.5433557032392938	24.3076721165262590	27.6958562756816455
2.8027764432588897	30.0766974834399008	26.7798553422777630
3.8233264633040269	29.5219031233864158	25.4412207815228371
3.8206347098332452	24.0730974669373090	29.1838811064897605
1.3929148542531906	27.3988922545716704	27.4055307997575994
2.7360598034275516	26.3221981827725990	26.5287830917051366
2.0534966923059721	24.8064885065642464	25.4598911599425222
5.1784292475096256	29.4043840693085343	27.9091881322701951
3.8955959446951867	29.5291975880930373	26.6638964452181746
5.1293111540607841	28.2469026999640640	25.8741242394502358
1.4768614709169861	26.7853957899215409	25.1195646255234912
4.6505172149482314	25.4344510102077628	25.6280717771395459
4.6488655448382294	30.1371892223001723	24.8571542376757648
2.4947917802490771	29.3717550689218569	27.9017675610211668
1.0163240312389710	25.8643299577817771	29.0545404536106950
8.0355641179075210	30.8851634050887114	29.0206284704387301
7.5691048589593519	23.7314749573655668	28.1983301298383964
12.3925072155921985	29.2125754208187445	25.3055926763796961
11.2711020076551058	28.6792613624011814	28.4663567063046372
10.4590973340941851	30.3560411916022872	25.4422102263551508
7.3899609609544861	27.7258549620988433	30.8876611572136959
12.9563684266089325	27.2027216265130569	30.5543135694271619
6.1272948115908825	25.3924328083254878	28.4858394963272055
13.5550432658480560	31.4635135039355269	24.9215010728397708
11.4058133900491736	26.8676306523522754	27.9381172358384191
10.1456763558255449	28.9400857335009647	24.8798733559635039
7.0747852142595811	31.0436939853609459	26.1030766118910620
7.3123992611691468	29.5983761403952137	29.8932556305374320
8.5014028131645745	29.9942310689478653	26.2392357205779376
9.8854677578660795	30.4167306343266546	29.0198340698579749
5.7606043861530871	26.2914351306775700	29.1400821979168505
12.4012258680235625	28.2599052179645795	28.1708235015908883
7.9154728710432343	28.6907590322297672	30.4549976033398266
9.4638278973376426	29.6308611190126889	25.6437913326058933
8.8698149994540252	30.1079919731386809	29.5642960979949727
10.6774452097664092	27.6344305490754216	28.4323071903073625
6.6697248306424948	30.1438633094200235	26.7858663033399971
13.2107749457656798	28.4516880147367104	27.2756077643925678
17.4171550522154703	27.8327059331601134	24.5151962185883967
13.9700861721954812	29.6945748964376222	25.5404344652874649
17.1430644171800637	28.1303480964486390	28.3623052276886938
16.4317604385735940	26.6238489506257210	28.3069209210849948
14.9468287540835423	28.2895949944840517	28.4485668547119275
15.3296106695409620	27.7309551665097835	25.3995872536675478
17.7069528559247935	26.1391467842704124	24.6125468480625500
13.1094361714167995	27.2129338214938059	28.4460174450854595
12.9961387354038020	25.1786145117890392	27.9146874767248541
18.8120332143449112	25.1381407190448094	29.6747243246699135
14.5999388023855481	26.0134705748720698	29.5417050247686923
14.6411591302018174	25.7174941423481087	25.5396835911265718
16.2156528505454887	29.7111457050869241	29.1853299809506517
14.4116470861339465	26.6867582612233782	27.1591410066165437
18.6054887575282635	26.4343582157649983	28.0746260114649786
18.0093808988665742	27.0229195044633066	26.6137489267540417
17.5487944463250685	27.0397458649108877	27.7653164536001604
14.8397487970823416	26.7960902349911905	26.0058872451331737
15.5108144796439493	25.9316860675726950	28.7273221948853177
13.4960919118017237	26.7603134598400665	29.5769350589892994
11.2218278028002558	29.4494753911209344	25.1932096525264910
15.0522152781372967	29.2486588019836695	29.1813983674529354
10.9449350937042489	29.8359725931415021	28.7330204010839410
16.2975470291207465	28.1705971537735245	24.8775290873353327
14.1561502678507392	25.5337123074874022	27.4781485456664107
14.0800435335338747	27.6913408772644409	27.7797469740110436
17.1570929098671563	28.9419680092169997	29.2590341612007414
12.4662061947164382	26.3544146968458435	27.8317587708155578
13.0701100365756329	29.8371892074270129	24.5045838317538269
15.9865391329094599	27.7498849749979115	28.2641935482731128
13.2120546854911751	28.9418389808410126	26.1803711758179958
14.8385292179891835	25.0197895934147425	24.6060367950814474
23.0500258282316395	29.2053238951351659	30.6721288602588480
24.7303256482586562	26.7657837095173115	30.0404248360878441
22.9423114199698404	30.7930617574413681	24.6281645215592597
25.6425896373698592	26.7637934604341261	25.4650384415933253
18.9783562994448793	30.0521968548569731	28.4710695167018422
23.8052852011275036	25.8979873973652239	25.6573966643019737
22.2960338260314970	32.1146962852460049	23.1621669836994606
20.1596716086811121	26.8943422095438933	27.5643268652792983
19.4111753469840949	26.5267109128294578	25.6257957117942290
20.5959523733435468	23.9825128100273588	27.0510555456900832
23.7939572820179279	29.0102494351499089	25.4710509125003988
19.7195717564102786	27.9523896714824893	29.3795154927809001
19.9856556793613471	26.9375334952043985	24.1315518067358283
18.3576847368216285	31.4840148001250526	25.1182926962158923
21.8626719001597465	25.9363318625543968	26.8012519407473064
21.6660706371932932	28.2782109954911256	30.4264721811105225
18.8930038683809371	24.8449868687811595	24.2811638229719833
24.1373849750722833	26.2148483042883846	27.1866618871368004
21.0407650244581745	27.7119773812878982	26.0285639259490722
23.9384716640404456	28.0609242526062630	24.8021503637763345
17.8902953006779342	27.0305496676334585	25.4095765380043197
24.7993380066790827	26.2932091363776159	26.1698250954094789
22.8094531325634691	24.4633998490897859	30.9036545854679510
23.0483515009499129	25.9800563969189930	26.5741491078094576
19.1606538100161181	26.5981979991071569	26.8336162772761924
20.2428541968479507	27.3571320927430683	25.2458575166395143
20.5626496985023124	27.7756409807080615	30.2394145206012439
18.3003614569166757	25.3820282344183070	28.5870486696630088
21.2017839743385395	26.9734996805454443	26.9488243969395391
22.0058549391128366	29.3998670723059625	30.0570801697866905
19.5380394002051574	27.0638249487810292	28.5738618095884505
21.2148636384202511	24.9306031447682628	26.5662478944906475
23.2530896819097812	30.0480552522067015	25.5371030390669382
29.8391860822609054	29.0594562383105739	28.2434956897905849
27.8280366316279455	29.0627062211996083	28.3442477192515163
28.8343331767084017	25.6083476772563756	30.2418175170927839
27.0864323095165069	28.4644754490138432	25.8005884659993932
27.7567610548721007	25.0594685558433419	28.5572045596784996
29.9424239520946465	24.9581125487325224	29.2605604511766089
28.8153997085357645	25.4597384136095073	27.0167401580828646
28.7533210184928301	27.6975772222796515	27.1227605463965098
26.9637954244559559	30.5141059248124620	27.9196133759285665
28.8446752715256309	30.3862604624987149	24.7955867610296750
28.7454529832188754	29.4433639504165434	26.8238179445537170
26.0615214047446315	28.7962633062901752	29.7409792890488589
30.1796897073218453	28.4906910795818789	24.6808324573354305
30.8014444589581409	30.3304888984139644	26.8189028391510398
26.7657217937714655	29.2893601874777794	28.8673195359771562
26.5337545457161994	27.5380801307892646	25.1673484094796898
28.1742680597158497	28.4529560566867588	26.3631326066917673
28.8096941115884526	28.3738378043811323	28.1585414744416731
27.9994266015262774	30.0174986943371280	27.6011775346237833
30.6663430533037165	24.2979705958369046	28.5131865434872651
29.3759776807163639	24.2938601647669508	26.9462860104907733
29.9446025590123632	29.4910640818874370	27.1016628608913166
27.7629095849918315	24.9617168892095158	27.3694394196494244
26.5088571052762170	29.5136701191661750	25.8971388595360317
24.4234062834335646	25.6955436342747063	28.1957421778993229
28.8129564301427905	25.3689383041693155	29.0563083909089848
29.1067945136741599	26.5840289216870964	26.9054395778396227
29.9895593539443119	25.2257896805657893	30.4666614337802351
24.0894466780606464	25.7716451952432664	30.3685549969555453
30.2871823380948690	31.4095733878645049	26.7193608816985737
29.5452090109948138	29.4604935916136057	24.7450648672345359
34.8314903232476851	26.2592309760434972	30.0676714829063130
33.7147959800595913	27.7476704730548747	25.5809440353965023
30.9891033232832811	30.0469549490906260	30.0649142778087821
34.8974614758906441	24.1633337681130200	29.6057369477691310
36.2318617994486587	27.9592245610180967	30.5651660568303392
32.5133322637558209	29.5134444626970485	25.6568459210920352
34.9456633103684595	30.3117182234697005	27.1306784918614241
33.1900745044219718	25.1743851242145951	30.3571508290700223
33.0261552672134684	28.5106105725353558	27.3655239053301784
35.9487305393807617	30.0454618655576482	27.7810775836174209
35.2220228584368940	27.3612186907461208	30.2126763528846318
31.0557984910245608	27.7723164749555167	24.3288766178601250
35.5900940888202442	28.8827561531377803	31.1399016584486716
32.6727511042710361	25.6571435538609656	31.3388534492970869
33.0497992461743806	27.4087905898456654	24.5845168964611638
35.5246225176971961	25.9729746533718249	32.3165748415976211
31.9951679695180218	30.1717477921048136	26.5595304174080447
30.4706590559344228	29.5011525133199974	29.1547288144379557
33.8975403475340329	30.8917939724406949	27.3437161672242155
33.6357962095206631	28.4710556960936785	28.3511951448097399
31.9423368683015880	26.2187377806160029	23.5032757105632406
34.5965168391066484	28.5973604209660444	25.2681940731100951
34.3513599127319935	25.1735737976683538	30.0164215418049736
34.5329350225824854	26.8001235250396093	25.6813672860884559
35.4057537675197409	30.3411110477924311	26.0215047710388774
35.3682247649252446	24.9050609990356904	25.3477350265699322
32.1607292289675257	24.6496068919272702	29.9244778830388753
37.3837375712491493	28.6546393276868940	28.8782674243475341
32.8279317678680158	28.4163709393741470	26.1802076289870485
41.2765706902706881	25.6705373688822078	29.3379740921649663
39.3518219485237921	26.3177262823279996	28.3784035381473743
40.1262749892277597	30.2215928061618548	28.7563442479866005
39.7196098309517041	28.2424445270095070	27.9616493026553847
41.8852090733638462	24.8060737639206863	27.5157526466955211
39.5691236062118463	29.2006929481420414	26.0879883502085725
40.1428082719234993	25.1921594063428529	27.5202651225909669
36.7374430685806956	30.5171711040868807	27.0016507239535812
38.0850865267843020	25.7609164799806294	24.8034734200979976
38.7883775612453618	27.1928245340803230	26.5971060341090073
38.5369970280085141	28.4332389328795578	29.0657386641024260
36.4544043561102029	29.2167437205191192	28.4430205390749471
40.0701594628895847	30.5237791790123936	24.8185768322598044
38.7309944890894471	29.5947416156148861	27.5381346278148840
39.1563624691869805	25.7146985580341330	26.0206599702174728
41.3155506272977959	26.1436299878363698	25.8363233207266383
37.8829553800009933	30.4644364549151128	27.3693945033722024
42.0649876173371027	26.0891386588982073	30.2375111945702244
36.6792710141061917	23.1314162562730914	28.4432559635781672
39.1613754263947911	28.3175322958578342	26.8823072695595364
38.3565915887254931	26.5852667356577435	25.6532570495471504
40.9574915651693345	27.2406166681961821	25.3380675951596785
39.3011062231383548	26.1440375091481485	27.1608410731315111
42.0946555804140488	29.0596391081510639	25.1186656756662607
39.3659382423506088	29.2527344743642850	28.5514206629213483
41.1347537109904167	25.4586726372674335	26.8320859969334116
39.5822169177857219	30.1319634855821619	26.8439624397251713
39.1568181390018921	27.4485381964610333	28.6801338748059109
40.2432173722023379	25.5928220757712701	28.7210137048007610
0.1854947375282030	33.5940493001771898	24.7609964507351634
5.1225010483288500	34.1717856158769635	29.2987288711095246
0.0852162920125849	33.9301174865591832	27.6039061181047565
0.0183069032892410	31.8074782931446514	26.6969784273029269
3.9123502678186743	36.2190177446450647	26.7425876234303388
3.2847385045022008	36.6581663580458184	24.3641724555436525
4.7788181903906901	36.0892770832434735	24.8383623106680140
4.9050090907184689	32.9175646866278910	28.3406440992176094
2.5455329718246360	32.6451177566983830	25.7002816778853180
4.5773454878230515	37.8474488704311653	25.7886824554448069
42.1206870113973153	30.2396537682836666	25.3443684281554056
1.5400235535393270	33.2447943797115286	27.4565991790631969
5.2712933200027834	33.5949664797299548	26.9447212817234529
0.4551684489004786	35.5753146950838683	24.4998173985689576
2.0698052709589758	30.5354955281713849	28.2945409101989931
2.1194939661641139	34.7330486353670977	24.2174061004098888
5.1771542073705472	35.0093468678456006	30.1206267867230366
1.0699585752490879	30.7378904046216661	28.8895188798792688
4.7463486535511326	33.0148717229381603	29.5048464604247975
0.5457581473811625	35.5015060735527470	31.8155275786486520
2.5100843860657767	32.8922127220394032	26.8404282491870418
2.8439920233425009	31.0894207138116663	27.5051828156601950
4.2500004895424679	35.6209527718368406	25.7961849372778076
7.0945121305681917	30.0905678295561714	28.8109453934990434
5.2968673983922487	34.0436316112715218	28.0894099207134396
6.3335204602792263	33.6526971151271113	26.4248648200008631
4.4846964762717709	32.6164381397984826	27.2577908163848868
0.4290987565502365	31.6974416100566536	30.7418464820617210
42.8884855613632396	30.8562770052479003	26.0385464369893782
8.4816365536389551	32.1353729577041065	27.1414273565696220
9.3434204962248906	35.7155940325482746	28.4712522786518072
9.5876342568107003	33.9784832113725557	29.9316661485164417
10.7602185492356757	34.8390461285214528	28.3563932983500457
11.6663102509216969	33.9424548018864556	29.8336784970251365
12.0210205276697462	33.1920551525791367	27.6988820916594420
11.5306445657413690	30.7700705812315647	29.2195883111839407
7.2374136725911100	33.9347730833480554	27.1649243484706631
11.2368088312708565	32.9673935355288634	25.5092036848945689
11.0847605332023509	36.7485619568185911	27.3220422401459011
10.1364204380831495	32.3637234280185737	29.7952487269588069
8.4292659413946271	32.6593431978623059	28.6414679037921047
7.4822898568181184	35.9341597372037995	28.1929407347483014
9.1082266988133824	31.7960708203543412	25.6552586906294700
7.7930146450920112	32.9783900456230157	27.6956778698436281
10.0700650768916375	31.4197963609942903	25.0563045893249345
10.5695555918327582	31.2206538361143195	29.8764010465838403
9.0490646683638811	32.9052459856889072	29.6511509114263134
12.0144023927378321	33.2417819470127966	26.4549241901035721
9.7422951475451551	34.7006690044897610	29.0111033416584334
9.1980269073723910	32.7828863048860839	26.3244868687350824
8.8019424895475638	31.5448008007459144	28.2666806457099717
16.2733096852287318	37.1908461286732930	29.3712221126738520
12.8507081758503698	32.9162194685077480	25.5637239415564395
15.4304559076718739	33.1675228027578370	29.2544641870539976
18.1927364180363860	35.1731460874010722	27.1011424724449164
12.9358794691338339	36.6753753137348539	30.5758684551397835
15.2261328876501985	31.4529633156951256	26.0323933887643157
17.1801007202066209	31.9106433136120842	26.8058759891487384
15.8257268206699635	32.7200788704610517	27.7842624304215171
17.7503154564738033	33.4504253161808620	25.7260128569527886
14.8383142455516630	32.1824297299971533	24.3278500473954047
13.7245629440678805	32.1177315269805774	28.0836398041091471
17.5712063471399240	31.1730737591589318	28.5140086531312598
15.7153652471797560	31.5973015634623380	24.9519527345637151
15.5344279085993708	32.5650187549125576	30.2787169035828967
17.9978208736177585	34.0610412686988298	26.7401217603791821
12.5540993599847219	32.1978481124961249	28.1632474169483054
14.7789623681857876	32.4684049293760779	28.4385011910921506
16.1498414635100076	33.6594243546023648	28.4494857859937191
16.5068098483820798	30.1665516525475574	23.7742077172055879
15.2067932433112762	30.6705558842543411	30.6309874316281388
12.2657213052117324	36.7636399597541370	29.6057382755966785
18.3782806263497811	36.3591632006434935	27.2158434578829933
18.1654104173979682	34.0031964760711105	31.5938187815688991
14.1358958035267701	30.8578937835927150	25.8573574281465497
13.9323003780911812	32.6260570886041563	25.1017958583767395
17.7189780914295198	32.2113436588574800	27.8463099814762671
18.5796528778912915	30.6789175573678428	29.4989497797506495
12.0775747717629365	34.1920553630130399	30.9841783090038732
17.8740114878243013	32.2470976530097957	25.8691807526230875
16.0601177807700921	36.6301519384333787	30.4343149123675509
15.9618272732828732	31.9353163552067478	26.8768693275731927
16.5646180021304907	30.8714506151230736	29.2034319678383092
11.5650144048476804	33.9487904250715573	28.5974563941914610
23.4579013444669826	31.1329503950524895	26.1776225300983008
22.0074340910583039	32.7776480578558562	26.5959617057974960
25.0628626041756739	30.4465260965370774	30.7643113162601729
20.8667194369103051	35.9874364832661726	28.9746962269013899
24.3332319327571867	33.6281142351750901	28.9293509702442151
18.4459450043655977	33.1738369203281067	27.5315356982931085
23.4305269226132395	31.9123656387061025	27.6471095605154922
23.0403803056477621	32.7803860714549913	24.7335474100392858
19.7122812951558153	36.1071407469483177	23.1030672046996948
21.2017108894319897	34.1121055690229653	31.1053351383244951
20.6999757164426654	33.9341581695217869	27.8340859066744564
22.7380889193304725	33.7329988924904995	28.3131169286116275
24.7957214163487407	35.9827464757555902	30.2620652417309692
23.5774157089208174	32.8131590961363599	28.4179550512645918
23.4554065660982403	34.5798817459664178	28.8570636165782730
21.8088559858286395	33.4378572622199002	27.5941681878828291
24.4356976993279176	35.2628887198625591	24.8889707410125851
21.3881968619386669	32.9950722073087306	30.8481021017552202
24.2408276043574844	36.2795729214768699	26.8661745080570924
19.1522657815583308	28.9923018752260084	29.0876819111928029
19.8106309260342037	36.6113158290751102	28.9791869733041523
21.6486391635475677	36.9567206083728479	29.3009577603076821
20.8854155775302210	35.0308322695921888	28.2974775582551352
19.6003006045132331	33.4548318358080010	27.7091595764181662
20.4724063573365207	30.8957987532058915	30.4711960759654836
19.4742690743443276	32.4209415270454286	30.5757377920294608
22.2220315692055586	33.1692768107393050	25.4813248965524828
18.0032049274315717	30.2470201237097811	27.8181179727152355
22.5775331364557275	31.7250885124471829	26.8064295156467267
29.6782306020140929	34.6966146057710176	27.5887983647343802
28.1808172265050416	32.2888098638966170	30.3233467857080363
26.6592399171325098	37.7056405141323907	29.3308773179314812
25.3142507788929692	31.9628695114572103	27.2983768558156612
29.1898527180841292	31.6198846074605875	26.3907900413720213
29.9423467845754274	36.0032011661846525	25.6023993029371972
26.5968396759575754	32.7860403745110460	27.7844255471131198
24.1899420445173732	35.1427731580102005	29.6192115379907825
29.6130455889287560	33.0277877970876474	29.3725398623497966
25.4071719807756828	36.1415433471801464	27.1462454011414955
24.5108440078653196	35.3501977831571992	26.0829928567979223
28.6285090939103064	35.4761856922025345	24.0530980305427988
25.6308085306484763	35.8806346403448444	24.9468373924542881
26.4092368985398593	30.6719870133652179	25.7668433193477853
28.3087975191273848	33.8009156014882137	28.9916917158302674
25.5258203230389675	35.0166535189223254	30.6100994962686030
24.9509124026371900	34.2081764852693837	29.8462754707647946
28.9257662386404526	31.9720306412408632	29.4283096105186424
30.2367112232042956	30.7826948912545895	30.7194984503246999
25.4700059343349103	33.1233395604983727	27.5228835773447358
28.4903780249529781	31.2205933565409168	25.5347261983803264
25.7386033734584316	35.6433717997471575	26.1263630587181233
25.8546903777839461	31.3452641565524317	24.9488933676671003
26.4303422671329642	31.5336181744775637	27.5586965749750021
27.3402980800857947	37.1561148808871238	28.5322464799602145
30.9974695432202338	36.9523819505897535	29.8303055819605660
29.8104528491119432	35.6335496138788770	26.8416085334829830
28.8539722397803864	36.5679076440227604	29.9567913074486150
26.4713271005676845	35.0041007200816168	31.3470924013940433
27.4383959583595889	33.4107272303048433	28.3198190717630816
24.3357141305699010	31.3587015147304093	27.0178622095758776
24.1625756450258109	29.6407959674340908	30.8127219855260499
33.1105134382024460	34.6920545949107293	29.8843236771057121
33.1424740487442762	36.6091821422217407	25.4307113587584830
34.1185587269525641	35.7354547479836384	27.1501363826480961
36.5293313635168531	35.9340306448323332	30.1127200377723305
34.9397865301560557	34.7494455598243945	29.0652247806346651
32.7651991284974713	31.1530996882709239	29.3139231150320008
31.5053336225565950	33.0967445852760491	30.5149841280314504
36.8666997987398446	32.6085754640282630	29.6569000171147721
36.8135456794899483	33.6327664955732928	25.2169315244587153
33.9639405178110394	31.9713702574793999	27.9013923347966539
36.8862684148964846	34.2976505444670678	30.1884920013668321
34.0021296337765122	32.8110761360774816	25.9652028337749030
33.0671607351668868	30.7424512650446466	26.4780299696305299
29.9197257878001004	31.4198927626173621	29.7492362485187876
29.4481951014452967	33.9815106433416574	28.5381815378088390
32.6618220277858811	35.7812764587258130	29.6368940838897146
35.8445047939070633	34.9510564736969016	29.8823932022547289
31.9019689792721977	30.9029967446878224	30.0741302175659442
35.4275400575197850	32.5633681417288159	32.3177363224205223
34.2018179296651681	34.1012012491030561	29.8122576094348304
36.0189078983233344	32.0957655922714551	30.2872097685855124
32.4521388489293443	33.6651265276501164	30.0449529100146187
34.4209961754186793	35.4020290782575699	28.2198231219781803
33.4467608183208682	32.0774560353910587	29.0033828380163605
34.2187223064518733	32.8219513824130615	27.1113564259460702
37.0735417011886241	33.5625960351882853	31.1692505777400832
37.1952637390076077	33.6584930368406106	29.2065743744217983
29.6527765942637735	37.1714491647639846	25.7221551759238025
38.4386100254128706	35.6138324849868226	30.7971976816138628
38.2577540370696596	33.7782106350554301	25.6376833699735549
37.3874475369622985	35.4268313921334226	26.6240251934098495
39.0158857624483915	31.0811625862598682	27.3898937917530034
40.5677054795877439	31.7641397255035649	29.0775118532929042
41.4334996156520177	32.0455617487462092	24.4319472811755780
41.4132661897075494	35.2537838954189979	28.0441610509090857
40.1651057478276385	36.0604877480453183	29.7315455461954201
37.8349482623775728	34.2429513085545025	23.7681723095719946
37.9465274592464041	31.7485132719753764	24.9943801182655747
37.6207375919478579	34.7274677838198400	28.7922746538999235
38.9451957177292556	31.0675028645553404	24.8229791600723004
40.7691769677261675	35.9370848846865272	28.7453481075614654
39.5925313680706594	31.2640080657356769	28.4237233132248406
42.4149045911284048	32.7494423691157905	24.5290967165375662
41.1203050361321942	30.6718586692859247	29.2289462584342878
42.1733013708887441	34.6543989312330041	27.3978307632889582
0.4524490770687759	32.8616264902627861	27.0170801964303671
37.5398338020319216	35.3078039980742489	27.7708466481434151
37.5988083049128505	32.7640839861108546	25.6158587899979473
41.5796553555858210	36.3895499606376944	31.3982388964337851
39.6202042282085074	35.8820919911961127	30.7836194201945901
37.6168545329693274	35.3690589117037959	29.9068121212261779
1.1571819250990951	34.1566327666656235	28.0970825443234951
40.3715145119483765	34.2465096678513063	23.3715479690386800
40.6840870841527220	32.8749899125718201	29.4175011963950936
37.3584652149721421	34.6070214125890843	25.7654613105347288
1.6495873499801679	39.8892152811417091	27.0922354688576625
1.0410732644757641	38.7216558942063926	28.0060588897554972
2.9288047050566925	41.4979937203896156	28.0107652070570445
5.2472861743556569	42.9227724339742238	26.7184480178517418
3.0652883627104965	40.0348432621880264	24.2744242137088158
3.6045160500497095	40.8772839305224878	29.3808016092293940
3.5910612313375587	40.2487708054246340	27.1975263271043168
1.1061571884482209	42.0069644947672600	24.4440736693739993
1.2120271315935980	42.9409681364400697	26.5952565383911939
2.2878755405963020	42.7480704364700159	29.7582095990861255
3.2483497845077545	38.3887800514595625	27.0883695995226326
5.2775853139961590	40.7902051366358336	28.0927978421939564
42.7687576583521007	37.5739403280433564	25.3216782138416470
0.2292129780940000	37.9491082040763743	30.0616473057704567
5.4112675766853604	42.7268427150101502	29.1317384128455501
3.8072008711777925	37.3962997711135827	26.6669700983970337
4.2428412302650358	37.2045376169353332	24.7797807065494347
2.4922466283215692	40.7401100561570857	27.1632995163675730
4.0945617367802774	0.1766540384397462	26.6962717504118636
3.7756747174329002	39.9770035805452153	30.1168633662126695
4.0816592547428527	39.2545304949523910	26.7864001053312215
2.3942066436905809	38.5585771461309932	30.8093763506873124
2.7913376947762272	41.7974794619866330	29.1675069489829930
5.7407728119081307	41.7177104230987652	28.6598569666989462
2.1280460514613426	38.7890486240804506	27.3620452826591816
4.0398618943955356	40.8232312445538739	28.1641206090857530
9.8514252316097828	42.2590643065871845	26.7710695215304533
9.3402337342194777	40.7093824999633824	30.5685519942415098
8.9800350075097839	37.6126517848982047	28.3427697941209615
7.4020727297477649	40.5024979095209829	24.7485718007767055
7.8407935602969632	41.9814567001919414	31.8277441314042946
10.1458511934637112	38.7530110782296049	28.5476007723091847
5.2813936100104133	39.3616427018593456	26.5790361043997407
10.2465539326413335	38.0135709830799300	30.1570876823193288
8.0617662926136759	0.4666198958700903	27.9458933179912350
6.9117674265237987	40.6770150425925578	26.7148137448130676
8.1915268518008144	37.1358832183761578	29.8464213933938574
10.0191407541679354	38.0493646123800175	26.3973575656335484
12.5830424084782546	40.0005401725877192	26.2862691805457303
9.0392332637930668	37.2033874469127426	31.4453454178944902
11.5209752788163211	41.1245178464971843	30.3592497016837051
8.5481787279906136	38.0836487790153484	24.9210354654214044
7.3798324537047959	42.9230175968559422	26.5755693173945353
12.6027186459311089	40.6445942046673494	28.3552378146975883
8.7965436062896369	39.7538281741335027	25.8867284350156872
11.0637247669901946	39.7719278919893284	29.4525831999417171
11.8512232521015282	37.6172987609658236	28.9042104090614309
10.9483598103020405	40.7471978598814175	27.6157936167225806
11.5940041383802512	0.1929229637225416	30.3717269978429663
7.2942914379553665	37.8136613915637128	30.2044176610243049
8.1571066589949037	40.9736014683267769	23.9620824835109154
10.9818554896945404	37.3465703029621210	26.2677576592024735
5.6288329374467487	38.4691885947655337	25.8369071199052485
10.4261021248958343	35.8946270275118948	27.8372839563860062
8.4396258708346323	36.5630037802431431	28.5392758307085366
8.8316665888718084	36.4208219814946332	30.5348268392262732
10.4955568610653955	39.9133014343665948	28.3527270177632182
10.7132798025733766	41.9474709519542017	27.5646977772206121
10.4815363086343325	40.5096284501162316	30.2917394814453864
7.4601573637834377	38.2941672023401622	24.5732109516885266
5.8602375424217996	40.2778934810727236	27.1260214573641711
9.7969561188989118	38.0625878894851013	27.5798479328020605
7.8333338463610200	0.2110742551844404	25.4356883580104238
8.2536604027743419	42.4513431124720526	27.3231454264012008
12.0939338179462350	40.4824687360968625	27.2935338124349407
8.5571220668072510	41.3979611940257755	31.1033935264924821
11.1208126263962956	38.4973620332032525	29.3568535179528212
12.1478195154171260	40.4577736846188856	29.4990838174404608
12.1194383223150268	37.3914859724673931	27.6985371910882314
7.6606552630942026	35.0007408097224086	27.5277727704343711
9.8486914770934693	42.7441687066841141	25.7152960647766875
9.2140474333124676	38.6510298214594172	25.7163282978041785
7.7601871247444807	40.3222514851144282	25.9349319199484327
6.2290479024462435	42.5468480998510188	26.1187124749575226
8.8844834642946040	34.5942058611206278	24.9206280616979399
9.3383366692406415	38.1613915215683619	29.3427446596821113
13.8731164186074594	39.0403479643086513	25.9065500383504421
16.0765538332936160	41.0789609080790896	30.3082558205313504
14.1137575792390777	38.2290580791276255	29.4260111105677993
13.3721488178007526	37.4075191434746159	27.6920438784778362
15.2053548553696007	39.0872974342166444	30.2360388381407432
14.6580665337698530	39.0272469771681472	27.5397585743294897
16.0804560839436412	38.6546773134673245	26.0076651395300900
17.3022103779936849	37.0698513558930287	27.2885263251078634
12.0501889193760245	37.8470056644376456	26.5180766552247178
14.7759450555716434	40.8064846989362167	26.3321328760626905
16.3125186426416029	39.0846240674089884	24.0227875315401889
15.1510042485281389	37.3792421853081294	30.5753148418690017
15.7700166665228085	42.3337632057471112	26.4318825996123614
13.3740471392167617	40.2834573642888074	29.6928947813824848
14.0479815607006220	42.7775792144718352	26.4029090917297573
15.2037334621264257	37.3726654019056781	26.6439153217075173
14.5856551727527197	41.1368784305801469	27.9473816995000206
13.8835013505552158	38.3801203808920306	28.2325908228003719
13.8930609910096976	37.4517192160992138	30.4962431102009610
15.9630523740192967	42.2301102002394870	30.4911699999360160
12.7302353337892278	38.7688552607073333	26.2067383142763930
15.5254640866743880	41.4965279971614578	25.4737136023845103
14.0387296305301597	39.3472605932087163	30.0076109254656487
15.3801932501402856	38.0881317450252013	29.5348024623254872
16.9768188490695522	42.5514959952269791	26.5465992990730371
16.4254795833291389	37.5789684497505689	26.5109540359642573
14.1473724944204111	36.9156482811673925	26.9396769815749799
14.8959799304349705	38.5878944470537633	26.3868093724142767
16.9721157995663816	37.2252359701948308	28.4210440622042739
13.7122561897739654	40.9474724231812885	28.7217705238371686
14.6638911568231567	41.9380046179454595	27.0377777668793087
13.7588959652442675	40.2603855121158176	25.9745046940930990
13.1839950895622344	0.4577825338783320	25.9132799881810314
17.4214930725503692	41.3379375037620065	24.8951429350092823
16.3554101661715166	39.5021771898716239	25.1712260274462167
15.9173145158883091	39.9780921385425998	30.7101457307201180
15.0519414464320764	40.1735217342942192	27.4084462574611614
24.3076512740278297	41.0464841382279459	27.9857642467075571
22.2586273136607389	42.5696412538099338	30.2603944565868233
19.8300615494631458	42.6630164777514409	27.6462750484026110
23.5932656538998664	37.2185997634300278	26.4631056515619640
22.6699296484059936	42.3746857550832132	27.9452422408457437
24.4686459777204455	42.2260406584691736	26.9171899302178055
17.5646918040666478	42.3001036233147190	25.5347752722905916
21.6030972553980618	37.6813782336612348	27.2255570287004929
19.4146676926365700	36.7294893348446223	27.8165128031172060
22.0828630385096396	36.6097605850548931	25.4145505392737618
17.8682581622552874	0.1069806356210693	27.1591318328581401
20.5865709929148686	37.5376229211653296	28.8363040433510172
22.5615430964174379	42.4320918142873964	25.5678967744511816
24.1281911150270787	38.6300992820832292	30.1051878702876721
19.1775514166813998	1.1707890149790865	27.3986634520734071
20.7527104436188630	41.5320649337004610	25.9382461798632598
22.7817346902814499	39.4074320754651239	28.1116358132593476
22.0845339768399498	0.7813097922663940	29.1101525613173102
18.3215363292220204	39.0584437418443997	30.6056286319645992
18.3211910559436220	39.5330657059414960	23.4883538690783489
22.0417627160845662	38.1757059350944274	29.1963301014838805
24.5806789045310801	42.8841293149131175	25.9529281432552246
20.1918958649467122	41.8025915396243590	26.9248378035866267
20.4685873036793353	37.4548223413116830	27.5753332131165152
23.1554975014194930	38.0906238247839397	29.6988203352527123
23.8504348144225133	42.1794531695968260	27.9570106146175341
22.0997137932145442	38.4683943499297882	28.0032966093139954
23.6280926668264613	40.1617577101720471	28.3391626867755662
22.3708147872435319	37.2366529110148718	26.3733719940553257
24.1944686472263726	37.7386379039588178	25.5152218210486623
21.1594111314287829	38.7146647043382117	29.8149254905832599
28.9360831839636887	38.0956913567371700	26.0684796428821741
26.3106477425255321	41.7790617432870519	24.2859678481473402
28.0850851359109477	41.8638906663253394	28.7984110736079231
31.2319774990920607	36.9439212972798430	28.6455367960087877
30.1055656536675542	41.8457837446084255	29.6962642734224538
29.4270040932596793	40.4671742334724982	29.1682635611523757
29.8967237888914319	41.9768840644144774	27.7080093333526278
25.2720321305216196	38.0425334247877132	25.0144369005498319
28.5044146384727668	37.0399745118102217	28.8888261329754101
27.3596772266736394	39.6842364465080735	28.5687184407970101
29.1363353472489237	39.8751707909201585	24.9272020541955648
28.1075806290204397	38.9644458336830581	29.7875956182776740
31.9640611668561156	42.1185836357766945	25.1291334480218360
25.8197566923489532	40.9018327927386380	26.1650574521996013
31.1693671298414365	38.4177789862913457	27.7855249135252080
26.2370256790346588	41.4015779857272719	29.5905816690528773
29.7335551583049487	36.8947279096477132	26.9684217964179176
27.6710970459276915	39.7958151872206400	26.5092744424574924
30.5348123474807771	40.8754039375719174	24.1734015983923669
26.0144662584136626	40.0640732259895884	24.3170148495152638
26.6758057739146146	41.7350071143556747	27.3619403401753694
25.6813550355614062	0.3527499872094675	25.9339873381610033
27.8035556193377005	38.0256018189736835	27.7884275050677196
29.3069494861450650	41.6378427282600825	28.7335375635404127
29.1882028151732058	42.4825226583015336	26.9096650321332369
25.0983400419926639	41.1886880580756056	27.0782107574139346
30.3456699466653070	39.8968159562273215	24.9243824917413050
28.2984760688200936	40.0886448697103646	29.2571773731931266
28.8413053323660193	38.1972877483027915	29.1481825682491618
25.6266639493181039	41.0044456276863158	24.9959726813450622
27.4499913715280890	39.1389646878259683	27.4991036276396059
26.9496984974674341	38.8448371106334776	29.3540723921953557
25.1087015887897280	38.9547702169737775	30.6560451826438616
26.3243962259028592	42.8441329646698819	26.9124019377973553
26.9507098696284757	40.7984200871526568	26.5913678351733083
27.9051017569006135	42.9881963717141033	29.2363188839221912
26.8982120857681295	41.4830779050391172	28.5906703055368929
28.7052130386343727	37.5772879017769199	27.1670304787835981
33.3243474681241594	41.1075376523264353	29.2079742158980231
31.1445738150901228	37.8609287231099287	30.6924709407347756
36.3639993329496889	41.6515722195183216	30.2322895774827316
34.8906724731051128	37.3303332840558042	26.3982827214096680
35.8234473697144722	36.1727611197064931	24.9430539168427536
35.3313039306856211	41.1136717296572129	28.6115681264132000
34.9107917513674124	41.6083679023711355	30.7640145182793212
32.3119649736871679	38.5013787476500156	29.2274282990634440
31.9295349455069690	41.6039695318907548	30.0979336198579617
31.5339338305349344	39.8944683163867424	24.9029371495493876
35.9705214708843215	39.0053301970712667	27.6334821452086885
33.1981780127132424	36.7530005987116866	29.0827128230431988
34.3453948635649411	38.1441188039127326	30.6942521379172852
31.6926971979016514	0.0469793709856396	26.8442392142669739
31.4668787418343534	39.8631871879335904	29.5971317074575282
36.0632884640906255	40.7533612687520517	24.0356304537785164
32.9607660868518693	42.4568242399480411	31.8712053022174508
32.6382672288712996	39.8026684284740426	31.0615192151755792
36.3022029723687609	39.5130786833324450	30.7924902913875052
35.7219033225752298	41.7950182658967719	26.2169045470995563
36.6384854710799033	37.7527894983425085	26.4431840581284234
36.5209058423936668	40.9771796663829875	27.9862084738823071
32.1985256100817239	41.6185908419273147	27.3356119260091397
34.4360655132749898	41.5914262669146098	29.4169391243022496
33.9831874985339724	36.5233037027202272	26.2737912252660522
32.3362360923060308	42.1876887219341370	26.2717022497871504
35.8121237974324487	41.1342216217404939	25.1547704355117467
36.2542765009332584	42.7830596751020238	25.7677235740478849
32.3352570302504034	37.4687298433007641	28.5899337689573763
30.5057243211655766	40.6269149756670629	29.6991845069608225
30.6164301691770291	37.3704961599843699	27.7034196052753607
32.5210342896342794	40.5536265928745152	29.9707702518319010
35.6013939640093966	41.5304962108743823	27.3901944463105700
35.8346159297002416	40.6882282680109384	30.7808953480340897
35.2748642605088563	38.1487172164264550	27.1509345108033813
31.7603065419188724	38.8391980533943482	30.2764634680026425
35.8340232755765697	39.9904209082153130	28.3118873773992448
31.2004430564659785	42.4299892862556547	29.5221245394221370
32.6690454977313465	41.7926869597967183	28.4441689758677967
31.6217598361328420	39.2558167089848595	28.5007051058685867
29.7949356810454482	42.5559630065360750	30.6458672669921732
31.0830217691105375	42.1880588895946431	27.5584381071903017
41.0869237530459586	40.8340266978899606	29.9823169384072976
42.3257479204028542	42.4211771399644491	27.6376294250537349
38.1621804848675623	38.4547431040232439	26.6880136313702678
41.0000811233088172	40.2342328055195608	28.3241703075742883
42.7530428712899635	41.2088785908834652	29.0721307396408193
40.0204465017245781	42.4690778630221146	30.3702103597778041
42.3979671053059448	40.1788979381688094	27.3542206285952965
0.7382701479447605	39.3552305609588018	24.2495033068967238
40.3456521197651341	39.2794007337882647	26.6203624388971996
38.2532024965261499	38.2878668386499328	31.5675125882936563
41.1473897374549225	38.8173331445196226	30.1490887140705084
38.0782758581753313	37.3346993130136227	24.9190722099693147
37.2577369550647575	38.7370451223320487	31.0620137416922226
0.5188871393527212	38.2865165379150056	28.9709954070961722
0.4897548219340662	37.1501376734396374	30.9940990617928485
37.0417557095636809	38.7323565927618461	27.0830696004295177
0.1687221853003259	38.6069274664293474	24.9595498785609884
40.2873581127881337	42.9513070613970385	25.3881671185719533
40.4362419045942403	38.0958240910218180	30.8193998275043448
37.8000193800193429	37.4498600789356360	26.0512864347746209
41.2365445394145240	39.7621598473928728	27.2363526041217163
42.1374913257848860	41.1913540798219202	28.0454697476595172
35.9050360776975452	36.9606050334378793	25.8275218978563714
42.7558723135413672	36.5082028015216835	24.8241233958652998
42.2332139029977967	38.4484363508733864	30.6644534629970096
40.2467258275460225	41.5993005628553973	29.6309434566089607
40.9915615326250204	39.7578926276048179	29.4169414432988852
0.5018797651993225	39.7097745698173483	27.4343305647155766
36.4468493568473662	41.5643171957408555	29.0532209553018994
39.2550784401964776	38.8893478290293757	26.4983470421357232
5.1164438131862982	3.4136548183127347	37.2984310483300732
3.8854630416208691	2.5477584762533838	30.7486584725863992
5.8692336542502526	5.3119000152160707	34.8937447542968258
0.7684438937198247	0.1410333104062053	31.2916401459102076
2.9348117673988541	0.4113111991609267	34.0229189602083295
3.6893510974316408	5.0545625621744845	35.6824438224755838
3.0756564157737993	3.2783393655595030	36.2301074744826579
3.0318220139504253	4.3065005746586582	30.2613895033341649
0.1201373833622918	5.0201204792852954	32.0855138639302737
4.4704314460239472	4.9251314849376451	32.1436386092855457
6.3975739520672334	42.9604850031415566	33.3326317096193634
2.2775056406196779	1.1339899955484620	35.5437667880969528
5.5610546391697468	3.8108041614634547	33.6086223935411539
3.2432208312286401	1.9222253672190674	37.2012486922094681
0.6343119434779908	3.5394374278696117	32.3918714352930053
3.4856820988104595	1.2784935220505642	32.0565239590015736
1.7250938339518007	5.0380257867770881	33.4052943128784818
1.6551361671141525	1.4641974221795089	30.4917176434474264
2.4349306011678942	2.8732031727345584	31.7875749043670872
3.9228633736050922	4.6126104550612670	34.1952886188622358
4.5979067122838906	2.9149934263141657	35.7734182101516112
2.1531712095869873	0.4093287853258752	31.9954088825603051
4.7305680742175520	0.8917608363408452	34.6801252449449890
0.2237856076585964	6.1969834546365048	33.9430938657927967
1.9256573462622988	4.6304416402490061	34.9778728251891948
2.7581967782383709	4.9315337605909288	34.1689336119085993
3.8034863833126633	3.8404576309705458	35.3950979271751578
5.5250192601302590	0.2604068634129874	34.0556152711702893
2.6524985099934719	2.1176028445707553	36.1338913105792727
0.9881881852225503	5.6522033213839782	32.6658850185537517
42.7959835862117899	4.2136184345091685	32.9747237080524300
0.5907763213432436	3.9932733905213516	31.2487224742830421
4.0595375035026713	2.8328518316602764	36.9625572364039883
1.8668433899185166	0.8024898083616610	34.4642152689137120
4.6357631700386674	5.4290202157276033	34.9895327508201532
5.0657323993086347	1.9888232454445176	35.1051992229646714
1.0236771723540581	0.2979321927284354	32.4696072626592951
3.6247537554480971	0.4445164669092585	35.0412253089320558
4.6298372804431649	4.4190301843767612	33.2152194320491105
0.9515082225192542	4.9674591439825093	34.4046911388065126
6.3211473711190873	4.3197801684307899	34.3718715215566775
1.7805963705004646	3.3878339828705650	32.6554590571719601
3.0486060236254824	0.4688497353277894	32.8342879026238421
3.2621807500551121	3.5219214094496785	31.1550804518564917
6.1588425167430705	2.4187463846940251	35.4474212707355036
7.3081975293071793	3.7622854160476802	34.7508138458444691
9.6802384135060198	2.8513414849829100	34.7581152922531800
11.0376732688758850	4.8425313755092212	34.9245141835499382
9.1068863358087828	2.0880835202861228	32.8047615610737182
8.0960970894865127	1.7266242752444458	34.6582798983281037
7.6537696137349736	6.4581944028024312	30.7953234315900346
9.1982961414659847	5.3385097860201913	35.5696962572210253
10.3841066370322164	42.1531964918966082	32.9668009453534623
10.6828833830654126	4.1061731269941877	36.3007469807644441
9.7566468440143890	4.9833086444806556	36.5499096861425414
5.7193965167061585	3.2399978239701861	36.2412205335420197
12.5595230218432263	2.2787343731280880	33.0353361532149421
9.1760136723819059	2.8967626394648782	33.6595311511555479
8.7692610444255976	0.9841530121955914	32.7601842778300281
8.1089134750272454	5.6960580300985608	35.2968114456923914
7.2346972317761526	2.5778736733026784	34.8997326464123887
10.3339600019121107	5.9522199075725624	34.2385968436216146
9.1854409655933580	1.8198518479670898	35.2521002929634548
10.6834877924491991	3.6261530349172535	37.4334841910627460
8.1541055775713271	0.5145079638670086	34.5311328174230638
10.3349072257551544	3.8395191855694155	35.1217555966458193
14.4383098262313627	4.3572695527645529	33.9606232300111444
14.1977481978447901	1.6194523480887839	34.5897391823496605
16.6301180395203225	4.0970032471815356	34.7691139702169494
18.1003862349773712	2.9407276325465337	33.5858078550591941
14.3725881139436957	0.3720068838527968	32.6085754971954813
12.2072756837801872	3.3666806130338358	32.8324668512989177
13.0533321791507113	1.2146310585889868	32.9248363270154201
15.9262981780088193	3.8609133739500234	33.2650792939374895
18.6163862679438203	0.9678123665348658	31.1747713107572544
14.2293622637165278	5.5200602962754317	35.5051748312804918
15.3077066634885419	0.2321106243508539	31.8730928107693465
15.4905051722242284	3.9748813359715229	34.3941140845002451
15.1424864739142251	6.3314830614363933	35.2479518127683207
17.9708028723082940	7.8273161501829440	33.3138797153997217
14.6819352921934225	4.3358334232513460	32.7723539672441859
11.6778274805784950	4.8148075996124851	35.9802656767179059
13.7833644329904672	5.1977859112973555	34.4527428516735768
14.1278490556273564	1.1064230662797248	33.5411190814635702
17.1247121901800519	3.6218015018239944	33.7132947625345949
17.0216203569629343	6.6168896025934432	36.3510165085267687
12.5407485690860128	5.7142584236395724	37.8541917748460008
16.8354057037221345	4.9494841386083070	35.5932964028362093
12.4583463734156723	4.5148857267421487	32.7115565156619041
13.7933288584709786	5.0830855191889688	36.5339495269231946
14.0920478002390510	1.9749655910907664	35.6911917082472456
16.6329976513924116	4.1952660452878199	30.0553283630795995
17.3043143083684328	5.9284491472003156	32.0969740827846053
23.9999156817171233	4.5454646498049449	31.2181225332914707
21.4544216383356350	1.8916608918867834	34.9673910305338040
19.4094907194949506	1.7171130829160528	32.2895943213975869
25.1035587840081149	2.2205566986467660	33.6429457999726793
21.8770571134724712	4.0241003505485544	34.8216554151714703
22.4489152675513957	4.3254062918128779	32.4817770579830736
22.1235111738274028	5.3199115608965135	33.8390277611283707
22.4907120655451251	42.8519273835644015	34.6334979583800617
18.5615323226822397	3.3417244918800906	31.2326084672921098
21.5337336523422707	3.0021281960308106	35.3031425850624174
22.1697013788857511	4.0978871908671479	33.6300765286882850
21.9513535359422285	5.2376589908056159	35.0423367547345137
22.8357602895885456	4.1244631311694793	31.3553247111598061
22.7372942500589090	42.4222422095074521	33.5196660992546711
21.8374426819797698	0.7921151169582047	34.9240588609088221
18.7979042526339377	2.1888372643395844	31.3259226412704450
22.4716455525146621	6.4832152891173402	31.0630713652390860
22.6350370802768026	1.0555356874183977	30.1212709185044112
22.8779339532852752	6.9727187119153609	35.8102130822797022
24.0708142221702772	3.8766469454808266	37.6861037948313324
20.9592084141804982	7.3949799016197080	35.7877980397490418
19.0647020676686800	6.3175368864645929	32.7172957667677693
18.7938680671251284	4.4678560054597520	31.5540091608601330
19.0084629797021627	2.2873840519599367	33.2543644884628691
24.2015966490718100	5.4578833175777177	31.9482241865686696
26.4651943399649738	4.9282273768472526	35.6760729464869968
29.6349221662307869	5.4718372127841235	32.7740543117949343
30.0153471435610832	5.9227384681219615	35.6591511803069849
30.9404854383984969	3.8905310343142898	32.8510869801798862
25.7290612279208304	3.3473616862719822	35.2012679197226461
26.2679278500281974	1.6063321031145334	35.5691086484563641
27.8063183661772300	4.3049602078716722	33.0666214047380578
26.4422783012492140	2.5112716211699686	33.4610023289859626
28.3395558556618781	0.7502721974872101	35.8502913814671800
26.4209600098213571	5.1487279647626680	37.5450542545602772
27.9477027353674785	2.0688639148717387	36.7954669669617687
26.7256837598086072	6.2343919878277179	33.2337118286211890
26.0901816556571688	4.2663274054274414	33.4681728897372892
29.6417643389736689	4.1785758533900630	34.1662488643341646
31.2103250619775707	3.7290528780782357	36.0883186104239968
25.3862469050295232	3.3141764940616052	36.3381140144664272
26.8635135111337000	5.0663538200387022	32.9625275729151141
25.4920578205357806	1.3328667123873135	36.4289441288790883
27.4493195726141010	1.6002037225563481	35.7763992217223219
25.8395418007355993	41.7885029757657733	30.6644675534163582
29.1896240473376842	4.2499852713483222	36.9535553451669685
28.6729751018676637	42.9335814937032154	35.0360440457777784
25.8537708216396531	2.2836463703906560	34.6288322399590456
23.7727040117793571	7.2290017585891597	32.0766959376199594
25.7106146450036590	5.1991207268126596	36.5889631361471004
26.0876697052046396	4.3624737348967813	34.6843981272275386
29.7199290089258987	4.7859940351459906	35.2152184598212443
28.9704324575987471	4.5761525954214957	33.2629070708758832
27.5603928203732131	4.7083438643511029	36.1465689877253951
27.3563190523445350	3.2078793508154613	33.1984304951470648
25.8180291630147920	1.4449994554029073	33.0012547568972678
28.5107585782046158	6.1877801503981553	29.2337062275007327
27.8952562622186164	4.4070944087985433	29.6129177873758991
25.4145702401493949	3.2864277790050620	33.1749216742380995
26.6945861717196351	6.3896049678260987	29.2324519575360178
27.0488305944524399	0.4757140814749108	31.2709617528867341
30.7148106419217797	3.5857336915645539	34.0913114851307455
31.1477263688894368	4.2753262190865140	35.0318349786948460
34.4552311204894366	5.0795372597000990	33.6641725774034413
35.5174566195237915	3.0937582397975074	34.3171750189766556
33.6942670495312768	2.4546425212588665	36.8381601049158505
34.9803370869233703	4.1025146587209100	36.0799803082887962
36.4307760073980873	1.2856212457972587	34.8067065689509292
32.0087673749631136	2.1902098404528116	35.4989787332849005
35.0186701296886582	2.5873536372208430	30.8618645594368424
32.4348134680144469	1.0858873535845472	33.5013049817932753
36.5236140179351523	2.6782893651519886	36.1633244698223422
31.2218924703304346	2.5307855124331833	33.7051587985385410
35.9590973059238905	1.6272314171839397	32.7312532028665188
32.7420130003116299	0.3125334195582080	32.6876257215812558
32.6365558362168926	2.0460872653398572	36.4936444924834973
35.4117993771343578	1.7005236067014524	31.5986451410043010
35.8889940594302033	1.9630926629680203	33.9065575675022615
34.6561732107823346	5.2667507113887773	36.1476533409910843
30.7047022790568995	5.5832086464398349	36.6305879213820873
37.2423645447783613	1.9494005213812391	35.4595254087375693
35.7506053531104797	3.3354626189945074	35.4949878445073566
30.1138488165287406	4.3187554262995089	30.2620849930399736
31.3211313666540647	2.8083610330130404	32.5600959873301079
32.8236911800859659	6.1826780000726211	36.4950859650988022
35.8820316951289371	3.4033187819070174	30.4956981045654310
34.0170173748087521	2.5686287453314294	30.2005241370169877
34.8391875267173532	3.9806582768024983	33.8442167084746686
31.9461122749802477	1.8166230639477465	34.3480078440384204
31.1345582918124997	6.9880070829223833	33.7777069023807641
38.0643835826615344	2.0575783504165623	31.2574784123566864
30.7945636680815795	5.0774957925973485	32.9237873183521614
31.7335336411687656	5.3139336533422687	34.7689143990768486
34.3436804545426071	6.1964777423883719	33.2976446396163084
40.5742563471624464	1.0548551715732553	35.1586429698320586
39.3942588013241490	3.7903909332186383	34.2045406779584411
38.4029054503757337	2.0344288812755935	34.9976629109361355
39.2940741582485771	1.9718497114861107	31.5559047575178830
41.4040699120333429	3.0660857733570972	34.8710760993322779
42.4860345402594319	1.5672441738762855	35.9533434883943670
37.8843473358425555	1.1810781614837518	32.0905466203321055
39.2942956890977442	2.0036226502373409	33.3616186062477382
42.1557895082585432	5.0773683156412517	35.6478592540768986
39.8577322404257046	0.1522448014202224	32.5117189481775455
40.5973877138915782	3.4588671285063906	32.8341405245616613
42.7503515560011351	4.5562670767985471	34.1749306600806477
42.3090791214689901	5.6963153657320662	34.5799218420208803
40.5648224815585579	3.4489503144358142	34.0618865339579386
36.7723494065636274	0.7861772702719062	32.3074376529661862
41.5085751994675718	1.9103221472163423	35.3625875503821234
38.1530522857646019	3.0253106033267763	37.8083915879753221
38.6881915868588990	2.8143355478307481	34.0702684241160867
38.9938541451056437	1.0043825750559725	32.5651242739516462
39.9339571483059217	1.7416633300699138	30.5240423163630261
39.3386877408240068	0.1077457686881704	37.9016264228218276
39.4391966887845413	1.3885105805595197	34.9502491622459388
40.6017118073110908	42.5515334076895044	33.2562209781395310
40.3465007867151613	4.4610859927717588	32.1954828024857562
40.4340968626678361	6.0329024651531293	38.3922692267556585
39.2577059053302548	5.0085324583473927	33.9978112165666531
42.2181566877168137	3.9377516007820579	35.1354864660351254
39.9224971536876794	2.5449556848201578	32.4441234844652655
39.4544437727867106	6.0564298725035535	32.1007220047387563
4.2417035098855322	8.4458049095813621	35.9955274422149927
6.2572204165354055	5.9616827315730756	31.4176919544629563
5.7065382961415292	10.3267988761980014	34.4910523630949442
3.2431200189719722	10.8742763817167685	31.6833863984312352
6.0400890419945616	11.7843214572252073	35.8785372613977032
4.6724127672186926	6.9620911573706330	31.3499823605581440
2.5431208001419474	8.7015326775653534	34.9148214205588872
6.0632939485367103	7.6721105632020121	36.0510032016962612
3.7129615896836228	10.4203485672805627	35.0966753231588484
2.8489668669850583	7.2172864217830925	35.6568848295366152
4.2889957541367174	8.8372796542795538	31.7357742801330573
4.1838918364556470	8.7838883798907226	33.9901950463844216
42.8964572858929856	7.3087708849275153	32.2778800786448201
0.8071762007774096	8.3597830398497166	33.2942009176411418
4.9141180739722268	6.5165643064984664	35.4372034642291638
0.8988281654182391	8.6154787589957316	30.9402542108034133
1.0735253829248510	8.7694508548052976	36.1351004739354806
1.4946449553449517	9.7271619922554873	34.4017875002544358
2.6392198287332875	9.9347824079927545	34.8676786828463037
3.8866576984423205	11.2428510746610524	36.0109577286470994
0.3887206829772904	8.4710500833302671	32.0126368867012374
4.5983151387371421	9.8330445033279688	34.5050964947331238
0.5801814731486170	10.0484823928447948	33.6093096326977943
6.2281505369468855	10.5063041112464273	31.1656017614800405
6.1658084408690144	6.4207253658099921	35.3607117519788261
0.3914345650293314	12.2999454740751233	34.2934096700356434
4.8773621415467803	7.4403798973826953	36.1759870694772232
4.3651210401482956	8.4283443530161364	32.8692455896331595
5.7536710062143337	11.5366835986759515	34.7071439269839317
0.2721914730614531	11.5011222466046608	32.1407739902538339
3.6443040383061382	8.1394261689603038	34.9609205265514120
3.6345232325343897	9.8044078420412148	31.5186537014172998
1.7224173687782018	8.5664640822086451	34.0304224849211252
2.1082965025627556	8.1316186746649777	35.9536093665017944
0.7198250432079755	9.6700985679078890	35.4038556924481469
12.2237028010933635	5.7027444722500960	32.4835682629638285
9.6423510013336866	10.2810657491743758	36.6013697792623205
8.9828697132698316	11.5333487194832252	30.5605692564295488
12.1264015324666570	7.7197748863673965	32.9880450993707939
8.9404069098915695	9.9131910136228072	34.3896132699001456
10.8961537167452391	10.2854031145703644	31.2691827630494892
7.3769583158768501	8.7778177041951473	34.8634293619786035
5.9851555370453617	9.7377511686443832	36.2232203099331969
10.4212928427579232	6.5330640291735991	33.1384279138833051
9.7205460301080180	8.7475448099999848	36.0039601121822983
9.7804648652515809	7.0270550366783269	34.4561455606267515
8.6663829824950422	8.1706078642920161	33.2316180024767647
10.2191146407775992	11.2591266876477416	36.9822543483759318
7.8563155222770744	12.1499686550753641	37.4864042570337475
9.8981674455064930	10.6893582575560142	30.6940449224111092
9.3230021896427235	10.9290382736158556	33.8344145342287845
10.1811471523171999	12.5375459511790748	33.5442694663076963
7.1338405376440059	6.6493269606580379	31.8686580008713598
6.4751690934259525	9.5576031011624742	35.0937386184411793
7.3553765314300525	7.8330700389654577	35.7341449402385507
9.7327617817617575	7.7641390870508546	35.3616381703807434
10.8452276026085297	11.0403548973078323	32.2273758045850585
9.6019287083053335	7.4311997634995386	33.3032102617549555
11.5650768576953755	6.6922944772127595	32.7582240279342827
9.3170944169987617	9.8153401037940249	35.5274027298074486
8.2568731204520152	8.9553054159988896	34.0356100254400573
6.3155740745060891	10.8586490063058694	36.6184142648256312
16.2452267096928509	6.0330004336074552	35.6036998242312066
15.0078970882154774	9.2375783250943648	33.4038772918553022
14.9821427620066405	9.5878259912999013	31.2837761792003057
17.4167814786259640	8.6194612378979087	30.8069860745400845
17.9467977391495062	9.0870991324456973	34.5546134289150615
17.3983529565204016	7.1193118529185799	32.5200908655616416
17.9961805228114713	11.4572297325645742	34.1738519778017107
13.5068284255790854	9.2081120867431618	34.0946286442986732
13.6379052846800199	4.8488314328420197	32.3722561393212018
17.6081976756290040	6.4948586523327156	31.0518712598836721
19.1394759524399376	7.5013415183020209	33.1020007054663026
17.3991392124795041	7.8460020782507955	36.4312171140200647
15.2121420321619176	10.3326954133994846	35.1372098288816233
14.8380829119156505	7.0944818147824034	34.3868626585274271
12.7137461909650380	9.2632056825672198	37.4389634418493600
17.8805841856200409	11.9894462649494624	33.0978541550975791
14.8283940114196042	8.1353949746664416	33.8359385589605850
14.8787517292342368	12.3077067292389053	32.5046156521469598
13.2207268610071136	5.8556137986981298	31.7965026925277812
17.3061293826525429	7.6143675343023913	31.3873541970815246
16.2862483923668364	10.4898860898777446	35.5945515898975131
14.4688930739633701	9.9133549468570710	34.3029647993601330
14.9810359862666935	9.9579886907237221	32.4121647118517942
12.6999875587702977	8.6085723654791853	33.4964793041120501
23.1934363100069696	6.1343833156716716	32.0436698532181978
24.7783693761068555	6.5042282773330635	32.1993972550516148
24.6605057588717642	12.0096396944307298	32.4770356407627787
23.6414372265920640	9.8152403779596753	36.0409943369011785
20.3710181006012299	8.8581289739517732	33.1497134900413997
21.9382152850172254	7.4799914131778502	36.4671429850154141
25.2582708227757280	10.0592412277747911	33.4800735712684912
21.8372882069137439	10.6612128203502969	36.9226719047863128
21.6003431308140037	5.8763753500788951	31.6114364950718141
23.5296977691835920	7.9033055213384644	36.2087677402705239
22.0377758896231555	9.5958063855250053	31.6202314646911553
25.0314088787592262	8.8467192257423779	34.8886573698954408
19.6329037085333482	6.6824155873086637	31.6740985172674456
22.2603203748744001	9.1324416529404715	29.9697413560418262
20.2460272969282791	7.5447471260409626	34.8910976486879392
20.9966729367686327	8.2936683190825651	31.6244830395003511
22.9301013903819424	7.5819943173181459	31.2693377956361616
18.5194147536829483	11.9565230912390419	36.1356874549661242
18.3894442463605827	5.3961635873892853	32.2790709533148785
18.9597038573181180	9.6810619767245036	29.2053715090280015
19.8895581576279703	8.1008798377410365	33.9225051761010263
20.4549192182508435	5.8048988274914999	31.3421956174428047
23.5451608126320053	13.6684588926145612	31.2423161211421458
21.1797040981963356	9.2551184712802730	32.3815710316120544
22.0563818467361052	8.4240255670122917	31.0000791848974693
20.6157677191258486	12.8081508590610120	31.3810066615637879
18.0349478342048961	10.2754791321346630	34.4541144981889218
24.1488843824750496	8.8093991168296277	35.7104294425941688
22.7973734530659549	10.5733785223648837	36.2694287661282928
19.9713731141001851	12.3405962853434819	33.1490116560789048
19.9863133843803737	7.8104730058117742	32.0545496008763209
22.2381258468132827	5.5970031900513666	32.6398465031289078
23.9723599486977115	12.7376234872557301	33.2019008009544194
27.4994296905121658	12.4296187127093098	33.5808706284065863
29.8354953307400024	7.1701353636800951	34.0242105715141463
26.6598042328143237	7.5510827560577320	34.7220007061528690
26.5630163005611273	10.6198654450654519	34.7471834218834488
29.1893734296099971	9.3616946731202972	33.2405814644382218
25.3964143475785242	7.9253606315682381	33.2145473211874034
27.3776974875810382	9.2416434831780325	35.7599820468764662
29.2170680930939746	12.3472610390373916	35.1142445780557395
27.7146450648116449	10.9471583196875066	32.8976458129878750
28.2186163271320183	7.1693156403807459	34.8956289380892741
30.4167240488922381	10.5098754353670447	34.5165579398565967
27.5228429847227432	8.1307545688560108	35.3637790308636255
28.1840038336557335	9.8596272297173417	32.8792273214491004
24.9008202136873571	11.1878654029627178	33.3114293745042360
25.7786996998910745	6.8622598709373870	32.7475083777795319
27.8606738879558939	12.0881188090598570	32.4388622515901091
26.0634294035300300	12.3161897969058902	30.3836341009802773
29.7395308014051736	8.3518957622811527	33.6516707420179699
29.6096881692689848	6.6605105731799155	32.8839898688300920
27.0745459670291488	11.2853121423301062	33.8996891466980657
25.0511765678883407	9.0299877663264319	32.9416126189440917
27.1251414526124961	10.4112203916436172	35.8209812691817930
25.5764856374271403	7.8956936964634785	34.4263049833702652
30.4964599504817855	7.8212386754353389	37.3249587622719403
25.6046222676277360	9.8897640614002444	34.6465236841166089
27.3254568734108645	6.7176939558190529	34.1836847848546341
29.3451837835898601	6.7337191827511056	35.0492052583040348
35.5163446912065197	11.6724160729248148	36.2820878815673140
34.8558042330218072	7.6976610344575063	32.0172246108334164
32.2683597190321834	7.4630993879017593	33.7647025153280680
33.4740166879991818	7.8766621909919827	35.4748671342368169
34.1244232498432822	8.0316547499922688	33.6018324592563786
30.8457746951566918	10.8258094615027805	32.6533230126201204
30.4186986693064654	7.6041668219191756	32.8289670319981752
35.0359450436961097	8.4523039631496761	36.8028170788103921
32.3300019516761239	8.9979909124342026	32.5128833867332787
31.7091638519496399	8.8683657979335226	35.5256838415349918
36.0496249415139616	9.6756151441749534	35.2213191709749935
35.5062842790818749	7.8472862034436259	35.0523496474241654
32.2604314059261981	10.6783592804408318	31.8784096892964044
34.0777253533291997	6.2481508614182841	36.4749456443807318
35.9784939354145408	9.2665036443434605	33.0876264076334579
31.3169070152822613	5.7929301194631657	33.7346032173253789
32.5176056707639489	6.0650500903269489	35.3051435672451177
35.9812608010092347	10.2152692918362433	37.1084852587415099
30.9523752750605787	9.2670413110419165	33.4848437302005877
33.0358868608953742	7.6558746536666620	37.0010450709165468
36.0419371741259909	12.1346146492219322	33.0258329709920275
31.8726115108870580	10.1145124231847614	32.8934163408972609
34.9306054290849559	12.5233509642085998	33.3960825128190777
30.0938694584362771	10.1978186676012612	33.3676108715834161
31.2301248715115669	8.4614847797690906	32.5466348412047068
35.7982410832987057	8.6834722129230393	35.8803181323661278
31.3112897211124306	11.3994564787034101	31.6988499449007648
30.1771435322665447	11.6590434616164185	34.8328572023646004
36.3554602868558376	9.9374325367872700	34.0630798284152334
34.3879824921249693	8.1469872826363030	34.7552683872921762
36.5674515627626420	9.4294848624751015	32.0194404353339053
32.7524359678495500	7.1265790532086708	34.8174410327764150
36.0344623292262298	10.6173668812424875	35.9682105884249452
31.1357584270560963	9.5314201399683398	34.7324523365206161
35.6057093199224184	7.7741411404893750	31.1260988214839287
29.7160001560443412	12.8010167588360773	31.4602300857354926
32.9548578160152275	9.9231776596025831	31.2765360265034680
33.0128791658496752	8.2034198133539160	33.1465747640743587
34.2005542704546173	7.5073272674973026	36.5907940931976512
32.6131102714474537	8.4546215835608027	36.1680301673219873
35.0982465396517682	8.4076083386373099	32.9446322931033606
35.5024711732427249	12.5155897664865048	35.4058526002863942
36.3537680242828358	7.2712898682377807	34.4317784323980973
33.4680360212052221	12.4261041086171264	34.4709793257214727
0.4643359301959947	12.2844901835038520	33.0692315993719816
38.8294013045167219	6.8189425124269301	32.7901279164697073
37.1371222195848674	10.9083463863173424	34.2488160790721921
40.8753988799445338	10.5949169960595349	34.3441621023090136
37.5367535324486070	7.1173761651810885	34.5691217960758834
41.1013121287353869	11.2990353814773226	32.5701127561366377
42.1323532848953590	8.7793281138850894	32.0538881546717107
36.5280038456264080	6.7954001392300523	33.3464509903009088
39.4843712409837551	12.4187530590946391	31.6734046596231096
39.7406379973593857	5.1934811909520393	32.9207246275089744
39.3309379704891882	10.3203723776789822	33.8966964104867330
42.9652732416012100	10.4639697356327162	32.6616000249827607
0.0081093172843403	10.3290427550550241	34.6639340623218359
39.1022270197946042	6.1198624256364038	34.4057188425785441
39.4696701412990265	7.6636448238173722	34.7513441877852003
37.7736270617518954	12.0740185746481643	30.2804664701533284
37.1585898975720923	10.0790180601692718	31.1929989469843143
40.9457709101462015	6.8638572695335958	31.4819275447401630
39.2067916980083524	11.0510275392494854	35.2459645029747577
0.1895638506421707	7.3063211564779653	33.4423650921071030
41.9908970082916113	10.9491999096628039	34.5108416653842269
40.6407073874901172	12.0310849516304881	31.6048981821837245
41.7693267192651589	7.6120938108178189	31.8916410470784655
37.7302339578361483	10.9259853299611951	30.5716652379310858
40.2588141392112462	10.7938733889100202	33.3062553133016053
38.5743268671002042	6.9544492717711828	35.1329299688919718
39.6051352208259644	7.0616370470174523	33.7183609526960097
38.3300116967095903	10.7325856016122945	34.4179110970815501
37.7392487563830841	6.8117349825646585	33.3508583035265644
39.9689642912642142	10.0501530686536142	34.9915846925598828
36.7459507483896743	12.0585908296467093	33.9881124693202494
2.8243856063829313	12.9375353851788653	34.8158586986139440
4.3574014385432003	17.4693154204941621	36.0399513251444930
2.0599809307433725	12.7128406663939248	31.2488502880714094
1.2214653595021812	17.2598486578016406	33.2741448372147062
1.0728519424223899	17.2336309868524467	37.1013449170370748
42.0621920112554264	16.1666374330236309	36.4783961628319346
4.2999618426495241	12.3414166506174752	35.8372843002207944
3.5102678056448955	18.0634671054540945	34.8154873977635404
3.2475008509904368	17.7228330064507240	30.4831159498844499
1.0837304257512486	14.2299494895725367	31.7560462831276986
3.7302635699729043	16.0905845690692431	30.5325714510916342
5.2417573979917362	12.6573938128218408	34.4764649660368505
42.6434548109930489	16.6856915505596355	34.0334855581286178
42.6060464217967123	15.9527574541178492	32.4127776246423807
1.2652437265350960	18.1824342813295807	32.4897292251636713
5.4415233262662381	16.9571257665982245	36.2548365086194480
42.9282389920469782	14.7942073717538563	31.6761170574985762
2.1707483384851187	13.9382385253207950	31.2598279599837099
6.2118086725252066	17.4324279722529134	31.4567023169008060
2.2739529613167528	18.1152203120653397	34.4998251767756088
6.6050839085603261	15.3557436192603038	31.3495959507693946
3.9976555561945397	12.7714167023430178	34.7410907660200579
2.9398206044762420	11.8788934905518193	31.1575472218670804
4.3733594419328865	17.1931314624247982	34.8409731161378389
0.4898101846134152	16.2807621331346120	33.2345239929655918
5.7554183020821350	13.7870446073445407	34.4001831088359751
5.2469498470234672	15.1817194078676216	35.6808382568210689
4.6335110243645943	16.3939822613872082	31.2367631116251339
5.3955524164669066	12.8286650853040634	35.9607438561517156
1.9611504417195116	12.9840260783581289	35.6209412440424984
0.7167328203640321	13.3439641912677249	32.5183187141420547
5.4317347269742990	13.9877761471026822	35.5792029327160648
6.0184909844086425	14.9008605383687129	34.1015533949619254
7.8650739184669138	15.2771709910870204	35.0166494096045184
12.0139603279371272	15.4955030325451215	33.3125333584620265
10.9108680341874766	13.4229495081053916	33.2568171818106109
10.4996448540950453	12.4558263455512410	37.1274515165443972
7.3679003504087772	16.2739987427368504	33.7845934456178156
10.3220930429333286	11.7466936282876926	31.3589524511666120
9.5920229914571067	14.9174848464721261	31.0695654279069124
10.3183646405462852	11.3192479107787154	33.2499351263069798
8.6768121824578621	13.3130158858518453	31.0538346728703978
9.4509419092224380	16.3814717947537680	34.7592247234058362
11.0572100143522629	16.5402340864953636	35.1967642380252883
7.6373811931833808	15.5766528242786979	31.9093789538272610
5.8160002717372130	16.2798694580082568	31.4715296144716028
7.6276470154809699	16.5545273744971517	36.0418732226892757
6.7119363182139224	18.5227538870888502	36.5872535370237344
8.8229544725865701	15.2940521902717155	33.1223139031105305
9.7991571719516326	18.4486303670454603	35.2391252399842969
5.3490794861778523	16.4197511693982712	35.0696415661805432
9.1304044665679918	12.0972318902953919	33.9368587040493139
10.7200153697670526	15.1777113646349431	34.3548435090819027
7.2759977796114850	17.6060725964622620	32.0239488746287435
10.1786400931630876	17.3564558387655445	35.0226927715198926
8.2481421603286371	16.4715425180829165	34.9520975812918735
6.7342309168227361	14.9644718390621971	38.2166744487711725
7.8494213700986624	15.0760286905581431	33.8235560578899950
7.8983069938420218	18.6336368609459342	31.9631179062459267
7.5853972828492102	15.3185758017515088	36.1891034060206707
9.2285227596793398	12.3304361239433877	31.4612172169762516
6.2889545982521540	16.0505916497610919	34.3069862060499915
9.7486742149924908	15.6749455000222611	33.7952846175324737
7.6081580969957754	16.5640495710139177	32.6283849781537967
10.4077660170453399	15.5448685382566829	35.5220655217096635
11.3157932598194524	14.5114228330958035	33.4862426061403937
8.7644362686489767	15.0617038294176329	31.9189982833860313
11.8645942326244871	16.0390942008608164	34.4158828655947318
17.5499972075143731	18.3041987147389271	31.0784355326517776
14.9069984706128214	11.1533248078238785	32.5937601686107570
14.3582351333322471	13.0575920208115317	36.3598061813270945
18.4704994968821836	13.9999818248168779	36.4721435610322331
16.4411935925293129	16.3669085802525238	34.8584114901302442
17.5606520194885753	17.0279246977925816	36.8148563627538437
17.6999335783527911	15.3836561565637027	35.2637258349869711
14.6823303335908513	17.8747732836452222	31.8783505754670493
18.9421343337684895	12.2101152198772276	32.5837920854143022
17.0485374678637456	14.5814162653155108	33.4199872638945479
14.0451356730467758	14.3165256877180749	35.4059442862013611
14.6602890612569379	16.9923451957118523	35.9533496612055643
13.0167463461708337	15.9862249216353263	34.8436653919278427
13.8011964656563073	17.7508791644625745	30.0133330027919136
14.5807983958712182	17.2817524279365067	34.1835965838266134
17.0120002266486772	11.4331755536679101	35.7633862198232038
18.6550918933125089	18.9881026453949744	32.8561299891199496
16.3053101261605846	14.1189264335216222	35.9219818262098940
17.3903393272415485	12.6505057717306020	32.2055543670367399
13.5016486561614908	16.5089679258556892	31.9479102359665248
13.7569003433850359	14.9125524158040541	33.3063983571593027
16.2284207627232604	13.5934429154473388	31.5977646419738996
18.5330350091143075	12.5832588647670160	31.4621595612999414
17.9916826194368795	18.3031855774301988	32.1567864928378171
13.6650721217641617	16.9075016608885740	35.2317058454972667
15.4413117549676802	16.9873272545726763	34.9785088832436486
17.3098462957653929	16.5571074189176421	35.6878828251070388
17.4477189002770672	14.4553060596408454	36.0203635897463528
16.8848131746157932	15.3430305234039910	34.3255023906341989
14.5078368968014715	17.3864922300019984	32.9909029543009069
16.9515144276812357	13.8143329095599707	32.5282620899030590
13.6795102249510414	15.0168904693539353	34.4828908684387656
13.3582563928109579	13.6982525609171759	36.1566176148670237
13.0575398546070875	15.6619400111756235	32.6928455638250242
24.3701977786689206	15.4514733279276335	32.5789697126406779
24.0987077842116690	13.8980686872686192	38.3386219878688550
20.9063256293790474	12.6016295176802782	32.4997986227514630
22.2073951517668462	15.6452621435390551	32.3581147544427381
23.4981901967673359	17.3215484584116233	32.6438116737253310
20.0806736810737227	13.6073619160575898	36.7599023592715781
20.9789043316291455	12.5847599836599002	30.2255476884212086
19.5712283577930570	15.2117349866473290	37.8371867468849530
24.1249442030335786	13.6446358100460579	32.3876087587036068
19.6241164152547078	17.0473503355523128	37.3089731046661797
19.8159864339367928	15.3813548499701902	35.6529778511983437
26.1683046167764424	14.6320736036467167	32.6842365668214470
19.5229371392653270	13.0047139591665353	30.8984907546061187
24.8297463620577155	16.6641981047994108	31.2705889832164736
21.3626735792089981	16.5136433323615179	35.8532101181161735
24.5665446983276468	12.0909984489444735	34.0651843107273251
18.4713384544418027	16.8738798466320006	35.4508345080619875
20.8428433281223136	15.5989232250676970	33.8581861880500199
23.3440769359390039	14.8955934826762348	31.2674170980540431
19.9832486013846733	19.7000683431774135	36.0299858467561123
23.4879167754836864	17.2400734477804924	35.6955208502307073
20.9088410170881360	18.4800177018707146	32.6584679022900275
17.7550344232306898	12.1536129606552805	35.1584415405802488
22.2664475549558993	15.6292294167876484	31.0504456719131774
20.9680744867735598	13.8958205841241682	37.4841517023927295
20.7318572381531432	16.9174870393895489	31.3306376017110431
20.8045309117212405	15.8141514307933093	35.0465915173371840
22.4016568489269723	16.8858837425191339	32.4130969753367708
23.2283071242765011	15.0427827343921070	32.5233731091066574
21.0161568723011989	15.4874486123652666	32.6896407985684405
20.4974729221147847	15.2452875408588184	30.4273987304594158
27.4325266867825164	14.8557850441035626	31.3107903403667258
28.6109736856893200	15.9101075797052545	34.1402632622533488
27.0578041637011069	14.6392929481529119	34.1351001529215665
26.3346254291871240	12.9706227306918169	31.3945973768840325
27.8343501642269757	17.1603782835993925	37.4283620166926596
29.0422117081784457	14.7849122301855456	31.3226344787584274
26.0233990298937741	16.5636294710192757	34.0199209532408275
26.2377815701924710	13.1156009829726337	35.4099591733132257
26.4567837860918047	17.5399173120587442	35.5763515049633909
28.4966065792363565	13.8106912490892348	35.0471569491028774
26.2902445370267124	15.3220461112454363	35.8166455720468520
24.9395698892794009	12.9561541737374988	30.6037406251745594
26.7443032531733991	17.9718051306484803	30.1941061755099120
25.4823744218478545	13.6437032178664381	33.7665937590672485
30.4428737374929241	19.2615661174226993	31.8126037914493551
28.1869267445877476	13.9575525316827402	31.5533843719405276
26.5020167157507309	12.5292643762999365	36.4908475038024704
26.2898761685600988	14.4889906900347381	31.4371528642048581
25.3438260170105139	12.8113531403301923	34.6405845362726055
25.7877702135349374	17.7873261932261535	33.9722810686775887
28.2879693882469851	12.7809545505691133	34.4500036301466679
28.5326225660608799	16.9961489334500655	33.7977414517047592
26.4826847589493148	15.5548333826249241	33.4744150042476534
24.9645352860492089	14.4395274455865881	32.9526909353778947
24.4790131116438303	15.4695436545563059	31.1070876967125116
28.2534172195030457	15.7401283926176276	31.1260169681192416
27.2228580304359120	17.4278936777954563	36.4698159315576120
26.0541174431224469	16.3872534147691482	35.2622189040413900
28.2258544415036923	14.8285428451601469	34.5048385871140155
26.4745954432004531	14.3050371368820066	35.1956655882958032
29.1661068544777891	13.2839320239977123	35.9525079109083876
25.0099896867483338	13.1692523708901330	37.9666357664231313
29.7242333124420561	17.3471114861717979	31.1906304593863482
24.4840707807767082	16.6644876278764258	32.4583430478918373
25.1757458241504963	12.8846211938310198	31.8224072490252183
26.6518371346841221	13.6994618012086704	33.3844979191656108
34.0440020682396565	15.3742161323036406	32.7612422193171042
32.4450186771570870	16.0305133376714473	31.6746484342843786
35.9675994846224683	15.2325764611391214	35.1332255229418564
33.6703602500493773	12.7541284063526916	33.3191076576223750
36.5868198952933525	17.3842441601759994	31.1541022340931981
30.7372512223291494	12.4637142052680474	31.9499665134825079
32.6434612584807198	12.4644364082785195	35.3617440335327018
31.4450057414468347	14.1869021974171421	35.3831319252044736
32.4100830395772945	17.9299001998048873	35.5590450819576134
33.0288737728315667	14.1624475691604310	31.6461226509955580
36.7600571599579666	13.7899186301962846	31.8638013934481172
35.0202986665407821	13.3141452722185267	32.3947130972765649
35.2069207540229030	16.6942825372895314	36.3162865700717532
36.4332918196400044	12.9782596886969248	34.7673073654372402
30.9430720902305261	12.4570928800606975	34.3055042216275794
32.4207550699815457	16.0812042608949781	33.2553799017344645
33.7760094091518184	16.2030358391390124	34.8171874783424187
34.6600925136266298	12.3154427986672275	34.5861160936140593
35.8851934776052843	14.5757778496093362	32.5226719956490413
32.7021344022226685	16.9577869028627894	32.4370248925843967
33.7909804017870528	13.4758471798457666	32.3301310061266278
35.4520545656570292	16.7575407726485608	28.3183638652390428
30.9408614148291328	12.5449486602064333	33.1343794402077165
31.6799486084888073	13.1093502349509965	34.9961604832419866
36.4454063977611469	14.2481746939140095	34.5361910399966092
37.3108971591356138	17.2573125972461874	35.1772822381785275
36.7601249863725172	16.4895237942339747	31.9914158480977413
32.6796699614773871	12.1031910887969421	36.4982374486779761
32.8928395489894427	16.9681252240596230	35.0983148992135270
32.3317245308792209	19.7500252947088697	32.6368160249094288
35.7650863029922519	17.4378041094768399	30.2807983478674672
34.9231033015518619	15.9883860178635242	35.3738127462654930
31.7016576976392201	16.1673588548370475	30.6920030876553653
31.0901742032872406	14.7414788719722942	36.3359258889285712
33.4736440264785600	15.6661014373899103	33.7563579441306203
33.4749830562011823	15.3034056167160752	31.7288022434702164
31.7054440477311488	15.4091703654686416	32.4975992171758463
40.2483638572750664	16.1052236948302507	32.9101881979848301
41.8993359814184814	14.2631693516214320	31.0252241162842992
42.5847000221565111	13.6570142953466824	32.1783215199114494
39.4022138575509899	18.1388134725841326	32.9442081906740611
42.1185620337586357	12.1907773089390616	34.2618367834073823
37.6101646411084332	17.3274340100260318	32.4400418202529011
40.6868166549901957	15.3319121354487660	36.0565458115840656
40.4818264820535632	13.0448508091890165	35.3558626298979419
38.8835791343840071	14.1554520850298573	33.0178126313931699
36.7683594567169152	14.4554750003152375	33.3881154404732925
41.5480711311339803	12.1484681429689640	30.7971278826245225
40.8461509487169678	13.0134332133268984	32.5044404785884424
40.0063299511569568	14.4138754981120734	31.8829880603015745
41.5667184189674046	14.3099723670146908	35.1132935746059189
41.3485406455557793	17.2132622001824878	32.3880040315979159
41.6672380217266678	12.3259790496707851	33.0933750476889870
41.1792335044959614	14.1099027718663539	32.0348935852107601
41.5100203798659351	16.1620516659884501	33.0438631023337521
41.6341338400557461	13.1211884732471162	34.9071212400142983
41.7994513023395484	15.4507846695473763	35.4978076398312012
42.8334320446674752	17.8469792187592269	33.8257941604280603
40.4111270474824380	14.2554093217178419	35.6049321093026876
39.8043513707294281	12.0651479547215192	35.3389187941069949
39.5978883171241165	13.3147343922053878	32.5016552022551153
39.4970900414578310	15.1701394141182764	32.7104756378998474
38.6705103002972521	12.6414112508461347	30.8365691275523446
40.1527389822019742	17.2690919453476148	32.5335706947483700
37.7159530574426753	14.2132264330424309	32.6195222501852768
36.0912812254763082	12.8051069018401549	32.0175970374925356
39.2253593148456901	14.5034561026354289	30.8932842620287822
41.1932910085370736	14.5892313036330012	30.0777996117604616
37.0032501940589640	14.6268122647322762	30.9975249820587457
38.3356502998833975	17.6830382276216227	33.3255510414002245
42.3103600514278142	13.0561209044960052	31.1274310226603426
37.5593520781594492	18.0332785862148057	31.4408803978440297
0.8724070038583315	19.3084609437531043	37.3152715856659967
3.8477082750659344	24.8430969968569606	31.7324571665404491
2.6500680668984860	19.0964194508576917	33.9069822542176240
2.0049435221355121	19.0740386749964586	31.9365289630643936
2.0712051496250035	18.2078470135694523	35.6892720357950353
1.4330572686323857	21.2760484313114446	32.2623854441988769
1.1885118749555053	22.9635413152172205	31.1549664536376802
3.9409815560273707	19.4352716424336371	32.3481511898292879
3.7388110831937236	23.6977347747610629	36.7956737055493974
0.2670743805518055	23.4357129209474273	36.5000143599427602
5.1519520281384867	22.8502683037952963	35.6534932165960186
4.4041625045783643	20.1371850318156866	34.0601748945920875
5.5592476865600373	21.4800540302751344	34.0330684600529381
5.9404791211108448	20.5041323414182486	35.7107815705407958
4.4461703516332021	24.2128809607206357	35.2058510280546528
3.5806812831783947	22.2309624101275034	34.4051501648261677
0.0595258090443053	18.2638552078506073	32.7262620678192704
0.3572330581403165	20.1273934090380813	31.8927037135861902
5.8659651072921948	20.3836455651829773	34.4988118204628833
2.7044759032579986	18.6652632885978420	30.9803016767402610
5.6389911246795652	23.9057568471450317	35.1748339050749266
4.0259338941314908	23.0701791508007616	35.1091059602016173
1.1997121570337319	24.0715627115557957	33.4613658119351030
0.8726667964149338	24.0112375284467774	31.6385251563454162
3.2534970043437488	17.9958374333024373	36.0998529574486113
41.7738912868249628	21.7977484997083657	30.2875701790012535
2.7038243918959335	23.5413222155405322	37.3962467617697030
2.8472932772709911	19.4310245214357700	32.7864700335619901
0.3944981662817506	20.9214507301591084	32.8436860697899178
6.9146127903610290	24.8786906430723711	36.4637304367869817
4.3488726582912873	21.3802288039311748	34.1149518575203174
3.7112543338798036	19.2648999052359464	34.5111331882153891
5.9166862530948148	21.8201718246810650	35.9563264660870914
2.9334875943402983	24.0393104483702409	31.8694615601806248
0.9957813127689853	22.5419446614954637	36.8291493367470011
1.7334080181216980	22.4370417970920748	32.1134528671683270
6.5040051235297600	22.1502084088843816	33.6568118592672008
4.8871338868736203	19.7984381413071233	32.9739374705101866
1.5017047767305991	20.2065528388673741	31.5837630973005865
7.3546467576873660	21.4149604850944577	33.1525500295345878
10.5085285258102861	20.3124337237151593	34.7891931414283633
11.0658779700708880	19.9109453673067911	32.7034916521230699
7.6817476188990090	24.0451099813586140	36.0613498251115132
10.3933162572629971	22.4987345054600532	30.5058967990286369
8.5585992039752465	21.5627499750040208	31.5675683055241052
7.6117085840062604	19.7800027401278413	31.8871358178223225
9.5463549482070427	20.8606566392841835	32.9370641674696927
9.4078565421591840	19.8390271975474661	36.7244330724280701
11.5311284971048877	21.4632645271405949	33.1542357938263095
11.4010636160192576	23.1867593662812475	36.7793094758318730
7.1027069508556666	22.0027136978709841	36.2237845572035368
6.4290943844684749	23.3644009108133304	33.6005280466286465
10.0943645887621667	24.4256641492086288	35.8881467853661960
9.4023322362914339	19.7111481084606375	31.1648219677724185
6.0241476578308726	19.8693321942177406	33.3626980442068088
11.4055954354892268	21.6935535707140978	30.4031363534429175
9.9968486805074050	19.9987351303479954	32.1812027083977128
6.9632046402102752	20.3333353794626603	32.7645281251976215
11.9791972693027340	22.2529698917265399	32.3615653349690433
10.3285294061396780	23.8235307139621888	36.9037640737350117
11.6019588457328382	19.9089976284764738	34.9794786408194298
9.2361380073322064	20.6412631622516223	37.5856098999127255
7.6941674951727990	22.9862885825113530	36.6064046371459355
10.5163441242531572	20.9216810818149632	33.6835426748229096
8.3816596953339531	20.4257548426960120	31.1178892966676344
7.6121596760931087	24.3377043355810585	34.8788580413943947
9.7292079144581578	19.5921878962506604	35.5870729279288440
6.3656698641070255	19.6907051605709569	36.5263001486869499
8.5235412781998399	21.4777468010940602	32.7672891159597768
9.3754960584568892	21.9382444735437616	30.7676252809937480
11.0163208617932469	24.8039487588961691	35.2451956310925141
15.2234140805719012	20.0377179957042593	32.0266131642668626
14.0831919397044274	22.5999046311969209	34.6596452933046564
14.2885818613387183	21.0500072754451324	36.4622079963665300
13.0760811748532433	22.8514620531484880	32.5472273461353936
13.2106199890134999	20.8374011643161978	32.5149350368105345
12.2383889226310831	22.3746482009513166	31.1580642103883285
16.9374942476766215	20.1811565807568805	33.5959904429074427
15.5524190180238122	22.5809441388413639	35.9242340418197728
13.1833160320576415	19.4970568125456936	37.3376059587612943
16.0009120158830385	21.7525330335045375	32.6519167695397954
15.3696317751029401	23.6322660276923493	31.3859221677770783
18.1926156323704724	20.2519019676440912	34.7377356138728786
17.4141133889714617	23.0242375758436673	35.5477049467551041
16.5490774646508072	21.4447524450935205	35.4493917869876825
12.6141615640401970	19.9062478187879925	35.5451342092957390
15.1958667508172720	24.3403025081211126	35.4658551110766780
16.6971955602248485	23.9301794863565291	37.0385882482861533
18.8298775405649224	23.2453627709540385	34.1478725338180453
17.0286147772049041	20.6143343428318104	34.7572452903862725
12.1167648176279190	20.4475766148956097	32.7690715790559040
15.7521998566242569	23.7306247761996048	36.3234332264578228
12.3168591269510390	24.0198694353400377	36.6427469835890349
14.5864188591491626	24.3582791611778653	31.9574319782211269
16.0636892347331184	20.5649208188431700	32.7976116243992095
14.1030903473005775	20.5028377013669605	31.8322877388055367
15.9308334509729708	22.6121160136934130	31.8576016154645103
18.5218255826785310	22.6905092070622345	35.1419365604472134
16.4341006447482165	22.5713628316188668	34.9962014340768306
14.1525333325135740	25.0936513981472835	30.1741201743621090
17.7585746999669745	23.5834451291775835	36.5744149857923588
13.4387408449486276	20.1582428706737566	36.3458378206671426
12.9162298737364960	25.1828357835237355	35.2721036542701043
13.5513157818409749	22.4010102117660672	33.5756652361440473
13.1757285699929447	23.1433559333199277	31.3511670185779501
14.1627631304004957	23.7483059562143559	35.1534483070383175
14.5265631385070133	21.9181558673206531	35.6155372810845350
22.1313804400809424	24.6351453818251436	37.3730620445725847
19.0767207946615898	23.0400672177529415	36.2004621049036999
19.6224956320837052	21.4374814602027968	35.9110312254853028
21.1068705897253075	23.9798727556947142	36.4226219073664694
24.1367020297777444	18.9046824920714265	32.0972315246634636
23.7641012244945884	18.7851897089674260	34.1341252130311545
24.4944199502076323	24.5944338324624034	34.9549200324833436
21.2346595974442316	20.5985106851757891	34.8824537100014496
21.7832683501246400	25.6519889969484645	35.2393270674080696
22.7479494948680276	22.8746276444586663	37.1649600085957061
21.2555900719873989	22.6397431920591679	35.4634633574093598
20.4614180004083437	19.9687112362241272	32.0905133962211337
21.6916373774188678	23.1910060798853905	33.3428314386915901
21.4416516670003716	20.2404006957822062	36.6369419877449829
23.1075547777830934	22.6808221588308250	34.6551945946187416
21.9909996584203284	23.5499869231750409	31.0663322856096826
21.9165162752056233	20.0369593331383591	31.2873195286153631
24.6478487560372166	22.8357174128075862	34.1058681438330282
23.4832765473029994	19.6920439960791640	37.4711711484029948
21.9240360786513406	22.6429644029435337	34.3699931642661838
18.5948588430269552	23.8615182243928423	33.1955018384538505
21.6347993393112432	23.2056600274336731	32.1880261556140397
21.4989343582872436	22.7049079195005632	30.3344389113618575
18.0933672363348705	19.7289285536065933	33.6289644336217606
23.8921268894796306	23.6250754361597188	34.6375161727997920
21.5609995473764933	19.3903596886192560	32.2486396528655277
21.1134494992536261	19.6372674423160163	35.5734878024227683
20.2294959617155712	23.3541869709288932	35.8592531707300282
23.9581776375053082	18.1601460101025651	31.1245129965645262
24.0098379980339232	18.0808640095093374	35.0762756826918647
20.8835088240204989	20.7212748993586082	31.2341791336008043
23.5298412576863605	18.4619282898916985	33.0253732032727285
19.8587007248904044	19.0901840740246946	32.6923654235843202
20.7697239688124675	21.4950972261978492	35.4938632655325463
19.1469152555135089	20.3718214236665709	35.4790516089776986
26.7023630926775546	18.4913650758496964	33.6551353923190391
25.4319175324447500	24.0001534588957171	32.6801049636558503
28.1995495059987604	18.1098716915033293	33.4431574074469040
24.4750798907563301	20.7823437117982976	34.0866906095103914
25.1640554690482539	18.5722647800577434	34.7449365617518353
27.7485755471615327	21.4954902933755427	36.2756292952218615
30.0239212921775867	24.8549661030657774	31.6085183157089560
30.3029552748772417	21.5678436722797890	33.1829588011015915
29.3554446778744520	19.6921168530079527	32.2044401947584618
31.1049879885813354	21.3683794225667150	36.2289278723201491
27.1623259285415770	21.9574276364790997	30.7838275791066138
25.6265961227270758	24.5772978805682527	36.6926391435835129
27.1149469220278760	19.3816466041205437	35.3676617713986587
29.3805876921439584	19.4892123279933251	33.8327337662500014
26.7545416427402074	23.3398924148865881	36.7928109772085534
31.1653428009135993	20.0387881929850806	32.4078643520501828
28.7069723579342018	22.6055856648089559	30.4721890524106520
27.5636208852774161	23.2276245248810866	34.9940551610175632
28.2153337880424218	24.1001683893766590	31.6497726319755266
27.4596250633122274	18.7627428095166806	31.5113796129670192
29.8552200531852492	23.8498927367737501	33.2377595513758592
29.9364548157870303	18.1686759646106317	32.0670953716300815
25.8508220274299347	20.0679942925178239	31.1507807323314907
27.4098413378193939	24.1551195608213760	30.2530200497384349
24.7199100018160038	19.8479897439095652	31.5913642689244618
29.2405268073039686	24.1985963271931332	32.2379914530469094
23.9574492343884948	21.8386346553361044	34.2131271546233577
29.7626206923253172	20.4220259763277774	33.1830274763157362
28.4823630515833663	19.5330346016950962	31.3141845805777734
27.3235525414369391	22.6382375278307038	35.9874233700821193
31.1641737134974797	24.1882466858513787	36.4147611765968193
28.2544368109970740	21.4901456118292309	30.5444497405800419
27.6370402870100733	18.8280214804408708	34.3671653204041760
26.3122880291755408	18.9595506218573178	30.8483942921101644
24.6229594519046984	19.6236193942426596	34.2047426237748340
29.9641135419933207	22.6861352388582524	33.4645796596557901
27.2872848026692054	18.3563161285173138	32.6167822214763632
24.6398548399322834	24.5292791934495753	32.0302798569975664
29.2095158917626456	18.6657466054643706	32.9737153517112631
26.0763146060136002	18.7223121450082033	35.5217839109718412
27.4197484933634819	20.4900053468013752	35.7257149884375664
25.6065609602197100	23.2423273213447494	33.5528697698359508
34.6218584447459392	21.9645695933942058	33.8798999104513143
34.4259394581713920	23.5316490759187822	35.5916662391767673
32.4829242739715696	20.9771946262141142	32.7918023633555080
34.5514644394212311	21.6534904890038185	31.9652929876494163
38.2770051985886326	23.0224914904071021	33.1658235557421364
33.4872406062458694	19.8148679843366224	32.2852404727532587
34.7342456296519444	23.5296686036647991	33.4822644521382244
34.6251786775311743	22.9238797640627290	34.5898627519870701
34.2068387479474367	24.1745464627842317	36.5371883327393974
34.3697247559740191	24.6606332168991607	33.5358475983579467
35.2622027540885128	21.2923859979617944	31.0189381830515920
37.0104196921271367	21.7200445745356348	30.7165315339671281
34.8257684368022282	22.4806638011970854	32.8197491730211084
33.8741052580183961	18.8357109195576022	31.7737522468709450
31.9490689284028342	20.9427177496898373	35.5647539863586530
37.0728315724868693	19.9700133792605392	31.6624556389425749
33.6783398116978745	20.9980279067278310	32.5085301941919127
33.0751952078948577	20.6128223122562986	37.1780523922730879
32.2659804094886624	18.9766976549697652	36.0341840243271605
31.3353497632073825	21.2617308485103109	32.6133599752772554
37.9738382672115193	21.6890537535549228	31.5860170592106506
41.2419515146541897	21.4196742123966501	31.3284342076717444
39.6332892181667731	20.1651852167651171	32.0926285957241433
40.4748045347812351	19.8810357996685063	33.7429902884429040
38.0713516752912255	22.2606874221197160	36.8408622733323270
41.2950625497979900	22.9677020757385826	32.9172012795321294
38.1326146012310616	17.8419993915605914	34.5241465649986168
41.4989825678380910	21.4361105233334932	34.2573942477227220
37.4292742495513622	17.8083934599705245	36.2474664370116244
38.7977518249018516	21.0975450281004449	33.4790490675014638
42.6079720865165186	20.0951037192899591	33.3150571501619837
39.8121664694861224	22.0035418979120081	34.3185740373373136
35.9537230864418902	22.3297828269299821	30.6246624582900893
39.0570590657253121	19.5862394367599890	35.7720487515977723
39.7826862378329480	20.8010731442795489	34.1564494004988788
42.4029247227677430	17.1252878352185647	31.7800161199115863
37.8554297562508495	22.7536271661989424	32.1276993922833398
41.6126482276191751	20.3232541442059471	33.9201991928945645
37.9562948158749904	23.4092596651881202	37.0876752134916359
0.5942293927557137	24.3065155627334804	35.7137536728995784
0.7527094630564615	20.3932876891376118	36.8275015176377138
40.8848844466022783	22.3864087107328444	33.9349015394041373
41.0373806241633901	22.5437754500217551	31.7936916040492008
38.6999563135195359	22.2551268094839649	33.9504748290536895
39.7955897379736001	19.2882300765452399	32.9272543332362488
42.2198084197264194	23.7009145707967583	33.0992010929489879
38.7513134230820953	20.9916542552527083	32.2835728387372356
38.7887211061491470	18.6484948273254609	35.1274200610988956
42.6447953504674757	19.3215459366567117	32.3846827988719284
40.5693359064539720	20.4753677838570169	31.4487370489859224
4.9060165975888177	26.8775373304492788	31.7285557143600982
1.3616480310763850	29.2725448044047099	33.7465864090916838
4.1509485934781711	28.3984532316231046	31.6393513403551303
4.9052444353924285	27.8825766774246695	33.7138371330174564
42.5410857969010721	30.1402998595460190	33.1621524251614801
5.0324031473431656	27.1051691641820334	36.9462353787833777
3.4702136480526140	29.9669455984192190	31.9322357591717747
5.4261004847261223	29.5759963005579287	30.7175221307348210
1.0082551474557500	25.1132521179121753	36.5104071384855473
4.7864763589479278	25.4739666103949318	36.8315742250356379
3.1310571463978754	28.4188092146585802	33.4787486296161987
42.0034598536294155	29.6083789135283872	36.8809376441794754
0.7097004909851395	24.1926023127656755	34.5289640961103714
42.5971416697002709	28.6472870148855385	32.2283316851863617
4.1148619590125639	28.6386154947293718	35.5458019999251107
1.6527307909330140	27.8272512168403914	34.8964239167442329
0.1722867556958260	29.9414276696191770	35.3688289044653814
0.7404189028580711	27.8222033127287567	33.4048693415579763
1.8567122561623355	23.7266087842893505	32.4039400883671291
5.5936318862830143	27.1530699496365990	35.3937012875394004
1.1969190637280791	29.9915830866628426	34.6944371662146054
4.9962635443047709	27.9548135092422072	36.0754155764741924
4.6629467610354203	27.5907418562320785	30.7435612792014865
0.3274160567496631	28.9761235491973039	33.1831123868582836
42.5592927501394342	28.9981467514129179	35.9053179853621103
5.5336259531941172	26.1840432114607999	36.1438439325680037
4.0453302751640683	26.3760848553525271	37.2430758947305947
3.9954960276698332	28.3921837089477123	34.3491953816163473
3.9968710919502852	24.7821489416884795	36.1910875272016312
1.9503742419474173	28.2077769800576590	33.7547591888251546
4.6912522112226878	25.6998211966700225	31.9359073373416251
5.8164141544323460	27.2590897391559217	34.2334149070124596
3.7618898510467358	29.4240323819308927	36.4327975878017156
6.0971202546904371	24.2149830213520865	32.8722284628689536
0.4854395924543206	27.6225105212643491	34.5919417509746623
2.3174090924661574	28.1559686841136774	35.8085606020549250
3.1656931267402428	28.9163220672070800	32.3884496458863111
2.1700624722919466	25.3739241291259141	36.6191554705840190
4.6599432603901301	27.7323920711608451	32.5599424482902151
6.9080348052478389	27.0480238529913315	33.7580198665117521
6.2294532013040760	29.9617939939550268	36.9244477629001011
6.5193481606655546	24.7320095069631307	35.2995495985018479
12.1243985123413971	25.7596577033297720	31.9748353697224346
10.6630577351030933	25.0472522338983588	34.0489915022108605
12.5991393190983469	25.3220628025541430	34.0218166601128402
12.2538603668649486	29.5056134712106335	35.9392727048852763
8.2868206742067674	25.1509504051997972	34.2451832115166468
8.5113685344107353	27.2668105214054570	34.0176691953279828
6.6857440863272517	31.2872963669324200	30.5948644365270646
10.0130077335750141	29.8995445328269724	32.3660368137730643
7.5627756393797618	30.7837666555113501	35.1936734785833991
6.3392060544650883	25.7713726252492812	37.0651558969313655
8.2752146138606832	28.8840895640976072	34.0588108722846599
9.2029309854191865	31.8904437851821143	34.9192504544774494
5.4367978013459606	24.6961980156423557	32.0001067224477183
10.8457074859249207	29.3263985735464878	36.8184045640519173
10.3517353332208302	30.7357341364986709	31.0043700707453844
8.9740051405781589	29.2698280036864986	30.4276083787257647
13.1552875851237125	30.8656668879544931	36.5932601225076866
9.2277741921519816	28.1641418380435198	34.3197314872251837
9.5910117678141624	31.1817274377045237	35.9228063358027399
11.6418001087869989	25.3124785443699878	33.3192054889848350
6.4675810614047249	30.1174996600936673	30.6323436603789290
7.6386965311806687	27.9789382375848028	33.4947895840335903
6.9256209339781849	29.7512008439872595	37.9281734366334717
7.9907322779391885	29.9585866065203170	34.4552458584839414
6.4574766169057520	27.0323189225747349	30.8915702630819098
9.4695963988565222	24.9219243316999943	34.1836831270976731
11.1262232853327951	29.9462196704758661	35.7909868858701543
7.8004453892329035	26.2708342141708044	34.1355430733276108
16.0346079659118068	30.3451862658666336	33.8875020015922530
17.6316934800069625	30.1072463849221954	35.5484795282361929
16.8274480967600262	27.5467509420511121	34.1624668141091021
18.2795106194686596	28.5828712027419947	35.2642359000590986
17.3931256618317605	28.4638623138682050	32.6287963011858722
15.7493812940143645	26.4728131056037732	34.7964048045589252
14.2230281753804064	30.4614334154247111	34.9500596045178256
18.1568766206833665	29.5261006032782696	29.5717291369907436
13.2990464542888631	24.1352059679963595	35.8959519511449798
14.4737915421498009	25.1875625361182394	32.7728125743720682
14.1604506586420680	31.1612160201294159	30.9198175916408537
18.1859848685654271	24.5661811479381598	32.3559176322346431
18.8987875462623265	31.0139414789301924	36.7018744539881112
18.3336040921602113	25.5324045666811159	37.5883561361365182
13.6645815439586382	24.3029933398936144	31.0879834691490053
16.8953702485414041	26.4055882157503774	32.6962696606569381
18.5785295179018775	27.0394673285252907	35.7909623190396289
11.9245924887982238	25.0374658366344462	35.9879471939351845
14.4903321898343727	29.8714975343655915	30.0357017468610970
13.9920363453300247	25.5155871838145885	34.8068789546781332
16.7026652173374721	27.8951608105465922	35.8612550786678028
15.5487935135837656	28.6547558446625459	34.2948795713329062
17.9665549901058803	26.3761027520152851	31.4656123644369750
15.5762115664684568	27.3867857677293323	37.6837784568845251
12.4916574090303722	24.5887846399060415	37.7849931049475103
16.5248400792845800	28.5661205568760863	33.5509156513719162
18.2400899498124218	26.3067308819326264	36.6729221695128587
16.3423479573834882	26.5086263476003268	33.7402770059634562
12.4290012130445700	26.8393549350040246	31.5283456255130687
15.1235917339943704	25.5108961514464703	35.1586715243399794
15.0934959460646727	29.7747965217765831	34.3795065929303334
17.4865493904658500	25.4983821405472639	32.2115338269974671
17.4509890921240363	27.3322089595251931	32.1438784872553853
18.5607260343264606	29.6998851334194818	34.8224472502697466
15.8067821334668608	27.7025459901501705	35.0215034992264336
16.4262253988693310	27.2824383700906630	36.8758430785666036
13.7367716328729621	25.5241354622973233	33.6330481913418424
12.5711015796058323	25.0156642614313327	31.1047806564495914
21.7628763102080427	28.8320563805817756	35.9479364206738765
24.3682021015094925	28.4079830711260932	33.4427500093092931
21.7357132571557941	28.4303461942045459	32.2381345585383912
23.8229922235918501	25.0274674466155318	31.3300320552939091
18.9263776822141132	29.8276641762037009	33.6315475343679253
22.4900691031997191	28.2240414826596400	34.0936560090557137
23.4092543393455124	30.3642773289158256	36.5987227781984856
20.4425054913004800	27.8651495812288204	31.4477497473680643
23.4962025688376883	27.4650983569500937	35.1102039141701567
20.9180284433882768	29.4254707417237675	34.0308549582529096
21.4830117728521159	26.4701303646205197	33.0679731206581025
19.7283421469176616	30.0842310936707094	35.2157394055881596
21.0570565527180911	29.8671714134228239	30.6490912920516330
21.7236034113460619	25.0600398961139383	36.2847654518147138
20.7396887279362083	29.2952439671620297	35.2320742967041411
18.2461592563435993	29.2561478342097629	32.8602289918132726
24.7407492221915000	29.0641310747964567	34.4052963876360209
21.6154022775489381	25.8861922837489153	34.0928939979751533
21.7501555776549154	28.8473515776116365	33.4029941743662491
22.4182623316699789	28.0527006033189501	35.2831205278553099
21.3711582011516654	31.1466522731595461	37.1849317660093988
24.0801593398408720	26.6749445175520776	35.8012432585724127
24.9950405225751133	28.6384150147445808	32.4580283551367330
20.8603718526105233	29.0223345754866386	31.5314396307899294
20.0479622889165938	30.3112506868339544	33.8606013354195312
17.6675584793121132	27.4955792111764410	35.0488622033433117
19.5874553825083773	29.9919289140452712	36.4960148604943626
18.5992951335275158	25.7718261445800927	30.6621229600322422
17.3266270991760507	28.9849581314262146	36.0465549630566997
22.5331095682111204	28.2397220242741085	31.3049035542035021
19.1438726969445412	28.0976259929520502	35.9560397597107126
23.5231046605989782	27.6534617056212610	33.8884617448175973
22.5261854716674890	29.4951010562044971	36.7519152809839795
21.0693212598432567	27.3036773553303895	32.3296004354634334
25.0691128050063803	28.9320151818286249	31.3099036389833572
28.1789218459711606	29.1993168853144702	33.9298428853666962
24.8803933148305880	26.4432769071671245	36.6173891013474488
26.7839193648492859	24.8192381660539176	35.4609213335653379
26.7361839815258975	30.6970334671335010	31.0085920373322033
26.8884648573438625	28.9086540322194026	36.2314512242432301
28.8307944708066088	24.8878857061981584	34.5809221090195464
25.9409052671664853	29.0647776136281912	34.4353008394236966
29.5640140961871936	28.8294359641499014	32.2233242283842429
27.2190273076335956	30.3443110559434146	35.0974755704004480
27.1819165516902679	30.1130041829844153	36.3028220391526375
28.6028544942308578	28.9194698369994789	32.8814810226898899
26.0156345340638318	29.6347935674492895	30.6952375815847347
29.8507687956470278	24.8912922000680084	33.9593667263908614
25.6357829760530578	25.7159216507474753	37.1693711448367097
28.4564032846309409	29.4650518964600643	38.0620946877906263
31.3696633509351877	26.5315198234199912	33.1301574826747327
30.6402115130931634	28.4186763313903654	32.3794245245281260
27.7551644624990530	24.3997032697209342	34.8208976727353487
25.5588033963539338	24.7388688719899150	35.4549936970741655
28.0022674415635962	25.0005483770180277	30.8710114569368557
26.8164749884828559	28.5723895572572211	35.0912708518122827
25.3662050795706371	27.7968966176228847	30.0184611682861373
26.0965568382089366	30.2693839217273570	34.6601363133795815
33.2537672827115358	27.4733854787758602	33.5232464500836684
36.6338812841163133	28.2348647944774171	34.3254245913805676
34.6741782339928974	25.7444637512275314	32.9832187348284975
32.0366979821468831	25.9152814736548258	32.3276861528046098
32.7316083696585096	29.3960310913947218	33.9941115314361966
32.8824875928870028	31.0046461507546631	33.3735779222260547
33.4130389964154091	25.2991099521371865	33.9952667683097332
34.5268403320994963	28.3194985404921731	30.5449961137601136
32.5016389693946266	30.0749149245098018	35.7049253140758509
31.4863337362133819	27.6893184774714953	32.7577855267184077
31.6738551265623762	25.0292488358269338	30.9685262968890633
31.8391117593310788	24.6139285143427244	35.5357231315970381
30.7534740600241356	25.6123211212676019	33.5713232963094796
34.7634684368157920	29.7475798036139167	31.4031613310177420
35.2373590442001969	27.1080972923815935	37.4999631871128329
36.2830342724208066	28.5596029307021837	32.0943940351272872
32.9943131095315962	28.9830912890122327	32.0799923426645250
36.7731053668615289	28.5853178354834583	33.1693352422567358
36.7047414115236066	27.1223724528319927	34.8337300694481158
33.6951631280531743	26.3468455313334005	33.4422951068373493
33.1599531860058576	28.3505674090250466	34.3362489173684509
31.1152186539215414	25.0286990473095621	32.0699971144547433
37.0756479775738228	27.8850426469254415	31.4289176213370069
32.9692585706110890	29.8887485872777958	32.8973279259703872
36.3010026384276969	27.0042946748012511	36.8360403280628077
36.3861998014795702	28.8148924835287694	35.3918987909678933
31.8124144325395122	29.1645812806338469	36.0069513173599560
33.8002368289941089	29.0509358362570751	31.1811812029138729
32.4228786501240620	24.9544910517909067	34.5763820993284554
33.1940936529769175	30.4485793520177772	36.6163291252344223
32.6512385455998455	27.9252457948159112	32.5521301748325627
41.6752668988425583	28.0260310683602469	36.3874537361562247
0.2533749528074788	24.0492529149682710	32.6598472003551237
36.5636756763852659	27.7243024755453966	35.8599255955294609
38.6645639274479151	26.2348581644710208	33.3575403947187681
42.3646901927337751	26.6911494612386129	31.2236684046938464
37.9304249124710253	28.4496070209064129	32.0753693515152989
42.4626529737053957	28.1001607118454260	34.9836679438125984
36.7435718949248482	26.2690924074639334	32.1995657178476264
40.8796908335464195	30.0162534816525870	32.8589288909094677
39.5496048156032600	27.3816521939110764	35.2032267522410010
41.3366560024986924	30.4075343366891637	33.8841884843230829
39.2673400216475699	26.7274546638105299	34.2195665979827979
37.8911197789425458	26.0505582073949213	32.4227270437535253
41.4223167462735873	27.6352101784585074	35.3152865474262398
42.7588830784779930	27.4808347955945962	32.0130070865687060
38.5044914427202443	29.4653984148427774	31.8653498257572707
40.7723707338521990	26.9087845564087438	37.4375839901172398
39.3590659321830074	27.9524110157941443	36.2164610160917420
3.5651499941220290	35.1641102499199718	32.4658613660206825
2.9148593601980499	37.6488883112426507	31.6632810050858140
2.5197918591111597	38.3032488928238664	36.4050074211468342
4.2231772557648544	34.2505504282107651	36.6721908175288078
42.7658306718257890	36.1651780349552325	31.1574567404994092
42.8854302887071910	31.6235591553870314	34.4963909126891721
0.7513418479435094	32.8537396304384686	35.9168575823103566
4.8046173068707310	33.2815529010078492	32.0567717221307191
1.3838706824123659	36.4033156929368786	31.4921606807189889
4.7040780789791850	35.1570245347135995	31.1844020810223661
0.7527468449599916	32.4079128081933874	31.6213413974989166
3.0600194915001024	32.1398170598856652	32.7452037408999814
3.2260936461134229	33.3942997388059482	31.1386776683753332
1.4693493776341409	30.9555801102324004	33.8566599204510439
2.9449564832563340	34.4867322202592419	35.2534061721500223
4.2512929380370403	33.7777984930730852	33.5910360645295114
5.1616892593650761	35.0942488427285184	34.7765317608858382
5.2659850406254529	34.4304303151950819	33.7550635103860373
1.8200958432153869	32.6469751034873212	36.4893081041188836
0.4808169373115708	34.5837285745426541	33.6996488508821699
4.0162933540792443	34.1638217672440803	31.6003436935151036
5.9649137325970001	33.1486889647366993	31.8609320904294506
2.4979105348210919	35.3220583807713311	35.9445226139397462
2.4858283342944425	31.2015688336961077	33.2811792495354055
2.5546414003932760	36.4572979927503980	31.6837044920414641
4.6396952735211299	35.7322321119811122	32.2633024483429764
4.0772252391927601	35.4982460395540045	37.1669636004117336
0.4710323016010028	32.6656015782160694	34.7264813139325383
0.2880462585433164	31.0376300586616907	33.5172274121510938
3.3770521604819081	34.6078916542824402	33.5423713946654161
4.3966174167869614	29.5939023385129651	31.2596470701503470
3.5478837570022610	31.6734026993439919	36.9485444069143654
5.1352519804765846	34.6781849622339138	35.8996443007213202
4.9774116716015113	36.1870092179469367	34.2285990808637024
3.4699813639643184	33.6102017030651794	35.8980691969771257
4.1091394999303406	32.7721158668414319	32.9322745473572596
2.6300126953549632	32.5475219161380735	31.6903626380759995
11.2280347934443174	33.4303662371808556	31.4413480568140820
12.1319342363451366	33.2563884766826874	33.0899075141555485
5.2672559458554886	35.5331392988681429	33.2462644394728315
7.0466512559110965	33.5754509779154873	31.8968695697007867
7.7605672443475227	32.6912572701345070	36.2219412335574518
8.1826709813887391	32.5940489991560725	30.4378059107416874
9.7105878262434580	33.3771449879485118	35.8711405008188606
7.9230557670592017	33.1667162386056020	34.8360018057603398
10.5779373593464907	31.8600055954878840	33.0642214198638840
11.1719193263209231	36.4543059035083132	33.9118000628033869
11.1914079674405489	32.8252151167988444	32.4982963933841233
8.8044399793750898	33.0993415004560774	36.6936883632056166
12.3196938190768499	37.2937071384726124	35.5693894201473100
7.0751506985432977	30.5354520655843942	36.2856892733978995
8.0482963193635744	33.1915968723406394	31.4290982444882516
10.7983967729233825	36.2292052406062695	34.9963200379401869
10.6702276943596743	33.3132982988293520	30.3313774205796491
9.1690336310602625	33.1406390681845693	34.8265122567473995
12.3377976554440583	31.6973541672396308	36.8992472491077166
10.4635483886875953	30.9949593753583130	32.1978940331391001
10.2103572861635392	31.4542723650680927	34.1805046524555109
9.8110140466880775	29.6401531089750598	31.2120547776578974
12.6798547184139601	34.3310283062005510	32.8333902176167243
7.9140514829804269	31.9511952757791917	35.2086000670195887
7.6171304270678517	31.6546528189143004	29.9570776177977507
7.1331251803454832	33.5831264414380186	35.6934074198563707
12.5678079996246961	34.9740950653294220	31.7880406954064334
12.7876580076315616	36.9827180644404336	32.5866875930498310
13.8514435775808202	32.6806811116325164	34.6600894531639199
13.4535383229318324	33.9660825825205919	33.6726113403540879
14.4698219389489200	34.9393518235332436	35.1352648357831896
17.2348026570211879	34.6771966273969241	31.6932034619479879
15.6624088329519129	31.9604963742552748	35.0907614852452312
16.0831890204149488	34.7072338540665939	36.5563019257637620
15.0296180844274776	36.4247554295992515	35.3806287445576260
17.8353557793273225	36.9740721995790977	35.6073302849046982
19.3533749482097477	31.2849888706900323	30.1731955989297873
15.9463552627474527	31.4667454160077433	30.0538298189765420
12.9365446951248657	36.6899368606367844	34.7181936346693831
16.4123121465190387	31.2700551453922664	34.5023458106371024
13.4410114376392098	30.3447851230588519	30.4317042640363198
12.8152267055899554	36.1620161541659542	31.6847559817941615
17.7566131352772985	30.8917394103944360	36.4239382768885847
12.9889317983927324	32.8214459857082304	33.8245655389394884
15.4233397123488878	35.3558852346850969	35.7839246023184003
14.2115398414444325	33.8873454160812031	34.6178452364489502
14.4886911602051089	31.6957001101909128	35.0105805143564339
13.2831902661291714	30.1074023982571184	35.6649774840166103
16.1574755982633853	33.4750766101743977	36.4827050107484041
18.5493486735753308	36.0876909149752194	34.3751450701938666
20.5636162952357111	31.3750261432114002	33.6767387149458557
19.0862891781863837	36.0182156910488160	36.9281286837515168
22.6313291217218158	37.0367909307276619	30.1059522033882310
21.9967901731307087	32.9798635928647315	34.5624241462628277
22.2575749552790505	31.9073583482336751	37.5164193382054663
23.6086303084433915	35.2336025583137911	37.0223917935270208
20.3075026941828689	31.0481846139818209	36.6783042138754567
19.0691958324507809	32.6239800568475005	35.8352073155638138
18.9002333414798649	33.3876614898211557	30.9136270378912918
23.0189076772733614	33.5570272664778599	36.3200223795992230
24.6605608785646560	35.5184729628829388	33.2286337919294610
22.3561829003722963	35.0300600075301247	35.1963613479834407
24.8413928488873168	36.9911688861641323	34.4355587036787298
19.7225720038170280	35.2403128778445023	32.5033258171834234
22.6805777062834082	36.7930532215684281	34.1144979653969713
20.6807037384133352	32.0968853978840869	30.5709406293651469
23.6851993338890630	36.3499407056153743	35.9003100232936632
21.7406403476919508	36.3600135952491712	35.9502597564012802
23.3394250260230471	37.4753646314585751	32.1745496961479418
24.3353240547980221	34.4588051756191831	33.6059239690812177
22.4067741311017805	33.8294567780656905	35.2902827426754229
21.9150038398149434	36.0969043502680336	34.7603425911767658
18.3849911683521015	32.9720392181391162	36.7439569617239528
19.1184707515957406	35.6205601569121129	33.4402497845144850
19.6140359995134617	31.5841416588805153	35.7181115428153646
18.7302277529887995	36.1994772984632718	35.7911733053210170
20.4560195570424135	34.7821860743669049	31.7117190290676447
21.2589709524237485	32.2203671437680512	34.0741114353867687
28.6701859493245443	33.5148991240119543	36.7322466056032084
28.4755606526660259	33.9201216824780047	31.3232609471812573
24.7043127432678311	36.8374465943220812	37.6842682555594095
26.0240162337913645	35.6691118881616660	37.0287059236260063
28.7269617754530913	32.9593809376178299	33.2378955192870222
26.8577082715938396	33.5290776886071029	33.5166115848693664
25.1941324557087363	34.1131222117838533	36.7080559104641040
27.9304308132200312	34.9960510532237237	33.9643061744278825
28.0754670386613085	36.9558247637993489	33.0196477681577818
24.8737853566429798	30.1997056250654374	34.8650938448353855
26.6798822915649616	31.1100631343127212	36.8107343436905765
28.7248619836042280	36.6683744125531703	35.4699830793809241
31.2221752821810021	34.5602601029273444	34.2580336734217852
26.4024763890757477	35.4199717063556392	34.2685353325278044
25.2264085679471819	33.6870081493855125	33.7011498556775493
28.4228280189194464	31.7426111902909689	32.1298391896760975
27.3870597050347087	35.4773281310220128	31.9508950514443022
25.8706639714204130	32.6605828768207331	37.6702048181847431
27.7246892216835299	35.2322674472283168	36.1735643411788317
28.9006001145027049	35.8306841414491188	30.8543951941706638
29.1678044471993410	31.0095668142276146	34.2061640452156155
25.7552135432549321	32.2872260455792954	32.0091695593741221
26.7358959905022573	34.2549188678617824	35.4242093616521814
26.1053299380622335	36.1125691266611639	32.6421880490788681
28.5352033439322454	33.5469955274374740	30.1756640463166619
27.7178150193566921	31.4596244275842523	31.1489852829349800
28.5085825590464488	35.0781744868734648	31.6601959067690153
25.9225121149336744	32.9638069634554114	32.9714846688113496
25.9347872484857831	34.8594877918988999	36.1389094847532704
29.3720761376458199	32.6697819003156482	36.3113389680113059
27.3950368825108619	35.3368026920161071	35.0170206390344134
30.2752154182378135	31.3225604309111532	34.7191255852438871
24.1585363748114830	30.5982453975379265	35.7190468013430404
26.1812871199492783	34.1679013814921007	34.3219633158279649
27.0836279482511451	35.4928437247828157	33.1974182215248703
31.4875411972324635	32.4937370765814251	31.5873025069442299
28.5517612064651054	32.9647094094555797	32.0310082968008487
28.2856353700451102	30.2232033304131704	34.5307924554409809
28.7790467244419297	35.7816694462694329	36.3601410481464740
28.7970841438092862	31.7385930222544879	33.3186392481103013
24.9800797149106799	35.9841305958163034	32.1798985882064486
26.3352973123379464	32.2309151613138027	36.6868403925771318
28.0153582176223601	33.8032946708418933	33.7332996000870153
25.7112703496993760	31.3466869157663304	31.2881001236754237
34.6264278972049624	34.4623260952709529	34.2068534475159467
35.2065118543991815	32.2479136126983335	35.2972275937563680
31.8489378657252153	36.2978832487708303	30.3584366589800325
31.1681482013943665	31.5658135046751873	30.8480217274696251
35.8927597710142834	35.4118877590613508	33.8897379795616303
34.9099516844163986	31.4137400664209032	32.8224626508501487
36.0430620093977581	33.5167322464021353	31.8236455807519931
33.4941466446357836	33.1844541779898847	36.5964099926686188
32.1890450770707233	38.1495006586744054	33.9396475142932701
31.5701903046288308	36.2129336798354089	35.9195201401855257
35.6060126424347132	31.7637296969104739	31.3327110576845023
31.4253672856624284	31.2379746780145382	34.3065369908472277
33.5286607906014424	36.6561627677099722	30.8636755785671539
34.8455791713772953	32.7132498955563875	33.4286653198695447
33.1241657596674415	32.6607576477876549	33.7093840815859309
31.6041479633846585	34.7306349236957104	36.3914468442852268
33.2552485770048776	34.8514322942371066	36.6932641562362960
35.3491015068185419	34.7210092740087504	37.1222313267238491
31.4525953986264497	32.7715391255890580	32.7690184659175117
33.5174453509245041	31.5783088060774162	36.6974226672550614
34.9704772440402536	34.7351977645475927	30.7539067921898308
33.8321106489934067	36.5381699937747442	34.1203633865607472
30.0102178922312461	31.8990407830395810	35.7275703232156872
35.0374873821752431	36.4820132869995319	31.4876932912865719
33.4667016329107909	33.1258408163062299	29.5965349556276038
35.7375173708651062	34.6949550550668420	31.7786104001576248
34.0236580219798341	33.4705414317383187	33.9101149539441238
34.2289758700815057	32.3102310797221790	36.0077768035290688
35.4794493126167083	31.8339254191675884	34.1029278857510363
35.8331769484258515	34.2096168845056496	34.3051546388809783
34.2822624120970190	35.7022464503637309	30.9224892502608419
35.6236177559942604	35.8391619299603406	36.9067959439943252
35.7174653602869299	34.2996951759588526	38.2200206861685530
32.5736535872338635	33.9228052808709037	36.2913073369132491
35.1760134402678872	30.7635573834559182	31.8630402484644293
32.0602705281379343	32.0053383881653062	33.5536514175323646
30.6082473049003063	32.4958995428332145	29.9322265506880605
32.3769926872142690	30.4751819152422385	34.5438793126657302
36.6940569530617964	31.1011491592351490	37.3562731157345382
36.3662278458455219	32.5074750807618642	35.6202736088296561
31.3325236646448317	35.1715316727442016	35.2499959249986219
32.3875125993197344	36.9937822466448480	31.1810851989642543
31.2006804382131584	33.7592580770119710	33.4019603158889353
33.8466487659077941	31.7738039500870997	33.2379132429095137
38.4438980746148715	30.6367479544912698	31.8066034632702177
41.1789749014036488	30.7417527759119089	35.0476019040441926
36.6408626264524528	33.3719688566783077	34.7059294252677759
0.6248312004700898	34.4813696828262835	32.4656134527128799
41.3867515586610821	35.6186087506497913	35.3951180759320820
40.9012915080286561	36.5282847208561208	34.1162233603715563
39.3245518953492166	37.2383518029927885	34.8224216422018813
36.6680926137404697	35.5476625191087692	32.0289420334163637
36.7539132640577790	37.6467560639260483	31.4448124900562469
38.0114081819275711	31.9927693781623965	34.8298821677140467
41.6697267165213319	36.6957574017078656	32.6158605328262681
36.1036093508928246	36.9282883413462315	37.0352483597097546
40.4069468230318165	36.0180877210774639	31.7082721758249484
0.5680878307722341	33.3575125692990042	33.7065307920696284
0.0939502001777902	35.5482837228538671	34.2466294532225319
39.5725683251141191	35.6864117953885369	33.6693492393201481
36.3977903543247550	31.0530217994944167	34.2123480843587160
38.0002062106554988	33.9869840606579388	31.8047875770806669
37.8421901762655253	32.0877385404830235	33.2519414423710131
40.4063651702140660	34.4800886191536264	34.5246344174963724
37.7846406003742246	36.6147361437222116	33.1370267326196029
37.8341543560191269	35.1740144901806744	31.7552449666938728
38.2149737249448762	31.7182956113750230	32.1991886985509623
42.9004352122280324	33.2203386247583836	36.7306265148150146
40.2806507435107051	35.6867527560776878	34.7630635964786592
42.0422223986421741	36.0817510891680442	34.3806282087277779
0.6113527754202367	33.2472154593314571	32.4784722474578871
42.4041912118338971	30.8939575033009675	35.3499399091259292
40.8033095813062161	32.9815863471609916	36.5895156059309556
37.5510422500611654	31.1807780663579663	34.0380503906561671
41.2304802816987248	34.3748717214535873	35.5364009202378170
40.5867666491067567	36.2382828539421880	32.9381910555104156
39.6856657867815628	34.4776619133246527	33.5672959340858412
40.2519168784876555	31.0796608840453494	35.8204751261090166
37.6121793973812757	32.9333461190226586	34.1285875603034796
41.8261830333969584	29.5588205166528297	32.3206795933344040
36.7060439657665896	35.9581729897484834	33.1847605763924776
38.1506259226515496	31.6815019466756453	35.9716776802279554
0.8476271503544653	39.5011652101838777	33.3482662936033236
4.7937421913123845	37.8306236141562735	36.0467451254245006
6.1518578326288811	39.0378168904248497	33.1696144858522075
3.3344536833025558	42.8546310779671558	36.0622962067543611
2.4169977268030300	38.2319072985087445	33.7140001932115752
4.4122512580154609	37.1530964188252142	33.7619989152204454
1.6677917739293584	38.8645617344727441	31.6954549119081150
5.0806789140150128	41.7277066520663595	36.0820129852676388
0.4624461223941271	41.2444483485643758	34.4308216345194893
4.3643977662542159	38.5942350212122207	34.3260646444493673
3.5446759859239099	38.9643597019386334	30.7032220357261707
5.0992244221210532	38.2206356584872609	32.1168972289804344
1.2510434274060898	0.1252126027663715	33.6440525565933584
0.1494213254484323	38.9251597041129926	36.4044411169609390
1.9383592113839485	39.2421991553737470	35.2940419158299292
42.8859608188511316	40.4451615938362679	32.1730109633215804
3.0148098215760792	39.2292265854314621	35.7838103906136595
3.0786361288787845	37.2794449771140393	36.6215640962655229
4.0368169607506523	38.2200436915854311	31.5661125758081340
5.0492616357648057	38.1958406375598969	33.3742063124604016
5.0468175378921769	38.7417536958506119	35.3097869303138694
1.3095890310706855	38.6952550806965974	36.1930411429153054
6.1600923799286713	39.9009317416660423	34.0282455697099664
2.1308951271769452	38.1681882817068470	32.5594328874351717
5.7533922590833102	40.9475875720130347	35.4974052702915159
1.2668429618927657	42.0052433159244742	34.0545631987294968
3.4558596992451567	37.8142999785395659	34.1613373808660938
6.2425478204481539	38.6334717784444166	32.0341598668166156
1.6293839310727685	39.0873339070883787	34.1529669905570259
12.1056304013957501	41.0138553498128644	33.6201505839366135
9.3422603983314474	41.4441078056968806	35.8166692118994234
12.5855076759685591	39.7040848762729723	34.6403832379529817
9.0139042984559499	0.5877477910361714	35.4157355175076347
8.3724505115410111	0.0185481018043063	33.4053675585403553
6.6831145737331985	40.8632692272052367	34.6181898483402719
7.1608620496128363	38.1091053682781222	31.3763143029058114
5.5655790226471256	39.8032023766236236	35.0911504726640118
10.6847420922900742	39.9483645450875358	35.0971355251452337
8.9229519072609236	41.1902544829208423	34.1476703449099901
8.1058310361619892	37.7006234994924725	32.0008457694404740
7.8532663671862641	41.0852259533099868	34.6498265844941571
11.6623646153191061	39.3546948281344484	35.4970345278331223
7.3445073754132251	42.5431933362760191	32.7545571529716781
10.1312285619590021	37.7002405611966438	31.2818330239936202
9.5511872603650847	40.9645587646545692	36.9234009910938781
9.3496253194787577	42.6368649495465988	36.1554729305229046
12.3125339586965286	36.6988496614037203	33.6663398087775718
5.1823896297328060	37.0139903378946826	36.8268846429483290
9.2907968422826652	42.0787480457663250	33.4123645081679115
12.2953153226554797	39.8174772085800583	33.4431892241221860
9.8517521531665384	40.7788500261409936	34.9251444307001648
11.5644502214993903	41.8851425986458921	32.9451155061515877
16.2732103707345814	39.0082207837612529	31.5282652715258145
15.3416820852816276	40.2652814316179999	31.8274177956808657
18.4279132660793472	41.3651867081863500	35.5826575678628387
14.8987843646768408	39.2257998015688258	34.6934390107541546
17.8074505956838323	38.9116457910121056	32.5656107675148050
17.5262398448788765	42.7836614425185005	36.9464821022223973
16.1667620997701036	40.9824704625664964	35.5557809486768051
12.2756521705735260	42.3798175035999307	32.0490751168298758
16.3899973753288783	0.1510393125705687	31.2216133110736287
13.1532432296589761	38.9537076343249922	33.3122332972778139
14.9667408414157865	42.2968758416207109	31.1975279493696931
13.9995444390144375	38.1706660205473796	31.4934122095856850
16.2643438024055413	39.1871103752009233	33.6776824329031825
17.0223237868398733	37.9093788162172274	34.4838184912960273
17.5177162283084300	36.7365714055871919	34.4565380631154383
15.5660942970234935	40.2280148495459002	34.8756711713994747
15.5192306493201801	39.0718516270897211	37.6033310268225307
17.4901572669778567	42.0723024947352400	35.9455097777081107
17.5718946071595354	38.1371434898334130	35.6148840575557770
13.6976735121966886	39.1853546142080162	34.4310487983278435
14.6891479102854383	41.2081077283266310	31.5538611102811934
16.2203298369104942	40.8559957525268658	36.7387550344003699
18.0326527356448985	40.3442521157238190	36.1455217817967593
13.9705303136080836	36.0591585338116261	34.9275049254373400
11.8584878910687479	42.1446072637521780	30.9198041236820487
16.0372957289848479	39.6355862818479849	32.5809983114358062
12.3822384497953628	40.9506230307282308	34.8539042728432662
13.3365175305492603	38.0797507997167202	32.4953627499644853
15.7678054043731724	38.3738380797601906	34.4469699372716178
15.1962029647427919	38.4127900534539677	31.3371817310860941
16.4599487130899291	36.9239654436635192	37.5268268197986856
13.1767531522008472	0.1559118115204684	32.3110806119225558
17.4852906598573945	38.8884190376069938	31.4287366962892172
17.4079884425572828	38.7468668627270887	33.6538858249186603
20.2161161422113231	40.3166918457157664	35.0657793103727400
20.7486191357881538	42.9934636094216742	31.6463672153966833
20.5759052161090068	39.1991348617332562	30.7325265806025492
22.7058663993192589	42.3238017157807462	32.2785219804768388
21.1464856087207203	38.4336149684896284	36.0816993323655311
23.8083451505706307	41.8741852373373078	33.4045950976777775
24.4137675379223786	36.5704430383452035	31.2694846681965721
21.8719207423104294	38.4825475865844524	33.0750740297760544
24.0591151446828952	40.4636172074814340	35.4968916623873980
23.7285730567232562	36.7587457652997074	34.7721537697749881
19.7667101737284945	0.6679940682459471	31.7297851719620390
22.6369835462076274	37.5707530119744675	33.1812670695521348
23.9150744283472321	41.9741068920077183	32.1697987784658110
21.2393346600162332	39.2745116219847077	32.5297339607026146
19.4163299873660193	39.4171404795253508	30.7434872840684612
20.6971270190369161	39.3326544624717229	35.4872026672344631
23.1742067732131183	36.8069661627334739	31.1715034760524006
21.8455224869980569	42.5307761610351065	31.4067654287878852
19.5867457904981812	41.2782747728783193	35.3181466602476206
23.5010701871561380	42.1536151928904133	35.8836623874957752
24.4856305741244498	37.8224662361225228	32.0308971196894987
27.4216393774415792	37.9464691064727191	31.7104580140141650
28.2978644254667202	38.0523071145542744	34.6228151307925103
27.9972509133747316	0.8615350541721727	30.6618845968583820
29.1515799895827463	42.0136663113401667	34.4964494717840111
23.4630252441129450	40.9758723499193209	36.3935224970743718
25.5515350086957049	40.7106293048507766	36.9192764686214758
26.3416664108962024	37.3775601545964307	37.7737422946673789
25.4347425461334034	38.5406530365929143	31.7447654527713574
24.5321146773658825	41.5795589564879009	35.2820311859345566
29.0842660624938745	38.3700493880873594	31.7837732118652205
28.6921361878056906	39.9845060865244477	34.7875304711820164
27.4473768952444246	38.8775641771938254	33.1537620930389849
25.5721541031821040	42.6335993380351113	33.5332938707054140
29.2696217387407565	37.7104532963066958	30.1928233978872207
24.8616851609550196	38.8074878649616650	37.8149719313424555
26.6073432024704992	42.3613581232667258	31.3907849506741989
24.9929773225530809	41.9418634064809694	31.6083051573802578
30.9892311159196296	42.7620257523456573	30.7346719276226601
30.3348435051779930	40.0755103233940133	34.7132916725872533
24.7455949439403575	42.0375188137535858	34.1286693103707464
26.5578699012601049	38.5955393887932203	32.3223714246542713
29.3708750356535653	40.8739400033430655	34.2323580996961709
28.4359357778089716	36.9002669192979624	34.1790605440287507
28.2478858623918860	37.7489774046846662	35.7773894599699176
25.8421013745623753	42.5777357419758076	32.3518193437232853
28.2238050833347280	38.4064506433641171	30.8913690109007071
25.2580732574485154	41.6958972450000402	36.3242482687534007
27.3839319089084299	36.7454724218668858	31.9664061365174774
25.5053600977175812	36.1752256604090334	33.8952959306092723
31.3318715700972525	39.3336414785492039	34.0286125801119610
30.0096736506932054	37.9803081669555951	31.1358941778330802
27.9655450973300681	39.1671349045970416	34.2309318650371424
29.5539771321912035	39.8616072624775981	35.6620627881519283
28.3187857241695049	38.1203775266661111	32.6938995378874537
35.4388055027952191	38.6737918707102395	36.0790503980208968
33.0419320749825758	37.9260377850094272	31.8482711035630963
34.4752375469615728	41.3878148598867668	34.6191687315817020
35.9247389095135077	0.5706364663064322	31.4252757855272833
35.3065602537164054	42.7663177050196239	36.0519305961595364
34.6016202222381324	39.4174093016097657	31.6167936906905069
34.4953160827652141	41.4219799399894413	32.6097963937071995
31.8010171114757973	39.4205274816773610	32.9039553842988255
34.9091779070669617	40.5546115149848703	35.9137960783989456
33.3837725543376393	40.4761980152057319	32.9570510936848464
33.8117893541294592	37.3902111686681664	29.8975046721578259
34.4827323463213560	40.2131403857353789	32.4766052677208705
32.4417775178324987	40.2044029756873513	32.2417151718156134
33.5440446027849291	38.9849547394550981	31.1625244187520813
36.2522067638223007	38.9750598079628432	35.2847339281699703
34.6768193081605460	41.7687269441435447	35.7647436389108577
34.6674887146257262	35.6663266944397392	34.0510092854878152
35.7321805454423966	42.5825091535664058	30.7323456319302615
30.5436176674316684	36.7513576870712839	36.2024477659063564
32.3613105514671204	38.3600669495916620	32.7565179705396403
37.3037524724925049	40.0958351526937449	34.2423425969044075
37.7573510776995533	37.3548140075178381	32.1431614024141084
35.3840376224917819	38.7349509169859800	30.9967707465708848
32.9467171184110228	37.2902069640896272	34.3075301777656350
34.1938471582314349	37.3399852659885028	31.7109749777556225
32.0354981559714673	42.2561327140355942	31.1028628414915040
34.0626546933276302	41.9155717318088747	31.6010055293841319
36.2082215792267448	0.1437478947869336	35.2523214737613486
35.1501106868790245	40.3845812848203991	34.7113587625470785
36.2339903211386556	36.5386260924677444	31.1484921172942251
33.8182562654646901	41.4313260362521802	33.6202291273133937
41.4458966325472602	37.6727084503050307	31.3016201177249371
40.2741221362193187	42.0081840015170087	34.3017451126063335
39.0009605822900340	38.9583725493324451	36.2742396796485096
36.1179142302225387	39.7613562116494847	34.3486799564333509
36.9722853851724125	42.3065544934527722	35.6800570063789593
41.8789768361546280	40.7536215937697222	33.5486282431484071
37.1483435169380058	39.8046060850515246	35.5054812037353642
41.7546970568145639	42.0311031067552960	35.1261325376100118
42.8528825515773164	38.4201875704403690	31.7421356913033037
41.3353976165883026	37.8536237462966128	35.5299194381914276
41.0915596421045635	42.0138048018433068	32.2748377673543914
38.2100105348882835	40.8558830648161120	34.2474288446918251
41.6800084075769561	36.2121217531063948	36.4176129797177879
41.8751910828311793	41.0870031820046151	32.3830819253164037
37.0093483041919953	41.0603462210610957	35.8169302519390484
0.0546929350868945	40.3931131264186547	33.6269699937397917
42.0503369687613571	37.8103646869162802	32.4086255773226952
42.2330675716064405	41.1429604421769710	30.1148729546696892
37.8240338236604288	39.2170736010600578	36.3433852553934713
41.2375599205485415	41.1709395665394240	34.4577659572604631
40.2800636349877408	42.5532463580711351	31.5071550662700766
38.7725629592121734	36.6062791190487786	33.8830279479155294
40.5492506821087488	37.5242778953261578	34.7200640756246983
39.1778442395798336	41.4943573807949448	34.3731181608987839
40.9406297446177945	42.8944568346372606	35.2455260888217126
0.5653741799659113	39.3690504768331735	32.1163012807736479
42.8412013197999713	41.5830580330220698	35.4364801290311391
38.8640785171655452	37.8279253943039322	35.8066149535623808
2.3912309194420369	0.1735683895094759	37.7726872521620010
3.0665057335250059	1.7658570421737467	42.4414495122840307
0.2179750469797744	0.7815946653271084	41.5931929468296744
3.8030582034999889	0.6469836412504896	39.0755853813601632
1.8505396062306743	3.7332653823196646	37.5500791038895372
1.0149561872343649	0.2928282865910348	39.4396261562007737
0.9774318263016195	0.0389366203226596	36.6315781116475065
42.7438829208444773	42.4190670906344209	38.1610442031453729
4.4634374191561612	0.2134789002603765	37.6273045160145685
1.8486249355509394	0.8740601752662271	41.4347776328029127
4.2721218782802461	5.0625201031457854	41.3798491151373184
1.2650506301072395	2.4348644798215391	42.7484196342953240
2.6427716046287602	3.9148869184392354	42.4275632127896429
3.4238498234165737	0.8811251821142596	37.8628455004826989
1.6272465632516442	2.6105225683367199	37.7533678751977533
4.9211879744324571	0.2816018857218057	38.7389962015882716
4.3262726057465706	42.7167907930258508	42.9361290478110007
3.0294301238268941	0.8226534739145650	41.6709181570098721
6.2591973567780954	5.0707022884022797	39.7298751225825981
2.3986887511358042	2.7645343773541797	42.3683890702398713
1.1010696681728211	1.3327096819452289	42.2707322927709725
3.3881899707152519	4.7526156798845127	42.1215166448066043
2.4087621953975473	4.3118952160727160	36.6545469887935909
5.3552244283805672	5.4824949736480590	41.7882216522939771
1.3489136038544498	0.6211159387628615	38.2751151709143400
42.2912119882935329	5.7194423758301483	38.9613554076827810
4.4198228829445956	4.8310082457600982	40.2101123884096197
5.2341042406046556	4.1218273790153495	38.2313577503056194
3.0252033553834092	6.0423467723799211	36.0081695857566402
1.2922425306779408	6.0308384915935331	37.3324578747639251
7.3188798530284158	42.5972241288354923	42.7058591010771806
5.4818502378503844	4.8887679590825668	1.0302640515426709
8.2602566756610578	1.1253256818765274	41.7226490484723982
5.1704280750801477	4.6560939025806922	39.3014057400558912
9.0775542861508143	0.1864380540348519	39.9014055607292590
10.5391517306798530	3.3828224147152648	38.6116835353357573
12.8626470400279764	5.2705426499871360	38.9437327909151492
6.3219937530876695	5.9257893946741111	42.4140183194265674
13.4525534292304965	3.4564179724648243	38.6299482467025399
9.3312961423889327	4.3743519543297866	39.9112218613398611
9.8182985537481500	1.6394461738163468	42.6799721551496702
11.7869780690809645	2.1030023236577589	39.5689110831273965
10.5428181310077136	4.9152192956831939	42.1763827696467928
8.9724715559382080	3.2039728384018100	41.6825123875056178
6.9856358663302460	4.2607912979255147	0.9076587833548793
10.8031080522926040	3.4823556945951890	40.7310305316126957
7.3651078298801567	4.9067312350160739	39.4167752098746647
9.6308428561403865	3.7639725946551592	40.8986126704331454
9.6878023084949234	42.1315480527807154	38.5233605883936292
8.3041357119611803	4.9314299972061040	40.1286495154217278
8.2071997320430405	0.6035824048922067	40.6295177658457618
9.7842066495988380	4.3475658447389272	38.8223252800794327
8.9795359726515862	2.0678093667187505	41.9603819896474022
10.8473826790395744	2.8842338222471309	39.6694418363066674
16.9433840946952223	2.8960824878579343	39.6695874461089204
15.1200159292474936	4.2647311916552768	39.0525815040515383
13.9123998535431763	2.6013853227775749	36.6520204443153759
14.3921038056043251	4.5095233733052931	37.4087678183805110
15.9487456020586986	4.9932370240220889	42.4412256463979034
18.4573275636708587	0.6010711005149566	40.2222838999207326
16.9453242073289978	0.7322030538258071	38.6329031537569776
12.2588686003541572	0.1796535956029426	40.7101352600185322
16.5730800439353168	4.6837508954140983	38.4200585249630748
12.5729369947028093	5.1520959903279699	36.7355076182921749
14.2665718878870855	6.1608444158787838	39.2543400365765578
17.3086858544702480	5.4165419546973155	36.5981531327932856
13.6717318208065102	42.6157798546766955	42.1222696073120133
13.8424883472303790	1.4152978596955750	42.9916503514725221
14.9757793542905517	1.2763852682184831	41.5254756520368886
18.0043710120625171	1.8035978926321177	38.1144713210402060
18.1141156648856985	4.1558898611533275	40.6164494931695046
14.9434168903398081	1.7841696500968853	0.2570701602102931
18.0519185890280340	4.9728392983885170	41.4782421673676325
14.0138278169758337	0.7545768662324367	41.9615385954493547
17.7832346747045307	2.9877961133701914	40.5590196697611702
17.0909356913024233	1.9584096253056904	38.9191518805453640
13.9744683965595389	3.3583642100673790	37.5491579824904065
17.7598059791276448	0.1079333602597682	39.3729563427025440
13.0515888314056898	4.3620100272591076	0.3519859715440272
11.3459144769523093	4.1033043132055598	41.6196503402609750
13.8903967727467883	4.5440508382935612	39.0107671783011725
17.1110189395409442	0.9636298737893534	0.3636237155635282
16.2781310017147192	3.8935172278646486	39.3472309484001812
17.5566870070182510	0.8292181218973351	37.5315077830130122
16.0938183787959055	1.1693575774125975	41.8280636860582717
18.0279375880031090	0.9950232394001483	41.2887123543493502
12.8466741179101742	1.2925719540803009	0.6447014104018551
12.6772498633542394	2.7866211721943630	39.1747465438583120
16.9157045612393198	5.0257398093442474	0.1563221452506205
15.4386079574114881	4.7262890756329989	37.9716679570126203
22.1115647783483311	1.3390098906518086	42.3022035782873047
20.5085267140248817	0.5529350954739518	38.0809148299125724
22.1006790263467359	6.3653053253302136	40.3137159392640498
25.5443980734874465	3.5779172219226862	42.0453906715001864
21.8107698503709351	1.2180037072325487	37.3085355790922435
20.0336224220433543	4.3772809415064584	39.9997230937182735
20.2116938227985763	2.4761659854955536	38.4904321503370568
18.4037725255904228	2.1470009103247176	41.1823147853077529
19.0909612825839652	3.5004861525113062	38.9281522844370897
22.7275602631309503	5.5460984708100849	42.1483825527512153
20.1803247542654098	1.3206478641093871	41.0728053496399568
23.4159549480975642	3.7748865983626843	38.6543520033858528
20.0347492719427329	5.1221181101175741	40.9769797925688124
24.1612524914784323	3.5900249062038476	39.5307110624549409
21.9536484201528026	6.5678657401588261	37.4767478404612078
19.7139540723978186	42.6585042362583522	37.8625813430355436
21.2784892898088920	5.7297919769727113	39.6258269885363035
21.0229017069676409	1.0255994980181511	41.9309174272034895
20.2966217246941696	3.4658817291627186	39.1886592388335799
19.6199077600174974	0.8795696220076897	40.1163153655517348
18.8180881724731428	4.3758763722862586	39.6744378841290910
18.9933076620360097	2.4860373422933133	38.2831024751666362
20.9786928560624375	1.6751674345841927	38.0539393574301812
19.5310803494042169	2.2085110489750481	41.6684699466874946
26.8213987785096748	4.5435328234394010	39.0153729596258287
25.3136168181817105	2.3314092848854875	37.0462071009315750
24.9928471031719575	4.2681790385348899	36.9936299342994062
26.7460907927303069	2.9352931367587121	38.3034081059985354
26.5558601487819246	1.4890815781796114	40.2788869975310888
29.2744245119972959	0.7108517433173530	37.9593657145652301
25.6353873352160413	1.5324365690672934	42.1817863635313230
28.7165111031919729	4.6071438040639539	35.8935278556068127
28.1684127484103328	5.8395544259274246	41.6787111338131453
27.9890061755649029	4.1794754951493678	37.2781374847180729
30.3440598511492325	4.3782021469877295	36.6309663842615691
27.8883495339005876	2.9776375580247554	40.0740742371258420
26.1894687786672513	5.6174307055051322	41.3669787514978395
29.3749072221982424	2.0633387542492740	39.9471336847377785
25.0177226494635789	3.5547914701952443	38.6580225952932537
30.6924220898463034	1.5568437740528522	39.2077053897894388
25.8837197274587254	42.4200176413710963	0.1178487559841250
29.7429253793981623	4.0661753327933878	39.3900606838851104
25.6226004506639455	0.2842498261050921	41.0341793881013075
28.0188333790267521	42.9336504910345127	41.5600068993814205
27.3767299705260747	41.9572543974562748	41.2417103137985066
27.0352236423183250	3.4221977739558720	39.3777864521087295
25.8396870926505002	0.3559084802295521	42.3904980488022431
29.5124957497191609	1.4177207559339264	38.9195107371766724
25.7700849227030204	4.4994327408817973	38.3728343232796973
25.5719368325393219	2.5990673640291742	42.7187919521092994
29.0505000575711705	3.2424357020020271	39.8790188010230722
27.5627891592456606	3.0180958351974096	37.4253675301101438
25.5735490759448538	1.5277602691251513	40.9982601777879836
27.4893906969109132	4.9630297178419731	38.0926500368989664
27.6515216611533923	1.9021940065885319	40.5420870851714881
28.7099251860415947	1.1342534111587792	36.9784160958875958
29.2510703149291764	6.3782013286052610	41.6099950414580846
25.6082739129674231	2.5764881619290172	38.1889040169695946
27.2741713222065805	5.6290950977525913	40.9117438749938245
35.2992015892438431	4.6519855438765392	42.7224824165218777
30.8577468259843997	5.8861891774198378	39.7612885267566512
33.3141726915869327	4.8260663386483023	0.4711301257095629
31.8310009175575885	5.7292214047814216	36.9652882030758221
31.0680625766813492	4.3857836012059384	0.2793204194274728
35.9765686816196109	2.5726355901188178	42.2642976467041649
35.5746300865772298	2.1735348674328034	40.2971887150836707
31.4254204876474965	2.1030642113962381	41.1080927213715839
35.3042419333397675	4.0007554311565876	40.8517483998071569
33.5533573967480478	0.0270202957031458	40.2143195438977301
30.7994012330895899	42.3708527286202994	37.6229749549933175
34.2477850547032858	1.6162545469836096	38.8636879018967107
32.3044236497165613	1.5731838288891373	37.5533869042501252
35.3815506631831127	0.6275971999070437	40.8547753237598030
36.4534520133207920	5.9440617928629038	42.9275973696252819
31.8184209975840382	4.1354890734845489	39.3773979235010003
33.2420434551025252	3.3233401807736858	39.0627527047337608
35.1970144842123460	3.0152946934522755	37.8276698193694827
34.3323949626303957	42.9066732758902489	41.0958305493575935
32.1794472158688976	3.0075701740893779	39.5539797401218038
33.3169721823775475	1.2631209770690943	38.1798771352411919
30.8640928031536461	6.0147207661748148	40.9539471045386776
32.9395180388979512	4.5601479935533344	39.0675209011553193
35.7200822075765529	0.1216906841687991	37.1076744055055556
36.2569011524952884	2.5793351771382658	37.3799516949209334
35.4116553642734360	3.6672981962464024	42.0300316986621851
37.4929096231850210	0.9905953033973968	38.1635693641754301
32.6631965330240490	42.7129336273328093	39.4980965512908568
30.7495427822748262	4.7226564908323523	39.3760394473324880
34.9151011444997152	1.2677703431398679	39.8072900312708526
31.4915047161951343	1.2825693948839298	38.3817302544400363
30.5125251738783767	1.9216078954491085	40.3751185524093401
36.0234878179019944	3.2941697986007141	40.1883755094345787
35.6738807222881960	5.6706605705171702	42.0134905598358230
34.3078740089768743	2.8368367499768814	38.7108897398291631
34.5298048202884615	4.9029464735213271	40.4943638121471565
34.4677451808577757	3.3360074669054676	36.9005514337797180
30.5804732365276237	6.9257313417058963	39.1850335108033505
32.0363331879688289	2.0250484429531772	42.1067072396671307
35.7429918910949240	1.7240512672740063	41.4075264417776836
37.3274445120313132	2.1711948688307858	37.8498213225088520
39.9691442056835058	2.5643528977117844	42.3862665323547461
37.8069852392861634	2.9806355204205182	42.6029255924464394
39.1999848761755416	3.5123003996259694	39.8754811341879929
41.1217337612237372	2.5033440469443295	38.7160342649561855
41.6599794878399408	4.6951800533898966	39.4013700458911629
38.1253625855181468	4.0330903722162024	38.4271574142594403
41.1904620147779781	1.5209867737559759	42.1209294405207615
38.3830858790664067	0.3239592842586226	38.6516911719538996
40.9116910169610080	3.7429734844484708	41.1845357088239510
40.5146941881927702	0.4180764159834130	37.9318540844817846
36.8488883198504098	0.3578146019542807	37.3571949187915635
37.1909026993898379	3.5423906251647104	40.4169862820345358
41.5700298743206744	6.0001429883682960	37.9256372630197021
38.8149602190100325	3.8594943939143023	41.7145756512321455
1.0397564576314906	1.5887804006999695	37.5876788794677807
41.3401802489506167	4.6782392228328380	40.5581114176579618
42.2101027130988768	5.4408213953637876	36.8288723755513558
37.3613361569165079	6.6901305715103829	42.9498539848716234
38.4755091844133403	5.1838856154638124	38.3114173755881851
39.6883970387357010	3.6190413678053726	40.9327175119395292
41.6578422172879570	41.6960078566852488	42.9059889544937434
38.9896919564779978	6.2209345268632417	40.0538934725774283
41.3580619078084553	3.6394547842470786	38.8610774224513236
40.0190975818188903	1.3771025059596707	42.3686108149871004
38.1944698147090094	42.2773554607253317	39.3539766500027710
42.0338849830694841	7.1470681107479299	37.6565189236348346
37.6445736814717407	3.5570514306402803	41.5333884795256338
36.8782655338660206	2.4540496381485255	0.1570684737610251
37.5778605182665544	42.5287315991769148	36.7567965642208634
1.0155787433508159	0.6244915873943687	40.5860136888033693
37.0567160258024586	42.3744611591940483	0.1659128936196719
40.8503167499810615	1.3379842590372042	38.7288218553674852
38.0700864421986225	3.7213761182871172	39.6104033480691555
42.9946477740333393	5.2758037191847249	0.4407957056502847
36.3074922128237461	42.7615277189734186	40.9917304785480638
0.3642627940349337	1.1159440206214557	36.6473560845115003
41.6163536870344402	42.7887566911330168	38.1645093381038762
0.9846934181452572	7.5590783639458730	37.8536553994751657
0.2031074848263499	7.7395474246394000	41.5550657046510992
2.2741667327936343	5.5552004033033278	36.8399592109181313
0.4591253563329594	5.9719717780237902	42.6392292374916906
0.3664955339948603	9.4941616315141442	42.0877834218995517
0.1040301378244634	5.9453220079819324	37.4356342723839575
1.7836434753030996	7.7296804547147060	41.8787771469901386
2.1099933562788902	9.4142497993098182	42.1036016633525492
3.9367117136857854	10.4896369981571596	36.9195323985376547
4.9871634225765371	12.5511534194726408	41.2234017529027099
6.1286025144267890	5.4072906933279734	40.8751600660180259
5.7289332911424680	9.4234786473803602	40.2523747559846257
4.1690332904315586	9.5050273154413460	42.0701882705716628
42.9468432885589380	6.4754174549713728	39.7113372039580028
1.3243132914667164	10.3084393339013314	42.5147030711216658
42.7058879100169548	8.6746127298371807	42.7663358992750204
6.0361232851328017	12.0333446102937689	41.5372639028152335
4.3865785087340630	9.4673913002245040	36.5804945172174811
2.5873589999882975	8.3384369030426715	42.5146335407588367
0.4389470070128262	8.2921209859920673	37.0637349669580800
5.9875587990813059	9.1941488124443627	39.0793788757392662
42.5775934998642001	10.4382207200781227	41.9380769300446801
1.0934436014160633	8.6914033779487649	41.5019890469863597
6.0753840871323179	7.0349495942201417	42.9495569382771407
3.1422202895065112	10.1272183379586647	42.3530663520164126
0.4801438766115731	7.2454996844063206	38.8958946375174008
4.9306290253968781	9.4283828763680972	41.1503958336770737
6.1909284124837844	8.6614086584201129	36.8046003565285602
7.4232521207414965	8.4319899092866493	36.8645645795723027
10.7337175989354634	9.2300103970511920	38.0212089999402565
11.4012900126843437	11.6791484168479052	42.6711593088587549
9.9590215920842891	4.6020399657889479	37.6610042928430104
7.9035712770590756	10.2762746339894608	40.9167385629934017
8.3262624447196814	5.3909905888256144	41.2594589310104141
11.3747233126404197	9.3689347466298170	40.1281006065309143
7.0625763100600176	11.2516155718573678	37.4979817271859872
7.1251292918701790	9.6384642211516187	38.8729420103864456
6.4535919028958926	10.9223619009505768	41.3398197728957868
9.2154037513011229	6.5439312054772563	42.4523196355359289
9.6438692670143240	9.6731050558886551	39.8203097223616354
7.3755598135509892	6.6233387395106345	35.4018423131615734
11.1651463585601700	11.5996210405367535	40.6652295424108488
7.2164943145172131	12.3216134191671003	41.8147575569533103
11.3575968600082149	11.0187384219825351	37.3961746912641217
6.1759217000536175	8.6757478322588835	38.0225998398836325
12.8765356339832486	8.4676343519188002	41.7490926392383273
11.3809390775456638	9.9915637440763394	41.6591210807719676
8.8467944972103449	8.5874197007701323	41.4292286598306987
7.9718764675902554	11.8889671885192616	38.6600965704636295
6.7591672241472285	9.9719468932038193	40.6464604108189747
7.1804931279797923	5.6783751134004667	41.5158120534053481
8.4712260335326732	12.4195390991510521	39.6394953029574779
9.4062677265011096	5.4642027686097663	41.9869664443948380
7.4414488644089714	10.7601035189380347	38.5786644785336321
10.7986430721437952	12.4689745169778394	39.9213404242837200
9.9449788832681225	9.2036262887595086	37.1163558725308818
8.8053387322728689	9.4912221662565699	40.6575302839237764
10.9240150309637851	12.6755119601503790	0.1345312849929368
7.6416586783866167	11.1843131862797911	41.6694937522356028
11.9203440374759175	11.8888119491119024	41.5729631418226759
7.4465678988571540	8.7602411049178350	38.0374715073583545
10.5622283415372742	9.1829522687516274	39.2282438379548921
10.9035751384092805	10.4136202501229000	40.5943240127230638
11.7016609578739050	9.8873653437864260	37.6452733943340618
9.0616726947449919	7.6158319369303866	42.0305743073068996
9.7445258054821924	13.8904162932234261	39.1022197910431615
17.3629238104563726	9.9396034990207536	36.0252564656702958
18.5946475444739185	7.4707763884186926	42.6428250850654749
15.5543479711302677	7.0937854045798714	40.8758191385161851
13.6847465337779894	6.6662484759498053	40.6515584594082640
18.6668523757127645	10.4223489611848574	40.2074414235157178
14.1327632984777374	10.9596659871444846	37.1475977712513483
15.7913144220832447	9.0537194551707394	41.1038405697525349
14.4989408922717153	7.9484574622409481	42.1718549512802099
17.9085016892387650	11.7857384268303242	41.5102747010437270
17.2281518547471570	6.6730333301392859	37.7009841950558311
14.0915276393755970	8.0498279947274902	37.9834948287025327
12.9549379688074726	6.8584314214958786	37.9319392058512008
11.9845076243563113	9.0449139698575447	41.1607056211714095
14.1502949092709382	6.9079480411433307	38.3148792858219949
17.2653728626492509	5.4589314329668230	37.7985161930882470
17.5618727152109635	11.1326606105773589	42.3999507469684218
12.6636680197162139	13.3650879174415351	40.4031231377893363
15.0711490465778599	9.0826926822793528	42.0319651150328966
13.0974977115634523	6.1545172844853875	39.7242415344989865
18.1936640998717039	11.5360087606889401	40.3791625569339416
15.4824435927932242	7.1421251304477780	42.0959667160301834
18.8308400619406662	9.3232910854438842	40.7613330696588250
15.1444596778401017	13.9098437495554279	35.8075959408688078
12.9299392404618754	8.0878420000637448	37.6748082835509024
17.8702441345264731	10.9619414414773253	36.4902632032441119
14.5559931424797266	11.9146230141302425	36.6191613854999858
13.7465585838171833	9.8559021704478038	37.2600740176899734
14.8240334576355615	6.3209735870289876	40.3161145516447377
13.6398590889392111	7.6560468497237393	41.3140778604042822
17.5234332318259085	7.8089900131144612	37.6164787586853464
17.5381728820502119	8.7836070962484136	35.6654980255773921
15.9611722817941519	8.1175282653021306	40.4367700125417784
20.2583090423142878	7.4258186726985995	41.5174811804266142
19.1843348215352236	8.1155440591831987	40.5006674304962004
20.0757455679387640	9.5949831955198324	40.3709055454775125
21.5995351731152851	6.2502975099291840	38.5863367158190016
22.5618119936575852	12.5017438042177886	41.3656671501231159
20.4294826083499750	6.1337473188072247	40.4426988082195820
18.0237076171477355	10.3321334570437209	0.1408817075743128
20.9580866433457516	11.9981051687218176	0.7013164194111197
24.2572329510122984	12.6870561832810509	42.3571996095683048
19.0361941238913950	5.7683646340287975	41.3929385213411791
20.2715613033408530	10.0344321863146231	0.3402240239809641
24.3657975433516008	10.6538456582791312	42.5566679549242366
23.2936857038505707	7.3713701867394121	41.4081094520952604
22.5006806577259226	7.5363980039441287	38.0544233260756712
22.2404153738477710	5.9806376175328415	35.9292494765031591
21.3378736800950932	7.8771685387499959	39.9633898347555458
21.0959390553569150	10.8075100132134345	41.8569704898642669
24.2809530569936918	11.3231332146305270	40.6878761130427264
19.4059772660690300	9.3304395311591666	41.9222323464163793
20.1665013128061688	10.6171373100805830	38.5127665405070232
22.9271656520036551	6.2570798852457790	41.2200659702934544
23.6198402333130950	8.4732739441089642	41.3742038253079514
20.2982358293221630	8.4495295194302926	40.0353256630560139
19.4728629824679942	8.1167480085223165	42.0920393184012624
20.7315303896139547	11.1175012762239103	42.9775305487827808
21.2541749258733645	7.0644873441217939	40.9058123620979401
22.7196165461271313	8.2317110507639377	37.1022164020001881
22.0860470894671579	7.2923545657043389	39.1881889704788193
21.9044170756414900	11.5393056210399791	41.3839289212077688
20.9602009711610719	10.7483485253621733	37.6731109446372372
19.4430794554280340	6.8653890454381887	40.7365071095972127
24.4695983123562613	10.3887741405464027	41.3897089097320858
19.1183914761743985	12.9794700231438451	36.4087481879628783
19.7091610383587899	10.4460852751702831	39.5730068698130282
20.4619496420770588	9.8553094456492119	41.4859772848278467
28.8350506340453663	10.8997788336974502	38.0636335685044287
25.8327667974774116	8.3695316904696870	40.1523391873401323
29.2807601068267900	12.6392444724732158	42.4631930014566166
26.1516562901566729	11.8954866719733729	40.0005903771208651
25.7313057401334149	7.7619919118549658	42.2158548757796055
27.5111043133865145	12.2836493553526989	38.1412252150105289
30.0564831615995018	7.0966331606965651	38.1284052268854694
25.4172930463422162	5.7528647601865384	42.7569542533798170
24.5570262886046855	9.1876567246757350	41.2263290839255347
27.1106069008417450	11.4002315912328829	36.5489852685707390
25.7810421072527767	12.4146445866672988	42.0189818228089891
25.6798865024688361	6.5841050133722288	41.9267154184971105
25.4194265035957976	8.9427472153511669	39.2489555213297834
29.8411903698599801	10.7563462532172149	38.6774248477230245
29.9512759044563204	12.5209283443137078	39.6290044415774929
26.5485050712240174	12.1987986477409347	38.8958689943849976
27.8244935291793993	11.2638027115725698	37.5449877278255357
30.6926482644512788	8.0660163921374277	40.8384168295898036
24.9124690502081343	12.0044053310885186	39.8007533692810256
25.5903780799906997	8.5335294595530353	41.2976817667913210
26.5196538847170729	12.2722831347877577	41.0792787308430576
30.5507036132798220	11.5121041352664264	39.3573433270009616
35.7682940329773871	10.0370868248672700	38.6561554042307733
30.1537296302210471	5.5712095980627936	41.8337191464088676
30.8787960215583439	10.1170535194101614	38.5196179248465640
33.0846796476627745	7.9226173330152223	39.0824514125552724
34.7486862943612138	12.9006246757329741	42.7289573185391944
36.3861348006884100	11.5983088830222574	38.7996246124224484
34.5745024441164475	5.5249907776883651	41.5257460667853593
31.1016336389012409	8.0037200776547710	39.6492987723115533
36.0669035749731961	10.1751299439873630	40.3544452287835185
35.2822604809544629	8.5401090170408516	38.7938481699823257
32.8403454904801819	9.3457871925436873	42.4994437679272323
34.7387708612477297	6.0756025052466924	0.2777698039113310
32.4015950978244476	11.4576229580937294	37.4322932478443207
32.2601293299497769	12.2178834059957246	40.0314057619431125
31.4174034806512701	8.2897463534221902	37.9103844745098826
31.8387866969405096	8.4228190137938626	41.0352905000239048
30.1465093436101839	7.0300529135961636	41.0830460567361726
34.8186224942997171	12.0593995255959481	38.3672638396999872
31.7024571908835711	10.3509539904605479	40.8191228154512658
33.8572327142745522	5.1207181462162135	39.5442748981551162
36.1320369830097121	9.1477805755871131	39.4798830403398995
32.0971212262490511	9.5020939176264125	41.5331837356779516
31.0409509365412362	8.9714894189428680	38.8391474223199751
34.2713181026836509	7.9737342721198985	38.9724194172677159
31.6648885459702427	10.9913789996115181	38.2293234716748671
32.3174652351523761	8.0312299523814197	40.0020255615872813
35.6036435234423649	10.9048039116960602	39.5235713691578141
31.4782810441520020	11.3273988696786976	40.1835295829306816
32.4685220346035592	7.7298580676890749	38.0449628208295181
36.6213004063347256	10.6508981026514746	38.0526418440714309
35.0001595121468014	11.4614867137415732	37.3491124237121426
35.3812191908341376	9.2308633516784209	37.7477544002591685
33.9854308995742400	9.0704862976405565	42.3596197995169845
0.3343312917633098	11.0251680525888887	42.6652605869987980
39.8267058039719188	10.0008555874454199	41.9419528581933747
39.3453845386781964	5.9116413010340434	37.8819448535701042
41.4132651872252282	7.0393524120207545	41.0703466094106062
38.3237957455887468	6.1293137543936114	39.0598279483582473
42.3504232051749767	7.6256890036616722	38.7277547390765378
40.9077324681560270	8.9276052988172818	38.1563222763205090
41.7339888718156615	12.5060878621845344	39.2739547358485410
37.2753094970561776	9.2239216949453482	39.8602711830355432
40.4368494657540793	6.6819084065382501	42.8931541679370554
39.9705147145155024	11.5311984394916518	40.4485109379099228
41.4978737252307823	8.4522330919856206	42.6600491921538492
39.4914814697035865	6.6961982975143872	41.0481580169929998
42.2242561095190325	8.1746666212331096	37.0042869561303860
40.2918165957971652	9.2141704764232504	36.3480883493568996
41.4263095654577853	10.2403079592151425	41.7140443461463519
40.5856067722060416	8.2928427066353283	39.6528233474138148
38.1309594849862279	10.6825815751968314	41.2701604007852580
39.9735487538273730	6.5534029885207632	39.3887035431007817
39.1984459332500350	8.0554333085266379	37.8630273854929555
39.3601078761281684	6.4323433865362230	1.7462555261481412
40.7935368708653812	9.3829514300265817	42.3530754034203198
41.6215159687038394	8.5037628074752956	39.0506224111763558
39.4255293388125168	8.5316444194021201	36.7809611263947076
38.8477498171408016	6.9843062133364651	38.3256399640795848
39.3903886472331592	6.7456826032396009	42.2436408058718271
39.8676766706258761	8.6092961563975834	38.7216985071641915
38.7873374790733365	10.5126444866461544	42.3569364731456375
40.4575901660599371	10.6367304738097719	41.1253863482034703
37.2232469970593485	10.0547793133348424	40.7109061585211833
40.4628407421841914	7.2619339194885635	40.3052013628155237
38.7825850582783147	11.3865707626078443	40.5797810854505627
41.2368381751739719	7.3455181223593611	42.2277072995059228
41.2819241905294803	8.9554938677333134	37.0064225007649767
42.5486170085052606	7.1322307785294337	40.6794716301731683
40.8098059203224679	12.2063514409996188	39.9011039154873117
2.9244493322303029	15.2812015893108359	0.0636925297672112
4.7687338619096868	14.4034912947919143	42.0955846687451043
6.0449311699741193	14.1409569859944568	38.9066483600225155
0.7322736349131641	12.6351315298967517	35.4134001413580037
0.2949299154689092	13.1191669181114854	37.7905137391736901
5.0420706957174692	15.9414184033193198	38.5935723565108049
4.4999076029339271	16.8438774858484948	40.4315199228962072
4.7441867777288591	15.1160680536845220	40.3111325885304339
6.6621288171358417	14.2419358686564745	41.0865252504283163
3.3774183280725683	13.0531842200788422	39.9458086919049222
1.6048427034036443	13.1752958521815096	36.7794993030887838
3.3181558838381542	16.6294681645959024	37.7310476675850452
4.0802283317627044	18.1419698918906747	0.3680408157172086
3.0387107239401940	14.8732420074092158	40.8308497408972642
2.8452344160847320	16.7326437252388338	40.3012301344297157
2.3705619387869992	13.6577342281409511	38.7981273401050331
5.0990230821620868	15.8578288580518532	36.6722747424285132
4.5624996720274833	12.8050453667902886	38.9141432775456337
4.4660139196065494	12.6136158864283221	40.1382254908664393
2.1958913646892739	16.8169124602745867	37.3778620898438803
3.7173504224206670	15.8341696608335365	40.4020609274303695
3.3794977180934964	14.8053476851231292	41.9981962100046573
1.7897867016602644	17.1499703275987834	40.5823654396163036
1.5348777938062017	18.3936291605083078	36.7611656478367763
5.5494942740108293	13.1503659866028162	38.3825928247985857
0.6559933257255326	19.1017975357820156	38.4709956519419620
2.6821275452190743	14.0418426603559929	40.0146027934117825
0.4392351956826704	12.8284448550099590	36.6112703879392143
4.5649263979774881	19.2172364517955181	40.6334086699429591
2.3833361487353044	19.1521491269440780	40.9232672270501965
4.3524707105771352	13.2201647534570039	42.0092293760553588
3.3338253153255493	12.9122067667770555	38.7288565122619133
5.1258041149391467	16.9742281473087822	39.2741826029688994
3.5888250992624502	17.8362439423751908	38.0384662822792308
4.3558493004786989	16.0467397484559129	37.5958694252436203
5.5026935623725732	16.7434134533776415	41.0710683970128940
3.6234197367559400	17.6528579915880179	40.1055129880220065
5.0796302581078638	14.9262426797956564	39.2041508675030244
1.4860541001473384	13.4551313911306885	37.9772906846199518
5.4770365744764362	14.7521074271998049	41.1857601974830629
4.6895446038324087	14.4557665496801757	0.3252053608642096
7.9106370983453234	17.4624402144058912	37.7814252538945183
7.3797896956865117	14.8208048079924364	37.2547711719299031
10.3392182089222171	14.8817088494198781	36.9215424607056590
11.8190754744784865	13.3752625049795704	37.5049462525605577
9.8141639274221966	13.0014995492938858	42.9785636001862201
6.1380882702239790	17.1391054530667724	40.0537444684277233
10.9507818863382447	18.0057499624136454	40.3564751292246555
7.9271038381420968	17.6201524168054604	0.5656308510980250
6.3142822778830210	15.8015437461790142	41.1486082740599102
7.5646724789590563	15.8540992870610999	42.8389793492678805
7.7247919615242155	13.2196738822329038	40.1930409478251320
11.7545743807431595	13.2056652048895060	39.6211110564576501
10.6413179284638009	14.3786792391788829	38.5212387406488901
12.8324123092386113	17.2424604386853346	39.7667274459498614
8.1844131705167040	14.3321490625193295	42.2980383847385681
9.4796266436757222	16.3843774328835323	42.7388540555549739
10.1577899442597577	16.3076101633811170	38.8459414413526716
7.3094606541994134	15.7194311663657160	38.9900505584559127
9.6437555387905487	12.8290186272579660	39.6199370308455912
8.9394694761594682	17.4221244986694472	42.9904865925401936
8.0341623126886610	16.3842405789723919	38.2571504820956179
6.8436108085873020	16.1327708325528292	40.0283086764851035
10.6219675386620480	17.1621623621100383	39.5504902644263296
7.4933607897538428	17.6079374813309322	36.6154089447256368
6.7818073337985130	13.9073136947008074	39.8990473896486222
11.6893943016089885	12.1792062782147976	37.4353198449367497
10.6553883212993163	13.7049351606050394	37.0604356745197023
7.0760373712902087	15.1698458592476477	41.9327241677801368
8.7051647573028177	15.4409528736808568	42.7136004412731722
10.4289476843467153	15.4741683899026654	37.9973941814532807
10.6458847825757204	16.1429155574394798	42.9271197081361819
12.1774563265179498	18.2222085383629775	39.9753183710555362
7.5895132466731727	13.4070185862024438	41.4287247582679683
15.3291660967279437	17.9352139952182057	0.2700231311333233
14.8558671253290662	15.4921462600866260	39.7787638574510112
17.5388678345797260	16.3833422816290799	40.8211208204448184
14.1882764857208379	16.4908152124079983	38.1150371196429418
15.7310686824308359	16.8697260555836195	38.0781608447224045
12.6550942743618702	12.8205918659532969	41.4832836710342505
18.8590396841349843	16.5056667434673585	39.3719899207453352
18.8885745024840475	13.9998925830277461	39.3034999549887161
17.1905961207212883	17.4749872045173618	38.8886188224020373
13.4129906194957478	14.1618086866696462	40.9424602170484775
18.3921963805900894	12.5206182985314776	39.7070007409899475
18.4838386319328940	13.7965913085346124	42.4734347361888851
14.2821512763576450	17.6168258105756266	42.8253698000775529
14.0861797655970786	15.0421141030991485	40.5258431543741580
13.5810459749696957	17.2566955700676736	38.8469461550400226
17.7091210925814551	16.7030566206324522	39.6694809530461541
13.2893773637603037	13.6800048938918870	42.0916049821020195
14.7919203555355097	16.9154424626973601	37.1537291793305897
11.7352283993037094	13.8624129120097024	38.6077432358627775
15.5721519027280930	17.8888329797405525	38.8198159061211783
15.0891077145559525	15.9759832137317908	38.7329905471055014
25.3563169981469194	12.2381708620449619	38.6346388758165418
18.3906995860344011	14.1894705958165250	41.3574969380565562
22.4113093950464446	14.0237549986136170	40.1131522119170114
18.9641456172793390	16.1469694078216399	41.3838630440974740
22.2689478581716749	15.9313862279534639	42.5778217797543448
21.8751995661605676	17.1057516867993762	37.2505918689146114
18.1651338185849340	14.2044655954548311	0.5155698917338589
20.8898834003331011	14.0010559960681498	38.6474667869058166
20.4094224258244239	15.7803482888658380	42.9925621132393943
20.3087070537796563	15.2653663353197260	39.8465000719301159
23.0537757345684433	14.3281137011069468	0.8114326770650991
21.4155982204982429	14.5163283234817264	41.3615562211818784
22.4102489197565973	17.9568471231190969	42.1393464461406566
18.4775751204230687	13.1018888850405162	38.6504700440191371
20.7622009281618070	16.8507323381820093	36.8909502941465064
23.7925654404144034	12.3600500416904318	41.2364317124196376
23.7786990792810684	13.5085260572002568	0.1426788201670525
22.9634569726693094	16.8017941036398639	41.9696926157280217
19.4526388313899261	14.7831655894457690	36.6792327931258697
21.2851022532599785	15.3444481413400222	42.2184304233265308
22.4617758312628482	16.9420733524988982	36.2192879473182998
16.9167472356840634	16.9745287013711632	37.8019874098692767
21.2032647771606229	17.7641295429640032	42.3342994017084564
18.0532574538868715	15.3195608564406900	41.1098314858572067
18.7485542634477689	17.3139075721544664	36.5322424901467357
18.8497801319422749	15.7927299595787272	35.0814064618210537
21.3330130728942891	14.6498342386215299	40.0779062175265750
19.5808678350066003	16.0989261250026630	40.2735508047364732
19.5381854935779167	18.2545323683641918	41.0679570754677243
22.2828217652056892	13.6714923500713788	41.2777359188672719
24.1986927881602192	15.3472171180554646	41.7260277339306782
19.3287932311205637	16.3340943644810892	38.2352986690872783
18.7030981397194047	13.5258074267825457	40.3942731362442089
23.2645876790559392	13.4368364534150118	39.5009196801936540
19.8614923954012141	14.6154993313064239	38.8852490982267796
25.2292147728694296	13.5441892974313838	42.0310117340079472
24.2209791440069360	16.6665484693481396	40.0511021959996683
24.9612755015244581	17.9219364765394467	37.6318181232703211
24.0566298466774136	12.8289899408372534	40.1323823326138438
24.7577263750687422	17.7220576243447567	40.0534039565906710
30.3171080659969512	14.9185808384541527	39.0123775206440087
31.0049348588614997	14.4965996450227728	37.4810344979536652
24.2550421144791173	14.3126481302999604	42.3087360037621139
29.2850426358610498	14.9954656946960352	0.9302611384200292
29.3451573299415109	13.1301032538110611	40.4795345675837410
27.4996260830053281	12.9486866096378357	41.2146692069521663
28.4020513534762706	14.9146132498939057	39.1523260708472378
26.8232869946048460	15.1997653992251021	38.1154308712353682
24.3707137999888808	16.1153758387497632	38.9251780953644726
25.9610938023195743	13.4256492197504862	37.1858565697017198
26.8505340928224321	14.6088421863100084	40.3554392263970385
26.1796814260548665	17.0816179623443034	38.1340447765334503
27.8345689280914641	14.7506482711206228	42.1684675173364383
26.2160978507240792	14.2484259811139324	42.3624658196409172
31.7738755079446626	17.7316782493550456	41.8155326453650957
29.5185567821245023	16.3521524984742292	37.8349175917168452
29.2702974221236154	13.3878885653740056	37.1527317852000607
31.2204535365239444	15.9885625569751166	40.9485250077937479
23.7476721991623343	16.2755374972740938	41.1175393529053537
24.4229070749617065	18.4683953146523834	0.7842391007274834
29.4314220948191654	18.2632462093289227	38.4746628933173298
29.3838518168229186	13.2721309746122724	38.8313103866202169
25.1569531992527615	19.0999770516692600	38.6806858884348870
28.6639650478728853	12.8429550603124341	41.4561378744083271
25.9514656820851357	18.2583511296468473	38.2628260938797737
29.3141009568641735	15.4984562578413989	38.6127277745372695
27.1304634951462305	16.3727154459932258	38.0560950875695099
28.8638711893609603	13.9795428493334377	39.7571810635569989
25.0025474986342893	18.8514616242357143	39.9073910364552304
28.5066144736198019	12.9595987068742353	38.0306161981016615
24.0062691869021805	15.0449622719056642	38.5920700718085854
27.1759909653300866	14.8708709699057788	39.2584644925786037
27.1040788497751883	14.1050608644799862	41.4208651179144880
30.1029843776031534	13.8400216761053585	37.9828644754923488
24.9650351594561180	16.7950009411351004	38.1091354024661086
26.3628984199594925	14.5732853373206641	37.1957213334717736
34.1891412066905289	18.0715331477005563	41.8178697187414059
33.9312588484363431	13.6441031772007211	38.1289971643361554
35.5388511377920651	13.7152146008721285	39.2819975523545537
31.8180405285868524	15.5230716023465725	39.4665272958414022
33.0867472046171542	13.7393031764597229	41.4945378737252000
34.0538624413919280	13.0567005509594942	39.9530091273677996
32.6357040478262945	17.4130436422685300	40.4493016903972702
33.1583506906965511	16.0638161511898723	41.2816056145454127
35.8754403825605550	16.8248326352307238	37.2586621659523587
35.0627033562296901	13.5165197205674961	40.4047278033538504
34.3476315737202782	18.4902707634720507	42.9568208451294993
30.7838981583213176	15.2490201207197948	40.1088842459756947
31.3940330622736639	15.1582388669717272	38.4091187829101415
33.2767886396291459	17.2812457870839928	41.4922879595520371
34.7411903947277594	14.3232650987178225	38.6063116169698048
33.6640951717789676	13.3062494183371687	42.4685899720764439
32.9683041356955897	13.0304835237581873	40.5261333329608604
31.2486010075055241	16.6821614470476547	41.9015500892134440
35.0124631301050186	18.2952570590076355	40.9822061765578809
35.8136896060275234	12.6541495228881189	38.7377385394684595
33.8280622343703286	12.6544512846167123	38.8017732426891158
32.3425128803976847	16.2113914761650548	40.3284335670132847
39.8915781537534144	14.9012477610447043	39.7223042585196922
41.5590367166626322	16.5379029490736755	41.7969912656592015
36.2043749781518969	14.1002875888047452	41.6492992467023839
38.5181083982505328	16.8853053883940447	38.1374141162522662
40.7411073041319014	14.7942896837992670	41.8818639248706930
38.4337840353249405	16.0563243422822772	39.5316592202737027
39.6507052997764546	16.2662081327596866	41.1491161670427132
40.3946355679314024	15.8864538610223214	38.1667834181074852
38.1811906544899955	14.9631095741750659	40.8036131075996877
41.6150476695958105	14.2276048834953404	38.4700269551208223
37.7033297375533607	16.7700250461790468	41.6531637173795062
36.9058871948427125	16.8180203447893462	37.8568459867818348
39.4308602978084366	16.3753710090016433	38.7243749908777701
41.6998111947773467	15.4765901164279942	42.2997072408828032
38.6820097065754993	14.8651952636905467	39.7104733492822959
37.8807318020814492	17.1710008632729298	37.1805197206810973
40.9812662467442550	15.8891459705931641	37.0913154751423733
37.5675998225322090	16.6061499944514210	38.8734313213771401
37.1352870000486917	17.7744615965267805	41.1974212407852249
37.9352125605557760	17.2772303987193077	42.7491410247980284
37.2423127524257112	14.6252598749174059	41.4147783554218307
42.3007481394023301	13.2520712777016119	38.5185162944074335
38.4601472307796399	16.2044183508754678	40.8967646959233733
40.4904333277137312	16.9585288725299819	41.6121109937016271
40.1491720886743479	15.1610732049208092	40.9097013831420995
40.7451706267006344	14.9173253282489320	38.8421291790753429
0.0770759190010243	16.7291332686450538	36.7014881284010315
41.9031338214702984	19.6109256044124578	39.5713564748711519
0.4815238709634710	21.4800201506522725	37.1773756218457336
0.0393218114581051	19.2015793475047580	39.4884472278851959
5.4816687957322676	22.0776178602204105	37.1728942113366685
4.3335382071597621	20.7968192297263172	38.3609372986314767
3.7772217606118090	22.9851623983054125	40.5268821445848531
5.0405759380915658	21.3681089178877563	41.4425789766321699
1.3806058571024342	19.8645286774981216	41.1282355609492001
1.8842520636335789	22.6664682372294415	37.6404861242028019
4.5514211737587598	19.7871126199470240	41.7526753983357395
3.8632219888179682	21.3272817773343242	40.3741827343317183
1.5175832081575467	18.3034497508452780	40.6034477290366738
2.6503918927645373	17.9817765640856138	37.2303008924692165
5.6406106840020644	23.7483275422716744	37.5111594508619177
2.5451154550204387	21.7986833673828500	39.4543026581486558
0.5729997059931941	21.6125302733017648	39.0098544388869399
3.4735611377914721	18.7235391268089266	40.6785535626078527
2.6609167076395503	21.2311037273895842	41.5946003170956828
3.4339920748994377	25.0105771029722526	39.3525914696290826
4.2356787710385442	17.7876923770951052	39.0475374177647154
3.5967423439195434	21.1905625768436536	39.1874280702606370
3.8802818462355160	20.8551908310839629	41.5355704496862543
4.7371549336592276	22.1860721513739279	40.5909570655021099
5.7056530950317317	20.3772172392172415	41.3928829659519408
1.6797940646918994	22.0538576974895513	38.6725223512348251
5.2995784757119262	21.0055224241156431	37.7010691056033096
3.6596422126020971	24.0413077687458276	40.0031554660693232
1.5241243171213659	20.8008539921328151	41.9063090369632647
2.8675398853630112	22.0650053600028357	40.6183023366389477
5.0250845116043736	24.5076290813588891	0.2269421272366036
5.7824215198573246	19.3657616116974829	40.6542245032862866
7.7710802141400315	23.9904853319638072	0.2992785433337043
7.7116657269468689	23.8945359844386864	41.3750310123223244
13.0466779695140271	21.2605637550212947	0.2353762358687757
6.4036029796343241	20.4293072723658256	37.5600183345809882
8.0435613420706655	20.6469633659939902	37.9926868546893672
12.3245898460406611	24.8000692675431473	39.8761516160978289
10.2736651001647896	21.8826182839031276	39.9076469837377772
8.6355441238159845	22.4467927821209052	41.8322267556297689
12.2156697896232611	18.8748732506083741	41.4593005555435852
6.5257943960500251	22.4746642076832757	39.0778731022887911
12.1212459017995808	21.9001399025865346	41.3825343475853273
10.2124564473306414	23.0218335535768865	37.8388858975342615
7.4681276167150061	22.4695195677861825	37.7178112435374970
12.1160168007561992	18.7216850704157238	38.8793195049446894
9.0604206843258019	20.7209924812343651	41.2854966051962720
8.4800808474785025	22.2652705824192658	39.8602928417191720
7.2266957935935903	19.0507599968395098	39.0520544739990854
10.1342105999939900	21.4241324043694945	37.8799752249944532
10.9266295026726308	19.3235483824371990	42.4276193055522342
8.3459246076484970	22.9810363279297647	42.8621276634860138
10.9023343257724221	22.1584022121196895	37.2347427101314992
6.2326125484676060	22.7679708230611730	37.9441433513982815
12.1455787639555695	19.1736877431304436	42.6281575723725794
7.7118223552567553	22.3479120413698276	38.9327527835500931
12.1298953307167370	19.2050479529379778	37.8161990055311890
9.9674785802194776	22.2731801738952981	38.7749532861522610
7.0726698865463691	20.1615074808238290	38.5575351471053622
6.9768045916494144	24.2526638579925660	42.1936609743802720
6.4873655795850826	18.6747940100725174	39.9361058116276055
7.3381441242015386	21.3080272274690827	37.1951343442852576
7.9757474735949732	18.5557210896248783	38.2420147346298478
9.2216537553903617	21.4081434348553294	40.3293286359366192
8.2356174762325818	22.9815579313055629	40.8284065702201531
14.8100191762219371	20.0314951285255276	38.2779753805399849
18.7247719905725027	22.4001104577463046	38.0843269357337419
16.9916505543133916	23.1046641974354650	38.7352240496934144
13.6822816028232346	23.7074356783904676	38.8177668736359465
14.4173590011904071	18.1358850230401494	38.6266294819153728
15.3925624103965575	22.3287788826568736	39.6557105152730784
14.8779039485246649	20.4140708943351008	40.2232083320034022
16.1650446260866616	18.9015761574991181	39.2108858900304824
14.8495690000897884	20.9805060704739823	41.6562585356381589
15.1936193859092210	24.0101200066699185	38.3572892877989204
15.8412177207553206	21.6243093360477729	37.7151010767935730
19.1109884799723986	21.4113473369685501	38.6863399438992275
14.0339518975738038	20.2772739990480453	41.0654049823729181
14.8042675463948736	20.9955584472179311	37.5734149204308281
11.2330068104584910	21.9279456402653032	40.6184409306088270
14.7212346603519517	23.2915061987726553	39.2695583251782523
15.3898468424418198	24.4640007759272109	2.2326457859227751
12.7715220295832754	22.0728002389682558	42.3827057925190047
13.0191852450742935	25.0531802051571582	40.8358109515768106
17.3134273446951745	18.6464300623708361	39.0855853453611672
12.5533268480952636	24.1213189347498940	38.9195442569960832
14.0563206476676648	19.1290421470030978	38.0676650232076526
15.3855532434272568	19.8293309078780027	39.3077264099560608
16.2102534572407286	22.1722241379926999	38.7344179956064210
10.9892255752025552	18.8485862595214471	41.2757288518820005
16.3906590083753763	24.0084913716654853	38.1961315236023751
15.2262345917436566	21.5355831529009336	40.5568639127445820
14.1090800916247332	24.3301084179402629	37.8719375656648651
19.1000574699035468	25.0037150487865709	38.3852067323964405
16.1141793336933326	25.3503213977008564	42.1766594762624294
18.2062950380438231	23.2173792226370033	38.8248093409595469
15.2383018314213761	20.7132062644579520	42.7522150675741273
16.2529930294697991	21.7573299595991081	36.5889417909412487
20.3321145070167013	25.1015419955024051	38.3061822213003538
24.4167959892331368	21.4760967655112047	41.3408243730442706
20.2133932858939929	18.0481151430785225	0.0141961249950693
19.5527906186994933	21.0304617908817910	37.6393683318230927
22.4840104363764617	22.0673721657844837	40.2724036679769739
19.8582585351904797	19.3680285146526288	40.7503665102677815
22.8106577896590785	20.2759117729937515	41.7070599816528542
21.2172653323733194	20.3324158508669726	40.6207638240763771
19.1442108927882408	21.0867738638931179	39.8174749941048276
23.3622211544868534	23.6250646024619435	39.1452665556698065
22.8558526565161166	21.3306728608379750	37.6344665390583444
21.6173750573454519	23.2216463917243239	38.3871275792377062
18.6902765746406665	24.2318253168702178	39.3086574261421049
20.7111151342283364	18.0915533725785629	41.2750009022575668
18.9373734725975531	19.2382243981877110	0.1939126307824453
18.4480088746573969	18.2658251066454476	41.6219517087142066
22.8478322447670514	24.3025002812340851	42.8466064191105076
24.5236639742727220	23.3958576920005221	40.2737321129684815
21.7549888385787220	21.5716026157224512	38.8008728547377899
20.2870940073106958	20.2745312380017069	37.0740466972095248
24.1997444918302769	18.8239843044018222	37.8357701380119380
22.6036701754977045	20.3010517266510178	36.9431807088280948
21.0952100826332334	19.1314735424131150	40.7788816063885022
21.6495010930059308	22.5631488758598273	39.4713153009250917
22.4695768817786146	19.2028851075178650	42.2531638821795070
21.0106352563653971	24.2063356507008081	37.7926768820239829
19.1874735772828906	22.0045752711864147	36.9422869972626913
18.3814930518350046	19.3500932850336476	42.1325373387704332
22.7378923608449064	23.7788732930255691	38.0788963567954752
20.0091711371413261	20.5134866745814186	40.3683836191201237
24.9113358786081349	20.9753854399267290	40.3861796481856317
22.7005143141407437	20.8510789692206515	38.7524343793668251
23.8243977619144900	20.7973776914758268	42.1322399919565882
23.4886269135071863	22.7284577036674946	40.0373472944667554
21.8677655534284732	22.1322580741577113	37.7275451204357353
22.0757998945991218	23.2138576686460532	36.2122924001673354
22.1742242530493172	21.0193424619992655	40.9129074915763837
29.5536443715501527	22.0258907984680832	37.7241742345559246
28.9844236239729085	21.3518439979505814	42.9805157629045951
27.4673494093920922	22.3429398035308253	41.9223216318381020
24.8527630649688263	22.5875348676854699	37.6229270333694572
26.2254019546257560	22.4159620350943420	39.4404977410562694
24.8345163432171532	21.2063735423403230	39.1883219514868628
25.8437772654048459	23.5763072081900624	41.3947041859173126
30.9338610452269904	18.9116109096069245	40.1528328102357008
26.6228069354867465	20.4888370500685646	39.0409917160051023
28.0897406014584234	21.7658194374167309	38.3811143963760344
25.5260422551578188	19.9222844181451713	40.2086251694315280
25.4413386856612576	23.0116612755001562	42.8872223402546027
27.6411346595079159	20.9502637785586252	40.4141485556008178
30.9793813450047573	23.1800688617306534	37.0675642462241441
30.9021595482921683	23.2125329003512881	39.2373318948100405
28.7953462010853549	21.9606038200979441	40.0382581814247658
28.9679329312966765	17.3956434059130522	37.8087694124187692
28.4666629373254061	21.6219597292070205	37.2570437134808685
23.7277063088316460	22.1594387542133759	37.3568814063163686
28.8497453136410158	20.7607634953070885	40.2847463094507887
27.1312956476201030	21.5918566542809671	39.0705724161693126
24.7731724161595039	23.1944818768662486	41.9074614735518765
29.7141699037316727	20.8670976887981254	42.1609004671351926
27.8276123471992918	22.1382055354720890	40.8032238486158576
25.7391865100539370	23.1595146967174514	40.2789000088665290
30.5051007863154311	22.0792284442725588	36.9576968256251135
25.2921861022545968	22.1933835194152778	38.6774525714616573
26.5711327662572145	23.0739863938376892	42.3014440266779204
30.8038578484601224	20.0882003231441821	40.4961807694333231
25.5625168545156711	23.4050014617263571	37.0606819969322316
26.7345547439089515	20.1641510722832038	40.2120756723688828
25.4814485995563267	20.2551859936393974	38.7639097161915842
29.1008203713596920	22.1800230281019317	38.8864039190833566
27.7745251244889992	21.5066715693424264	42.7579224137087834
36.1206635419006474	18.0654928800850456	40.6825748061487857
29.7546415123816459	20.4521807955451607	41.0340876656762248
35.0908376239975794	20.0972968383887753	39.2997575837148645
32.3654742417656749	22.9527547933910370	41.9166150743034294
31.2689095303844340	20.9892524300529004	39.8786597325895400
33.5597445101852543	20.9437029138848345	38.1727269994404850
31.9290776907916332	20.7473969463342272	42.6535299089308708
32.5684471984605608	20.1229034876937760	36.2046181988462905
37.5788651207292688	23.0316141977014794	41.6876953515676973
36.4227080718195211	19.2202715724592181	37.6391205379352911
35.8993778193707200	19.6162356286150903	38.6086448406632101
32.0795469577761310	21.9473052968230782	42.4996829092452941
32.6113602393845952	19.8188493215920900	0.0423569733110984
32.4818944581502294	24.1009848569863792	41.6802675983302819
36.2315342438383183	24.0895894833150521	40.0794910086935872
30.2267896062299890	18.5023786571739493	39.2838617462040034
36.9259480370986068	18.8248624929413459	36.6702760041319991
34.1512481352324286	20.7754360895182657	39.1671508321111048
31.2526476309141543	22.0879985229499169	39.4879128486190965
34.5743634921073593	24.9395021011601870	40.4481891594040306
31.7571969954293429	18.1968474110410909	40.7057424513160626
30.8919546546967041	24.1769532846920896	40.3386980661824524
42.0076485531784130	22.6889444683844097	37.9376322514762165
38.7241142761080610	22.8684885512075944	38.3544229701287307
39.0459454352965167	23.3894408051113842	39.9062116918498830
37.5260990021390910	17.4580783822283827	0.9069493812908648
40.0870894832252205	21.5254425580326121	39.3914334078190791
37.8227509769318431	18.2705153354104546	42.0676739939340365
37.3483449844679924	23.6997195673958707	39.8373393814337504
39.2606824955582709	20.7994228249569026	37.6783323023192338
40.8181673792788118	20.0441178083247635	39.3185685891753351
38.9373948303442319	20.2433662792106439	42.5491359531167532
42.0928109208398524	20.6765408797477050	40.1446029309384187
0.6084539701498286	19.1035249648569732	40.5706805538086996
40.7196013082253998	24.5306051384691770	40.5589701516915468
42.3936677770150894	23.6191356993871864	37.3212479199773881
39.2400676538577073	20.4626022775598706	36.5313855411661592
38.2366460950026763	23.8386828985966588	39.0079681446413176
36.7048791344742682	23.7523504605804057	41.9874936218531474
38.1299516089616688	19.3740899966869264	42.3756232361123040
40.9243940194090214	21.0402490987328221	40.1193309078800553
38.5574686859608207	21.7891366735644176	37.8039884082816613
38.0907623493234695	23.1054959437710821	40.6386917284952887
41.7231678088488138	25.1254853492289847	38.5202625895007742
39.6105447494730569	22.6023294236029209	39.1981422236393016
36.5441826454719774	25.1482261004030470	36.6023281571162258
39.9784933396730224	20.5753355975161760	38.6261196159604765
42.3448325861487049	20.8581285187752918	42.9892164639733991
0.1567890867204045	21.1848824479491746	40.0300347436050146
42.7684980135993129	21.8155691931969713	38.1184716755215263
3.5761196044144508	29.9927039049639852	39.4685206566337285
3.2680687987725245	25.7847944701277321	36.4914777275499986
2.5917506646053852	29.1188313900731934	36.4302458456404352
42.9938399329484895	25.4800648546618262	42.8369910225859982
0.9887534466701451	29.8937331238934334	37.5795922730369298
3.6690853948919524	26.6381714754284005	38.3939720769675219
2.1880261590913679	24.6202639077032259	37.5977216405386656
1.0487707493960639	27.0550596440464624	40.2374287021652890
4.3185168784553341	29.7025358896439506	37.4514779106498779
2.6789967076971859	28.2549203197380017	39.3850679167173894
4.0794441483042201	26.6400133952201692	40.5193669769469054
2.9575620321496099	28.2069451783397085	40.9225352858875553
2.8437709667285334	26.7066903619240392	42.2154806046471407
3.0031804722932280	30.6688196081619076	37.3283068496245392
1.3467986795498135	25.6223625164065894	38.5926571605614086
6.1296070230765993	24.1419117284790197	0.0306162182695016
2.5004374063654180	25.2451668287679531	38.5885582113823560
2.0502714968155709	29.9595246211156798	37.1208460628429719
6.3328867880475510	31.1290450458379624	39.5946471886758644
6.5855902208408885	28.2949929010703478	39.3127081865841319
3.2573001268863551	29.0662997556219658	40.1208766384820379
0.7896302665014751	24.9243562961142757	37.7316250964122091
3.5297134873005498	27.2318442588649603	41.3987730215066350
5.4204842049572877	24.8940774679879873	37.6478838592471021
3.5992138501311253	30.1993451535752762	38.3084110578828287
3.3169187331050636	27.7669917962727801	38.5366754098374500
6.2165753835296025	26.7815649763778048	37.7462654216600768
4.8187423032421286	23.0890661014767886	36.8423924210028204
3.9600672587966685	26.1202351149601952	39.4766260056549498
0.7188717559088460	26.3516143868295067	39.2854347708300651
2.0500203692254995	27.7035220633520325	40.2718232650692158
8.8219407310856290	28.7582698762025899	40.2768867976113754
8.8123933654827002	26.0961228187130061	0.4398196763035738
12.2331565521485839	26.0192210229833769	41.0068247510309689
10.6897750372256208	29.6362715761540940	41.4014614109339121
10.9445127822411354	28.4629657138900498	0.0651094307688579
9.0466544223162497	28.3272536515150790	0.6416407534570983
7.3238103996291155	29.1240901937636671	38.8848570438933550
9.4983848013575738	30.6585780168782769	36.9859030036044416
10.4547110714479494	30.7599488243666137	35.1708675453731132
9.2503071713834011	30.0092155402835985	38.5869392291867754
8.6615461047230866	27.7146202310850569	42.0383047074365024
7.6408292919466065	30.5292648629595185	37.3422420023129646
11.3662937824908745	26.0599187871225162	38.7658130633766405
6.4347226115269782	27.2695661734233568	38.7908842186986078
11.7543914675770935	25.5457312810694255	37.7798377343236211
8.4847629165756882	29.2851391291876695	39.2249263816358678
8.6171505675191238	27.7493332383008813	40.8741223811983474
7.5168180417055082	30.5588688424206119	41.5154942781944882
11.6772349953885310	25.8362277360052914	39.8895686263906626
10.0123207125777878	29.7286916552781619	37.5924961840552214
9.5679324710028979	29.4708867819121174	40.9438272002866128
18.5289824650283244	29.4131481394115468	41.8191767704085038
17.7909742216848414	28.9874307949768166	37.1618860248917500
18.1105092586806578	27.4137121293936481	38.8681105818953654
15.1861788936701902	30.1605430465735935	41.5649018583580983
14.1835018548331746	28.8725094089595018	42.8117262707819322
12.7242288843510973	29.1640325159172882	37.8344421155665245
14.8609245003178483	27.3455373077528847	39.8198613712763105
15.6765925649963531	28.1653421887688786	42.4370963345399872
12.3377705916807088	31.1324013529765011	37.9819195866155539
17.4849299637557571	26.9743986594078429	37.3997726862413842
16.9764085622605272	26.1634100818535842	41.9611901668748217
12.2917258898851536	28.0149284203425175	42.0265835100803002
14.1479106296495338	25.4274824276322882	40.9039329406085130
13.1261559682597895	30.2544119473070481	37.6596410199239884
15.0460618258816456	28.9828952576274652	41.7809216621277528
17.8103585456599802	28.0765309518575492	37.9191873932622272
18.6842320756995868	28.2608748138580808	41.5253037277520178
14.5130066284996371	26.4435504402978623	40.4681594059200336
17.7260532797873616	26.2708787273124642	38.4193170037518925
15.0503925740235527	27.6096191838903131	38.6959286840304344
14.2691682224470533	30.9850117513730972	41.4515180001833770
12.2910109276867257	26.7973440489464600	41.9166646040512418
16.1019490473838545	30.9723109303648627	41.4878086938694537
16.2990557481085894	27.1222698376944322	42.4399750336675865
11.9863723502848618	28.8557335904032115	36.9656212001497835
22.4664463480576693	26.4866790384305375	42.4155712352595629
23.0770772364239285	27.1233201672313946	40.4222444147601365
22.0000572550500024	28.6512690715212486	37.5844651781432546
20.9724228220108699	28.6929356997241278	40.4625958269321302
18.9814707448064937	25.9434482459522862	41.0839026224621904
19.7961305589375840	27.7372680072888826	41.7648134425955249
24.3215946915455419	27.6899972195678039	39.4391829099894622
20.1476070611226774	26.7598660965838135	39.8093104953741346
24.3083605342511611	25.5036151166366452	40.1396432507411163
21.4048081273840651	27.0950571411544949	38.7696657840272678
23.7906075093930518	28.9367642921639998	41.0315419910461898
20.8624472831083416	32.3087070843346709	41.6521026328527952
25.8393411643493103	28.3356554137117982	40.3499549024846047
18.4870674720243819	27.4034004094567116	42.4025995269710094
18.5944255286201070	25.8543452928094624	39.2168607857154043
21.1799891615944382	27.1294422241511555	41.0573815872312338
22.6316277906382304	28.6303671177029742	39.1117707443039819
20.0798008582957053	28.8244625923961593	36.2864817521275427
21.7273498924974469	28.4417265683896012	42.5749820613163834
21.5093836265058691	31.9468334313782805	40.7102205093467262
21.0379487254411046	28.4294226679437791	36.8982580562698530
20.9339450366951851	28.2614624568233914	41.5947528384746406
21.0731356979465829	27.6438405025069116	39.8682050022760777
23.3358952659677321	28.2986677153414519	40.0437296057218646
19.0092409173851138	26.9589086152652797	39.4993608259488909
23.1733419644191549	28.8537797698246798	42.0526587355941714
22.0359073332033084	29.5018467766395958	38.5614104149138939
22.3372898267383029	27.7236021961741912	38.3670290048733023
18.7401316445439008	25.1220727012719820	40.1778581050505323
20.0317908778580431	26.6638775702611035	41.0905821949413692
18.1662673106852104	26.3540769610796133	41.8931144942784925
23.9367134166729159	26.5976997249511697	39.7716062224142703
20.7098745168061633	26.0979265934444093	38.8914877103551433
19.3714464218886597	29.7284706740528293	42.6541481811872671
22.2936806093936504	26.7354516447845114	41.2370833859663506
18.1924004429346873	30.5270607313348492	41.4850215931614770
25.7099742813775904	25.8724164732473128	41.8610878245591778
26.4102490488447827	28.2357208949903971	38.4980730481166020
29.1600913921930278	30.0408338861807351	38.8418350450733598
28.7973504236397098	26.1616355360800377	37.7789552983625327
30.5244985080253848	24.6610580120267855	37.4039704193325591
28.0742035175707443	28.3187476159518532	37.9719579386296076
27.4490886734908983	29.8427303704551932	37.5269946048815655
26.6298334105267180	24.1241514582374990	42.9554869020467578
27.3129652207126377	25.8636791287551624	41.8825101693935480
30.0152751362401489	24.8237060527160445	40.7938174422667643
28.9333612757272185	30.6197571944860094	42.4403053767145124
29.3621239998164185	26.1922521744035208	42.5972609408396679
27.4006542391025079	27.2797668253659218	42.7040573712463569
27.8707272363803611	28.6406957622950138	40.1352382770303890
28.4568291675020006	27.3587160636946898	39.2024029510673557
25.8783570702370334	29.8486324375389422	40.5921884447171806
26.8078950217994212	25.4627531768494926	37.5010384173634748
27.4482093124907891	28.0579182159165157	39.0967577441622751
28.1899065488405682	26.3645745180000972	42.5117216871157027
26.5012841052435490	26.7877604720051465	42.0126431209651656
29.7934628665832761	25.3093977415688336	41.8549996950116636
28.7985436534446926	27.3465259394951907	38.0534037889822443
28.9198795249101366	27.9580653593939061	40.1427998380174529
26.9138342146886309	28.6199170131658356	37.4210758032184785
26.9407862373236355	24.5486564822402613	36.6490552312398989
27.7094024859263790	25.8020285645880882	38.1713187997008347
26.7656848229791251	30.7398078097702019	37.9745833563703243
25.4485685900230614	28.0482632155637610	39.2298203897763926
24.9730667574984935	29.0533079188728287	40.8487230490230004
31.1592395198170422	27.8128487119929808	39.9934882116562562
28.9893710117904853	30.4601392366032897	41.2634057109826458
26.7997054230910194	29.0424932307722088	40.5682668457413911
29.6635640738231245	25.4583994262096454	37.3706745981645128
26.5393807596975932	24.9552031260417309	42.0855430798311758
24.7600068892579905	25.5778575752784754	41.2468422860006072
24.1153459634953293	24.4038169773836593	39.6787547547708073
30.9023104836729736	25.4818409407052009	42.2900954813750687
32.2019196248578226	28.3229232386644867	39.6991905162783141
32.3897557613154063	28.4474383735747480	36.7100090570640489
35.3774865511104863	28.6126878102039122	39.1058560275578841
29.7831358846407923	30.5076001516124187	40.3639447078231370
32.5018707334477455	25.2250378987542234	42.2541501192694966
34.3788990442126305	24.9684866318383101	37.4217630063827329
32.8692022116485631	29.5376528814113755	38.3425446695914118
31.1774809474952015	26.0455609659164793	0.9999394305305236
32.8213190521495477	29.3782834075162569	42.5667395397653010
33.2541241874823328	30.1282312308903464	40.4109316786635802
30.0759441490400938	28.3737366060648206	39.9674994363501526
35.3515454184714528	27.7648339826423900	41.1523650082106016
32.1854124614820449	26.5460713999983362	39.9685809200020188
35.6936865420312728	25.9444475782730102	36.3317727114372175
35.2539213561772797	24.5334105884887492	39.5077592266029640
31.9655342150237978	24.7497662863173211	40.6888466391961501
34.4410972103135293	25.6025322347089208	41.4448262761125790
32.9433792831785865	30.8679639835664190	42.3732601861388858
33.7265847048202687	25.1415563335355081	39.5531962428867061
33.5872434122410226	27.7480467561547073	38.4977223490558131
34.6713555629220664	26.8159679836978135	41.4135917574790042
35.7218356337491514	29.7189471764493156	38.6610035859766157
32.9311168445770193	28.4858285415087060	37.7698452426155526
34.4599760133569433	24.8102414577605579	38.6299988132746819
35.2372030403062979	24.7508391246400699	42.2790729235886289
34.7481896776397576	26.0825872824018532	37.0724287178270302
32.5968453214207727	25.3959285042067293	39.8392537489997380
37.5261115580519373	29.5410782991211036	41.1103366616435935
30.6968980821638233	23.6736088197550885	38.1311879794264783
34.8046336287264140	27.8370408343218187	38.3647815973944901
35.0204198232477495	26.9067956621658517	0.3880727562631478
32.9116169479153982	27.3624693067262612	39.4215307212932302
31.8625509637468198	30.2131862993643594	42.6090028334703064
31.7032218058391422	25.7456829635208209	41.4385331595356092
33.6239629616565523	25.6654454135906285	42.4173666383525756
32.8069967819494934	29.3760933936852489	39.5336190172075703
36.1879444878327803	27.9541701440446921	42.0579778284173358
35.7876743026369226	28.5153262837491717	40.2628863347211166
33.3380394340851325	29.9705097262239732	41.6248489562070603
40.9461904885720145	28.8398888059593119	38.4324122138012356
40.8058088333175988	30.9146821232611728	38.5435518766954246
41.1229898720329459	27.6307395704010368	40.3014838627238206
40.4031058938307766	28.2704409807082406	42.2416697883265471
40.8078565013357490	25.0001853923242372	39.4373878965101241
37.1284565407400180	26.1232737210033186	37.1300312881484658
41.2255084922042414	25.0669703467976639	41.4620959779926324
39.1241564240377713	31.0926451756876290	36.4403806311959855
42.6245646884837939	24.6174829413505556	37.9470106969534342
42.6250395261458905	26.3989272149245764	39.8165007342913171
36.7682789457649477	28.5702539437736434	41.0401238081483228
38.3574633619040171	29.5662861809256654	42.0582792945599238
38.6446143428704332	24.9220192184128493	38.5500713120436771
40.9648372666638210	25.8960261532949367	38.0204636862932830
35.8132105225991282	24.2458823187845809	41.2343795468140613
38.1376374945716421	29.8790871469653894	40.1260189367332885
37.4361116350019714	24.4846196962618379	37.1068722689734329
37.1732760535590572	27.2127823962892883	41.9164069826783674
40.1729431828065486	27.8678643632323109	37.0794783832427370
40.1321935943869548	29.5160243988561355	39.7174890421939608
42.0603279741141804	26.7993018075867475	41.5885230283230740
38.6869530978180123	28.2546785535747844	40.8955807624334753
36.2264844352796729	24.3857731531219351	42.8751102367536774
42.8447279865042958	30.0533630094867128	37.6391908817726204
40.9686089679249008	28.6128315732247280	39.6257495330855178
41.4489177758768861	26.5324970799573343	39.9072142487520978
41.2524885465480580	28.7003322283170235	37.2755175820667404
40.6666093198066250	28.5240867741026101	0.3651886805559501
39.0666613854693381	29.1230130186308287	40.1192411415400159
41.4957434215223060	31.8625077026320156	41.1148636532928080
42.0579788306797937	25.6583413805692686	42.0728548085057739
37.8737000636224650	25.4287242885413214	37.7894475967222974
39.8157731874010281	25.0854064695745187	38.7902926584782506
37.6234114008637377	27.6873677481171789	40.8975728768243343
39.1072118412892991	28.4861147737883407	42.0462763680873906
40.2161578817556560	29.8140656929562091	38.4722845415137655
41.3349673250213812	31.1757394584434131	37.4880752782104238
41.8008953517345248	30.9870536319264041	39.2528967562928912
37.5653577121997344	30.3892337994631632	39.1749447480741324
41.1356947450083297	27.6020343451883541	41.5213038532186118
0.0381109275586418	26.9102723554586483	40.8775197893862625
38.9502944514694391	28.0435824534255431	1.1785476944189817
3.1444356631158392	36.0911529979012116	36.5949227829097623
4.7745534321305794	36.3581065656003020	39.8322349696188809
42.9070603710983605	33.2957490995460290	37.9459640978784378
4.6657939585464439	31.6196095706556726	37.4093808597851591
5.2817661872938997	35.7561168494590191	36.7298891760908859
5.7296520944028888	30.9039394405423344	38.5548415195900276
6.2255901289016595	34.1781123810178258	36.3963012248091857
5.1500832341621106	33.2713095708008595	38.2772161210184834
1.8085383358752916	32.9895703256775761	37.6265628456974426
3.9662727533928903	34.9685299556921265	38.2657790191560139
4.6867928821456690	37.2729191956716122	37.8998909643739808
42.9037899202373083	33.5024510181902144	39.7669989097483949
1.4753483144124622	37.2414647221377066	42.2480096168899451
2.3588929202389970	35.6501947999870339	41.1638901487402862
3.0320396263408145	32.5555530974147587	36.2712315250526629
5.6881747281303454	37.4278990073538012	41.6419358973621456
3.1067756390320604	33.5518115247787279	41.4456184897712205
42.7276360016293282	31.9675352999328020	41.2537283090688973
6.2909271252455481	32.3292771516896451	39.2116172666817633
5.0700983502595367	33.7799141265399072	41.8984403095491516
0.4645309018697937	31.3636510094800407	41.9401856224304836
5.2264301792745078	32.0146255243351305	38.4124164720609400
2.6090734278054324	34.5956198440800407	41.5890740992289594
4.1412066154983318	33.8222815588341703	37.8722704091360640
5.2615689587788692	30.4736343582694218	37.4536914115923310
0.9609151673874051	32.9842808786278283	38.4402907410756711
4.0410958500872534	35.6557601688166628	39.2352958966447574
4.1872114727718071	33.1246611745342108	41.4572597175651154
6.1214091543821807	34.5052576311437562	41.7964448276598759
4.7587713192214807	36.0322526230389286	0.4457890299157937
5.9375893908533621	33.5040959770868270	39.2577988639809234
7.3912184100764327	35.2520064707644565	39.4552060003421303
11.3581585920951369	35.7915287880778621	39.5203911579581160
10.7837242555124302	31.0629052215762549	39.7164776036723310
7.2341414315917829	35.4613028365302796	37.8408818889113192
11.2720312143072121	36.7468660539043768	35.9375995378949114
10.2518841192713186	33.2131158384673313	0.2288175565923633
6.1968180771549326	35.8232559282976126	41.3328253846700875
6.8060838395273011	30.8401421273614815	40.6335169067937514
11.3151280203274229	31.6057185941336733	41.7812725226124044
8.8339317788540175	31.7030767709299361	38.7701777890597086
8.1785764810284842	33.8298853204023118	0.1430483004908084
7.9402172558448720	30.0030968699548843	42.4545011793045148
9.5235468619993462	30.6295951485737703	40.6501662620496163
7.2686202334435039	34.4603617917880669	41.3667900121306928
11.4337756463787006	38.2822036038108706	42.1372612772622972
9.7607426968773563	32.8632225324549196	37.3871749293818993
6.7405245116456305	33.6222658465166973	38.3567834192249748
8.3223519101699850	33.4207215906966582	38.4744427997576182
7.2912487515398787	35.4725109271617072	40.6455578846866885
6.0255091475070932	33.4627122933241381	37.3949209885267635
6.4081839703653332	35.2991062271779654	37.0213843942701288
7.1753731879167510	36.2246920974028228	38.7826291562934529
7.4369938262208111	32.5888359188724905	38.6798266816764809
8.6517103800239799	30.9087334259541784	37.8436739871736876
9.5657886354977268	30.9437377050775595	39.4774981708832016
10.6753825682190104	33.0910694727775052	36.6282194952453395
11.2875849466285274	34.6085626516156708	39.1615603831246304
9.3377793319870559	32.7619481977529290	38.4959148786774250
8.1610342089779113	33.9683401290503042	41.9477782386834761
10.8307495559361726	32.3984500682810506	42.5623047922338671
7.6460256190435700	34.4595520604616397	38.5320526332109736
10.7404657401812518	30.8589961885061648	40.9609671117272143
17.0653666769301822	35.9706534478964812	37.9107810730552046
15.2730613068684153	33.2644037644746362	39.5192393744501160
11.8492091668336581	32.8036586132881496	36.8405519074959429
14.6911662496218067	37.0957157982961618	39.6663033694161413
17.0409307010469284	32.6186125788409171	39.1699582831360047
13.4573709159286796	35.5128803409809066	40.6504330615743683
13.5653439236076103	31.9978569576540899	41.4454813682719063
17.1770585738025048	32.8743646259816842	36.8522527346713886
13.6005175678329753	33.5173293475054948	38.3086480573908048
17.2251169007556584	31.1131658930290911	41.0238243371160181
13.3437574814012976	30.6878197202397303	42.2309251543067958
11.9882198043501820	33.9376505663279460	38.4774999227048085
15.1282370757523363	36.1129825337744848	40.9953877441540513
16.6409718169477081	34.6778432934150374	38.9021563205841758
14.2947519125440525	33.9199841880846265	42.0423068404165647
12.1555407551123871	34.4130602278170414	39.9915850360234657
16.5614133496497828	32.9388273329655661	40.6712220245012048
18.4207189483724392	33.2824243916931835	41.4087615054198963
15.2026128602443631	31.8436933066784427	41.4528813411140078
15.8444768513916241	33.4241204133352738	37.6907234059590976
19.5178693609932985	35.0887379889505766	40.6390203285797895
17.1338072961596914	35.4184952482991378	40.5589097051770366
15.3685731879035608	32.6087199403083190	40.5183877767296607
12.3010350719269983	35.5492892391960638	40.3355583179948525
16.8271615782879032	32.7273421861289151	38.0040714856386472
11.6303307370647833	31.0107683529954237	38.9080170334438620
16.3387163386001149	36.1083925808805546	41.1087874375840556
17.2629904698930119	33.4902981989731217	41.4637734914723026
14.8277805028031811	33.4132219324254152	38.3939716161188400
16.4719834912102669	34.8464476600241113	37.7234118654798039
12.9318743745097660	33.7893613178755672	39.3099939958257139
12.5889439951462325	33.4817135535090742	37.5537660984785475
14.0095483121438775	34.9537103216743930	41.5679109395752775
17.1413180990244811	35.6673188415513138	39.3775057603306351
14.2844174837678111	32.7503907745078706	42.0415695637606746
14.3797052440951383	36.0024533053029785	40.0512708528859065
16.4571190658612068	33.6847715422341167	39.5543753604307327
22.4012982217520005	33.7553401507708344	42.0811056157200198
19.9553946472072887	33.6990366030729476	39.7607344476478914
22.3224797777496065	33.3170891351497289	38.4327914681706702
21.4442374738056891	35.6273718996705426	40.5516850920504766
23.1257956741923927	36.7279833209156905	39.2736580795005139
19.4421154450874276	35.6319883563618589	38.4935346356376584
24.8551089476763529	31.4099104454839058	39.2021188550052102
22.1055656041575403	37.1557529248626466	40.4657087889908595
22.0449728071940179	32.4990662596708901	39.8213955854638044
18.9348511766264380	32.7035336447498040	37.8091361020735448
20.3778549834181781	32.1332585078248130	38.3897463104140968
20.5033272650221186	34.3170228754087034	41.5469646402586505
19.2026810572787845	30.8484742793559192	42.1436166944001656
22.1463972966027072	30.3022085642606847	37.6482685593802628
23.5696782902670172	34.1471875892896293	40.1740284211489538
25.5984020365357345	33.7095081128955698	42.0375807166477671
22.8897013448630346	33.3506302546723816	39.5029263691268326
23.1447793866069844	31.0593761657399234	37.5919402996592069
19.5485129961873234	31.6610396925459092	37.5592587270555853
18.3435587925210868	36.0304200015898246	37.9591223493293839
19.1837260955433528	33.8274425117798359	40.6888036834151805
22.4762023045054526	33.0714467482152941	37.2650280162373733
21.2544487725417959	36.6895382935568790	41.1823539065736881
21.5115562601017132	32.4217106279680394	38.7032778750981024
17.2288036909984257	32.0066034422628505	40.1776020310683464
24.6056473754077203	34.6228233145929138	39.5760276588283020
23.2170995202786550	34.2785170004932169	41.3429923365947687
19.8084586899436275	35.2611695293876650	41.8015366270375850
20.1320496460375864	35.8169454723982525	37.5219087024546170
20.7134397975495972	34.6602642103574041	40.3109101393229423
19.6253261641977730	33.0811582116328964	38.7480690278303612
22.8210258446421506	36.0953441656302658	42.8577809561016707
22.7797876294869646	34.1021237917758242	0.1815187889740846
22.7216147037406522	35.6322456052926455	36.2603686930600730
19.0854833042854573	35.6599492999395977	39.6486218869795195
29.9311511723010533	35.9801659251935106	36.8675511978382673
26.8309454486882224	35.7334186075135136	38.6328348042346050
25.1566793087040779	35.6297540874273011	39.9507156975598576
27.3543524398448703	33.9806800595544729	39.8554566840876845
25.5213847447239210	34.2097645068011005	38.8767534000238086
25.2782125381947260	32.7305141555074357	42.5970902978298014
30.2696779296314418	34.9179931064981801	40.3273103851776256
29.1186958682637993	33.7868943454423132	38.8675726270223976
27.8210812070751388	36.9742839360914815	40.1906770882237723
28.9460269041514167	32.2224756916561006	39.7466146569640557
30.9122349155142260	33.4710092596063262	39.7698583070985450
28.4954284835533400	35.3775178031170583	37.5701193939814573
27.1468927998145055	34.1204027111344459	37.4139380089622549
26.4246571818084703	31.2236824198772247	39.0004603830417835
27.7914025354698424	36.8738297594514393	42.7257685943224814
30.9418991376334844	34.0570929432592635	40.8669407004672607
26.5688683273371673	34.6924554074379472	39.3022890064009758
28.2849524593555302	33.2815928199125679	39.6132257065439219
24.0018864765153808	34.1392430340805504	36.7188761540880009
25.6309529773881550	30.7043553764106285	39.7895216631350621
28.7701837304159831	36.3087473144661033	42.4164261607986006
27.6146539397429720	33.9774059365536374	36.2703383555757028
27.6747693440598752	36.4118110007390996	39.1671311366026771
25.8866909145926627	33.8764412610327454	37.7286603152786881
28.5534498225753595	34.1176024606986275	37.8289586553986936
25.6402187612739496	32.1748986212463350	38.7295979654539551
28.9181197596347310	31.0996120454144531	39.3500746641031469
30.0710760391293626	30.5083179189922760	42.8134815653345342
30.1298005886401796	34.4133750124374345	39.2130933546463609
30.1145574244736345	35.9560727272614500	40.8473745993682016
27.2424209667013706	35.3631979886443375	37.4144805794602888
30.1044491904180234	32.5600027691619971	39.7973816527149964
33.7482548529605779	36.8522353171457482	39.2629858699399534
32.5854952134889828	35.8726819151647689	40.9194457758973158
35.1919962966595889	36.8566451804262840	40.6910768710729585
30.7882503396389637	34.1552461449223586	42.0352148378271337
30.9511197153152970	36.8776388009220355	41.0594895227821226
35.8500710246013909	30.2972929080242146	37.6237442010088898
36.6428357986831443	36.0620129524989892	0.1131109689756374
31.1144581000979166	31.8918870974788540	39.9726053770836032
35.5448249588634937	35.8391848853913828	38.8103740699651425
34.6209688256723283	33.7327537067146253	38.2295095405681096
33.7427858026419614	32.3365388115846528	39.8139162807476836
31.4687488127956385	35.7067376846829987	42.7166046264878005
32.7267733674845189	32.8251272579325786	38.5250410235205436
30.2781164215942340	35.1941670795709669	38.2896893392545010
30.8976686534611247	30.6544897285915603	41.9406499407108626
33.1266083367021977	31.4062948319183306	0.4346912983844791
33.8622869447244881	33.1632064501666903	38.9732734534722809
36.7008368869588324	35.8552977023186372	38.6044333577945551
32.4485394022552924	35.7223405209566209	36.6248094678675571
29.9500334108581576	29.5340192187397150	39.6156821913378820
30.8866410456581413	31.0192431665189332	40.7867354985445161
33.6286048193433018	31.2004581714337554	40.0266695367307790
36.0718014513941867	35.1746015915018333	42.5753271616882429
37.3046986386458741	35.0982499163331170	40.9478845634918969
33.0458543208122109	32.3894411039318300	37.4491826127909846
31.8090003427706094	36.2567539563307335	41.6926960981670263
30.6656055666532552	34.9834352754729139	37.1734343583334095
34.2257462702043540	34.1782813272473831	37.1183149087217856
31.9062788238205073	32.7203626413321160	39.4314598444757323
0.4858872036478593	31.0595598197840523	0.0746183462387187
38.2554051715570012	34.2444221151801784	41.0153266960348049
37.5998667865027372	36.6349992017414152	38.3359116862302258
42.2644563761207266	37.1120973706396455	42.9360195424549858
40.5259050081737371	34.1626007031830881	36.5856491805120498
42.2101341687334468	37.1567252597412860	36.9689820637733888
40.9375664579242624	33.8675870638993004	38.5899571420471474
37.6811046583965705	30.8651888609975629	38.0288773423156812
39.7968094447315650	32.7954716464806921	40.5079663583821770
40.8023680034651832	31.7980299092567762	36.6230807675667407
42.3176227282690860	30.9991502020338707	38.1684773429821007
39.3252648101283668	30.6361678590433613	38.7095282670926224
39.1648582078401120	33.6702852557800298	39.0878963955697500
39.0115421386349297	35.3126932372722777	39.2304245807733665
41.8276320963059334	33.6211509491488059	36.3668198258969895
38.4003300092176616	33.0901637210994295	0.0089393661508694
41.0982639681662576	31.2108686323675251	40.2062339550640573
41.6280983943477096	35.7496087313592597	37.5904627722887170
37.0476469675880651	34.6897721565803252	38.5365124926676117
36.4446904523439201	30.1103693741588714	39.5224501896573770
41.5716053062203486	33.0695056799436955	41.2484713478089162
0.4657886088876225	36.9407082781579064	41.0157680274183889
37.0363379276069651	31.8474825706126019	36.4287806331919128
38.0507298368743960	35.8779221144185172	40.3897255583164849
40.0644476282458442	34.5802240604066640	40.4185648918131335
37.0342304592023410	34.6857543059846449	42.0685897581163388
40.5620165633153462	33.6202481308825227	40.9613235070974113
38.2419014724415760	34.4520413604537694	38.7006296694038667
42.7298469851089351	33.1539921037048941	40.8854609369126294
38.4586062966068098	30.4968003310053675	42.7701580002431214
38.8122456598338559	33.4064870140998380	40.2558058420234417
42.1614439634055955	33.6015610648721719	38.8476378126955879
38.8229673406948805	30.9510897837635532	37.6625227159526261
40.1206786978173113	32.9075569872788307	38.8642672542426482
39.9824546553217530	30.9027782585748092	39.7824597717505952
41.1982959300857061	34.6048817529988995	37.4878286786411223
39.0640371675157354	35.2196269754849141	40.6057850934577331
40.0802265961275737	34.6666047419064398	39.1977989781476666
3.6673486467141267	42.7973858867238732	41.9086837890764130
0.0950076053314307	41.1519717326958201	36.5265922789704476
4.7975794957334550	38.3939907239839897	39.2065782815292891
3.2615394756235370	40.7002679449194034	42.0837074482610731
3.1684541839749305	38.5628813077866894	39.1321699803723106
2.0505318017402043	39.1739952530130466	42.2184073734212362
5.1467697146720814	42.1328592541532956	42.2681137759397672
3.2008665805370273	41.6990886995650598	39.0259203450941214
0.0827004658499843	41.5621833005459749	40.1512575016221973
4.5489218745111248	41.1503497131985085	40.4834146309046261
42.9323336659807069	38.4839953706543625	42.3571936439615726
1.1201794104098297	39.8371580718826195	40.9621744124984986
4.9538607468938789	39.2014853498546358	41.8663459962932123
3.4268365027891043	39.8372031322985407	40.5831179126014234
3.0874655688076889	42.0374580642696714	40.5883392587220158
1.2291941891113038	41.8111425765066329	38.2513449611257528
6.3722417753278204	41.1488741890840828	39.5395623315902185
3.9296555113969611	38.1151830321747269	38.3455429225462652
1.5893271452163464	36.5304698572265636	41.2676424873157615
2.3149702628591493	39.5896279049787836	41.0057091925599337
5.4524318126948952	37.3788721606396095	38.9482987229137905
6.1648497037099776	39.1987808233177404	41.5819677768769012
0.5138567642719712	42.0532003983631810	37.2618819224786293
0.4740907638923911	42.2052698877785630	39.1341566098944682
5.0387760412309559	38.0512823445837114	42.4662048174952460
5.2591395648855732	36.4987828286493539	40.9121591236040132
2.1369019649609236	38.0707295275625910	42.7239608576496153
2.2103349228030451	0.2101095320271333	36.4885104039342494
0.7657709395996128	39.1852752177567965	41.9168685784040065
4.3620344745532282	42.5104932630518064	36.6492409783943387
0.4007426750265145	40.3746116780053583	40.1502621732168521
42.8156542532087414	40.0217314047874169	36.8716053575455476
5.1944384172514715	41.3979558972222179	39.4711760732626047
4.6394530777982812	42.1821759398380962	41.1600153018856858
3.1992371436848246	42.7815834177009791	39.6379027609800261
3.9713992570589158	38.9458584140106581	39.9318528219256805
4.2303047367011493	40.1569735576533233	41.4991356368766660
3.3882902125916741	40.9833183442808675	40.0021554413978890
42.4934244856786592	38.8747642330616614	38.7470800711773578
2.4050354112027947	41.9634397121097464	38.1497319957039167
10.9575915816263780	40.1710737370461430	40.9185400736327765
9.1897953409104733	39.8153153444463968	39.9434726942142788
7.6384718497645165	36.6183314633104757	40.8972517558471651
6.6855977942708442	37.3395868268102546	38.7874192819586483
7.7278680445876615	39.3556624511650028	39.3701456869675042
7.3496803892425193	41.1536795823660100	42.4953504329422387
10.6623024116805798	37.2549645700460701	37.8838663764307668
11.7273109217573062	38.2487589220497881	36.0275463236175426
7.5029373958240964	42.5936027137173170	40.6050445677361651
9.0146385366376567	42.0510903559026090	41.5887612234555846
9.5733575985450710	42.1715956869762181	37.3177593518173722
7.0906229430398531	39.5301045332073855	40.8554153533525053
9.1579506098917971	40.3061988508267319	37.8193591939953819
5.5678122624519668	42.5619256103111852	39.4549193182111821
9.9236103999265115	41.5371154977600270	39.5580495374136660
6.2503860341292867	42.0021574699006024	42.7281633689185867
11.4249112790011083	39.1621290587797475	41.3697870022685592
11.0512543053513959	41.0841721230511112	41.7033956689897778
6.8232171569964732	40.0951493938450341	39.7977336086754079
7.9199581720376617	41.7680534076574901	0.4084066865398154
8.7131076072266804	39.9145419627983671	38.8286687142781730
9.4410868233663479	42.2022591148185029	40.4588740379791005
10.9921392133682083	37.5896648597980558	36.7888130402972564
6.8087512916129773	36.9276287601168178	41.6774178992823749
6.7392101853953594	42.3081924508564526	39.7414212398089646
11.8551993521417742	0.9873461817083861	39.9825978846355383
10.8841329910073519	36.6519160100564676	38.8555967757628977
10.2306533822844390	40.4373812951257179	39.9759415185802283
7.7820881741395498	41.9537856319007645	41.5963160005738217
8.2802732649716049	39.3571722112060627	40.5773034775126291
7.3821652539144118	38.2551243263433847	39.0588593413857836
9.6337350834570987	42.2822181673070148	42.6199527501491815
12.6383244907161192	42.4194578026568720	41.5407326003523067
7.4259335157872979	40.0003053117413643	42.8019114236074500
18.1620457094573844	36.3809135387512157	39.2207576928111550
16.6158034211827434	38.7629790434707431	42.2178196776084249
14.9233795809007219	38.4266521065804767	41.4533055601592153
16.6803752698192689	40.1055243534227870	40.0300622295128576
16.9494669213032410	42.2181856596094605	39.3823944611814767
17.3955453210775666	41.1187789091364735	36.8637945161862390
15.3227995210710901	37.7655673759958148	0.5968832647125706
15.7306404353539886	37.8434378878641340	37.7414736056196176
15.2157501486493896	38.9857043360513273	38.7804113728401134
12.5400969804249769	41.0054252965170321	36.0021281477524013
15.3572386774071905	40.2173665370012969	37.2798630791787033
15.2714319048821192	41.9545366876876642	38.1613365898725974
16.3532751096005029	37.3102432136469844	40.9882152353494007
17.8051870273319786	38.4658401940764776	40.2531802727512442
16.7069025795533541	41.5354720814383924	41.3789410560010751
18.7146224097207536	42.2335811535262025	38.4355424424105721
11.9941848479116562	41.6420080294966013	42.1690731405632206
18.1938338478479658	40.7798562270719032	39.8405126671332042
15.6977401353972610	39.5465926582138252	39.7066176886436608
17.0261890443282446	38.2818952909574932	41.1984898467328549
17.8129032573210573	39.6388653120960228	39.9487318375210378
16.0568712660580033	42.6697354194084255	38.6994114150637003
15.0155436179827593	37.7861705373624090	38.7676283896996310
15.1361909939414296	37.4559086316242400	40.7999167581471269
16.9635293135808922	42.3550482096643321	42.2351311428562326
14.6348668947139977	41.0413438038950176	37.7844797913279891
17.0643179575732553	41.2977471833959129	40.1980498798418964
17.7894589746224554	41.8624967172440350	37.7465287560772254
15.5212943168068609	38.3438774247766645	42.4881458953841502
23.7543585906211021	40.4611801506874897	38.4471630469200463
20.9844477308713806	39.0425736769789609	42.0566046597589960
20.9567120814882522	37.0759154923532037	37.6443064120000699
20.4451152253335664	42.3731110072544297	36.9299569537952124
20.1123397284148204	41.7954999854946649	39.7604044284671403
24.1114951069628098	38.6092300548946383	42.4022441707082365
21.5014707286632039	41.0532160167108842	41.2872181880564924
23.0360432992498438	41.5817972879080031	42.3975855651834053
19.4408819790439438	37.8068776122343664	39.2363800065126185
23.4497769536452978	40.1065723930538169	40.7681399952121595
17.8677724568869429	39.2018751575888587	35.9663776282220624
20.7001171269364086	36.9186259847775347	42.2365420208774864
24.3581127650338800	41.4053479675661791	40.5500647615593621
23.4153965106575264	38.3558815633561281	38.8117152306924638
21.8086923019783363	41.3479002694334810	42.4665229394485308
23.2940053507197362	39.3843830564239568	38.1781650542927125
21.2751479183584600	39.8859173042989283	41.2866826573429009
20.2439569597775240	38.1159531427282232	42.2450531071444502
18.3340294604520935	37.5615420985200146	39.6159602809640319
21.3730800976929629	37.3493212616266845	36.5275953491523211
23.7957869424812927	41.2916673879818816	37.5374812830529336
19.9322468232792538	42.3278456768615072	0.4071827444459558
23.4230579357734854	41.2161125684236396	41.3195362551277938
20.2630233296625093	37.6057366921377891	38.4371272786131613
22.3778984927518465	36.0410065153877568	39.9019511608787454
21.0269979176970345	41.7728508954715849	40.4721088299836538
23.8957093371089719	39.2772830895818004	41.4811828381929857
20.8863395945235908	36.9883300965343693	0.4845502777490015
22.7985263142203500	37.8141139534283539	39.7279797941382782
21.3215435961884126	0.1385356877751544	37.1937356181326280
19.0238732054848825	41.5066998496651252	39.3867207171978606
24.4705693024448223	36.0469695138210113	36.7534851997807053
24.1410567421408473	40.4542601032512152	39.7452524312530997
23.6292371015805003	36.9634205484732590	38.2317909235475284
26.9020712627373193	38.6943985533829320	42.6937303452018568
26.8995828535619417	39.3402391762137640	40.6514385224904444
24.2789888962922831	42.2043179404027100	36.8471124734700908
31.0660709166091564	40.6124122607467584	38.1400661902092537
26.4871011238167107	42.6400026377992774	39.0213763529182245
29.2151828652879892	39.1183313887787705	38.3188136921828715
28.1989116637440738	41.3325554611167334	41.9065214137961206
25.3231770602847739	37.9526305167064706	39.8895150963836969
29.8021231324098501	37.5682480257186100	39.7969191801077997
28.4451876542608595	37.1037472578118397	38.4253284203126526
26.4184400194440556	41.9054381500891253	40.4971775036921571
30.3492795689007586	38.6385060869830994	42.3785376128185050
29.4694393068185967	39.9416747333213920	36.8731691998554609
24.9735091702609573	39.5575782045680953	39.5522890342049038
29.4475502296504104	36.7786035164550427	41.5095945175525500
28.0664948490554771	38.2234123125570022	36.8570874885589745
29.7203476187658211	41.4424547982240057	38.4666675026908749
29.3811776642051115	36.0041063430758470	38.0917187978917582
27.5235839143447123	37.5160865932588479	37.6668866396406230
26.4771362873888556	41.5231199631573347	39.3634686078615914
25.2637307990964501	42.1241889857901697	40.8754351604206718
25.8739221721556802	39.0256540989249459	40.1787217987921395
25.3899660531074325	36.7753725218693504	40.0798611124450161
28.6360159672607431	40.5999992394000202	42.7403189872140246
28.5997518076727353	39.2006543950786437	37.2795630798833670
26.4618473656786861	0.2911181540852140	40.0211325414113119
25.8259623702182459	36.2613006457539271	38.0790777413161976
30.3131310816172324	37.6199311280090569	41.8018000494023809
28.8649418004341669	37.3166640347652248	40.5719605420855345
24.6494828932838743	38.4872432418349533	39.0065323002178843
29.6274596502058074	42.5398060396068942	37.9270177005667790
29.8379327928598812	40.2157736805264392	38.1207238996597724
29.1814638071821939	38.0253888203096082	38.8299134726357167
25.3552852642644808	39.8838916112485862	37.7221237838352295
25.3289751274217245	37.8266174454225990	37.2885987566070796
27.3346554869206564	38.8195860190295079	41.5883243435332872
26.9410621708703637	37.5642478808369731	0.1184397884634620
32.0380485387056453	41.7449255934454087	39.0647711508110405
35.8513922364471398	40.3865217906436769	40.7113927375035516
34.8107277889146829	39.7646449619314097	42.5108181843078725
35.6753026205917720	37.9519006988225058	42.6132033286777485
34.6621998616022751	42.1520480821622527	41.9334760754816926
32.1858350762954899	41.5061672642099495	37.2737266257041924
32.4153404904228708	0.4260764333736560	38.5235246112624523
32.1552382251715514	37.3626910060732342	39.4159086767225872
34.4533216692215802	38.6429641389269136	37.3333705800720850
34.3992309891485561	38.7090954977548733	41.4968134128437214
33.0474186945480000	38.7682900923155529	0.4454592137263264
31.0391471890004276	37.3999147410813251	39.9160213540317912
36.6359216975760660	41.0071056391861362	40.0682131196563560
34.8727107409562862	36.4835310243136064	39.5881937752263653
35.0981302061011107	37.7062014793696392	41.5189031601805354
32.3066853065544990	40.8313579585970103	38.2704596715704426
30.8272270076666821	41.5718129958073987	38.9506573148947552
33.1621680089471056	37.8051862824009035	38.8605835020783559
35.0147527421317122	39.7487750206145378	41.2740377998983234
33.7940810153750206	39.0217112112484017	42.5059549548535855
37.2853435601536418	37.2267681288640162	37.2697353369748043
32.8323713536384432	36.3635083098075143	39.8887957278131253
32.0068483772431875	42.6399739161831093	37.6726673054125882
34.7190075368032751	39.5387472365653423	36.5518139273866609
35.5526980060404156	41.5225098409156601	42.3515353252692748
35.6539695613906957	39.0894347837354488	0.0502389719584436
30.9923411736596677	41.2734052459697836	37.0621299534352815
35.3096630364908250	37.8610284274820472	36.9699512583372893
42.3322185117471363	39.7788514865352809	37.9500840462385156
41.9425950837414163	42.4502915124678211	42.0351741820566787
40.5747724609748772	40.5012100336701977	36.6230215816492759
36.9556789647313764	42.1574264419809595	40.1589313049712757
42.5368103918248508	39.8671020702499064	39.4898330042734784
39.4860215094906195	40.5200984058601392	37.9082608737580173
38.7249997819824259	42.3584207692949306	37.1993153639555558
37.5076216635331861	41.2559328135983421	36.8687074591805626
41.1516463226249627	0.2644565826412132	39.2822253402402808
39.4092284498525203	41.8078748856792899	39.6198276630917476
41.1153182243139952	41.5636028195850926	38.5871465604886339
37.7834818447988212	37.9638685989758642	36.4283283409559075
42.4541957513690988	37.6244462580442942	39.0011940730743163
38.1644160774787480	41.1513051901614375	38.8466854023422243
42.1341094465372876	36.7974374177380739	38.1092047123156092
38.4301255047155550	41.2042493872359117	37.6254282429807034
38.3466920978058283	36.3472999943324240	39.2818716849642016
40.5048147296392855	41.1749703399536955	37.5947487789230621
42.4830286285492562	42.1362123579314840	40.9816518440819308
42.2035993596426664	38.1523548294664110	36.2895793150044312
37.7876344345667405	35.8228277425799533	0.3786048163627793
40.4860243679970822	42.2714955248330497	39.4378449916940710
0.2242170599843991	37.2447841877980892	42.2332259315886986
42.8433465563037004	37.2771610038232595	40.0811887912350500
39.2505417693792040	40.7060203588444551	39.1303538074983237
39.7471810320420431	39.6879695454956547	36.8561891872452208
42.0589539640825052	40.7120581849212186	38.6941990704059862
