Li F
 1.0000000000000000
    43.0000000000000000    0.0000000000000000    0.0000000000000000
    0.0000000000000000    43.0000000000000000    0.0000000000000000
    0.0000000000000000    0.0000000000000000    43.0000000000000000
Li F
 5000 5000
Cartesian
27.1531719149679418	30.9858814823834621	17.5203842358918962
29.2766229163653549	22.0240741873217836	32.3419088958052612
25.4729603962591646	21.9261352625860013	33.3862853178978085
25.8054552421313304	31.6095741540129787	14.1639334004069557
25.6785570325340053	35.1007296088907950	12.8188234120508611
27.8742745206024978	33.6225938810347458	12.2451084208506433
29.6054384147419150	33.6879125965037076	11.2524828273289952
26.5068690108182743	33.4067020805201267	13.7326147721079614
28.6560197636911340	35.8881227366028668	14.7418289026228209
30.3663524159771612	36.2585730669829189	17.9444789540083143
30.5906345662729287	31.8651198203918824	14.6363839611125712
30.1640550792775777	36.7665132581669809	15.9528621051790900
36.0052227898119099	32.7922177542884654	15.3996505836985822
22.8891293857692872	35.6445816234947799	17.1806365781824653
29.1033370131906572	35.3932191237285849	16.2755966252679194
25.9356996912043982	35.4105690176865693	14.5959637685581658
30.5070178681919160	34.8179613219224819	15.4661705688345990
28.8279764212453102	32.7595392667027241	13.3701934226644195
28.6265934314942214	19.9689449455986292	34.9299000977854490
25.8295250582013978	24.0016631470569735	34.1296589375236934
25.6890282419994627	22.8455027424567483	35.4186067039453718
28.8358565696692324	22.1181872670656148	34.3549082019386987
28.8112304686437604	23.9043064646177541	33.4666445805903052
35.4220863179794065	35.3598652556676498	11.5979911962023028
19.3634661292717389	22.8535714012248228	33.2832146117503100
24.1590417326985474	18.4075542428304360	35.5843747750716801
24.1790470398407678	22.1516082979469964	34.3848129365115511
23.5669971431183036	19.4227116433449360	36.7917595242508497
24.2501725441241582	23.2493803030602280	36.7121650498586902
22.2843501423880319	20.1913013858975603	35.7777406213496718
22.0316510866828850	22.9675304130714117	36.9824254468864240
22.4759184223778874	18.6933151578787076	34.7222062708385479
35.6054398632852411	35.3343464884386478	13.9193213051850062
32.6920574286615846	34.3972515946368489	16.4259053656483545
28.7182367258696836	20.2158350900709856	33.2307807801319370
34.9687669545280215	34.5907728624651227	16.1488945366265249
34.8095687357369101	33.6800422976321059	14.8738783257529850
34.3608261206126926	35.9244277116906829	16.7546072408831037
32.6091680157846042	31.4427021269236349	14.6830560062535564
31.3511481826555887	35.0818111746737671	17.0160598750968504
36.3440104635059029	35.4810569811958914	17.7547734189278010
35.1182111289074683	31.3638019265197485	17.8370273805271466
32.5306598385148007	33.7842374507467866	18.5729602381815475
31.2978658228766449	31.2951177984119759	16.4560179227961108
35.1239653242093439	30.5191559778515646	15.8735367718219660
16.5994432599469626	31.2767922436965868	16.2435060103319344
16.1888413097359560	30.5823445987450810	14.2597123902249230
17.6472631580381822	32.0339612526163364	15.3043704556971090
13.9207660880354140	35.7871886172481339	13.8654203268917833
18.4646577323927730	34.6945550536061873	15.8589310713244718
12.9015954400535886	34.7021643009579819	14.9542958483580222
13.5596532439136492	36.9355551386980352	15.6912632173894853
14.0483448769748591	35.5563563228193118	16.1375512575807463
13.5760401684959398	33.5148536908889483	16.3133758247883129
16.5478108755136013	35.9154930161192354	13.5780940171934983
12.7273404614892414	31.7323293123975070	18.0277567929695941
11.9204066228418277	34.5586179908630768	16.2214207393472449
34.9594953571655012	19.8107319816008207	31.7146776240156889
15.0375817566581009	33.5749661432844277	16.9955458967310982
34.0870210252962025	19.8775233218256169	36.6521400535237305
34.9610290985176917	22.4586109816787385	34.9538255389187356
33.1097872742151011	19.8936487704620077	32.9633454858035435
33.5842413562880253	21.4685186303103741	32.5162258138777460
32.1772584084820181	20.3595337155410085	34.1593053409581628
33.7780461186262073	23.4214242584665477	31.1571958686900174
12.3365860428938063	33.9643445152170500	12.3958951331670040
9.8994619458128792	31.3204262217178986	17.0697995283968851
6.9891277620015524	33.1438364285440841	14.6527473781585691
21.6626046430200034	32.2153587618179316	14.8923395226392632
26.5667321867878243	20.3759222331111118	32.5249937301633665
27.4553099129587537	18.9822076925699932	34.3267807219229297
28.6117214250087528	20.5580922592531792	30.9558274771902973
25.7707762220696495	23.5688806088284153	31.9097110600633620
25.4439016911401730	21.7195660077928245	31.4351360952360146
20.6398268706025299	33.4610012964792958	13.6188232008702350
20.0360949522185336	34.8872246599459146	15.3472088319127629
22.2256755879750578	33.8551492870987119	13.2368329737770747
19.5662956322215571	32.8510103108066218	15.2100537726823006
23.6784731288798476	35.1831127141764810	15.5770676264505372
38.9328596236010327	35.4083478321900813	14.9224186571545197
22.7862877499092633	33.1988396837931106	16.4987943919656921
24.3480794334071682	32.9500796360282067	13.5546290979524748
23.2856153408661761	30.8209159360079283	12.3434773065907137
21.9652501104094071	34.1039357583101079	18.3717593019911547
19.9525227164558743	36.5829999773623911	15.4292652252229203
21.7877132672361853	35.3551537891522898	14.6040783696171861
24.0089496392394537	35.6900356669241958	14.0148943015916743
22.0756962107575738	30.2935923196721788	13.8964826718718566
24.5387411841737340	36.6162292755172203	15.7007057003025459
22.6081274512001613	31.2166983037728478	16.4943772069703556
6.8430621693570446	42.0011100388598280	18.1921546695214857
11.5569548663991277	19.6316906879047366	32.8845437009727277
16.2583013827456888	22.0710296054633837	31.4130125405576059
17.5309219518378150	20.3973376414579555	35.4943036247922095
13.0677542332646563	22.2129924044799338	31.6034671410672168
16.4060022076792329	21.6916199571983199	36.2658462658665783
14.5926863730442022	22.9059435850649926	36.5719704330369240
16.2112905082463570	20.1597410805444035	34.3229359511561114
16.5884921972811021	20.4922333595613253	32.0847603001896076
13.3612501659136420	20.3508472770063236	34.1126853101494589
16.6350841008312820	18.3321883509487904	31.9122599554459683
5.8201295951809104	37.7390719391871485	13.3690460633758939
15.5487240736552081	38.0771923557957805	15.4794770534895534
7.7824532002167626	40.0481188306951239	17.8928939858551246
11.2163197724019330	38.9863718893097442	17.2594498806482832
10.5560375167998739	36.8724805896183980	13.0087307332088695
8.3728905386901200	41.8241909635142619	18.8543949184016135
11.4724495230363406	40.6728821188531953	16.5279377043481652
11.2307091537485988	38.5287314580236426	13.2973369499208403
10.7288902829677006	38.9600544102294322	15.3655728891660388
9.2117273146214735	40.0599468570703721	14.4361469211914315
12.4352285031362300	38.9554187331204957	15.3409969840079903
9.4344839390780049	37.3364306455686332	15.5742753921935684
13.5287742735195557	24.2780620633851463	34.5066197400980172
23.8681722976380755	41.0598120944131040	13.1564749892219055
23.7648730545967730	38.1775453176862527	11.4103552686956853
19.0148586326317570	38.4579816224176554	15.8977364304443185
14.3669772520676702	20.5511606598154479	31.4758913924276662
15.5077907255156475	21.5387974040870489	32.7682254010534990
19.4242650757286306	21.4044019157449661	34.5339278916835752
19.4054135610291389	20.9221760806545944	32.6658960428114469
13.6303902859851931	23.3119991410840868	33.1955590002412322
15.1492999939534645	21.0648087421369361	35.4406381449239660
12.0363098757942488	23.6516004581887316	34.9074468536148075
9.0280003123015895	35.9183429851291862	14.0780769481261618
14.3946921152871887	23.8836177155714395	31.0106501676095192
14.5402652394426095	39.1982657914287103	14.5816861052941213
14.8050959779519715	39.3566939205951272	16.9150298346399026
14.9296521509707212	40.4238423838081147	15.6531541314106839
15.2242255111211424	41.6927652378231457	12.2106515881148869
18.1399501616053378	39.9024599897730425	16.8217641318269280
17.1144885454327529	38.1466748478131876	17.0112898898229972
15.5144382003766896	41.4194610524366311	13.8809628050414915
13.6464903231149943	40.7921088303081660	14.2903669445871202
14.8586128878673343	40.6174424447463593	18.0177687622749048
41.0716811680145995	33.8281403026161200	17.5860055361787921
4.4319425780192310	39.3595191364811541	11.9492183293536236
2.9479307858803683	38.3942835506713891	13.5661093439484493
2.0582811114496669	41.6841567086331253	13.8404889210157478
5.1847599254860190	37.8328776402377258	15.3500037331013335
19.0090317919059935	23.0777374677605849	31.7012576051445407
25.0710078892480475	19.8532936894453762	31.4226161320995736
23.3023990977565703	18.8124884767873048	32.6856086825314307
21.2077933429795067	20.6610165608272283	33.9201434687242696
20.4189097840031692	20.5807922904209590	36.9250383327486844
42.5536775877258151	35.2465117810963307	17.0525515402224848
0.0271360504504570	33.4529222522927796	18.0850012910154234
2.2695654788779431	39.9661887126260638	14.9102463052486964
40.4462087511770534	35.6563035245585240	16.6189293657426482
37.3188862546940570	31.9221540330804068	18.2671188751841989
37.9831803412838767	31.8278695036710388	16.3022224489455496
36.8917337735239883	31.0955076642296184	15.2691776157177923
42.5743502618010936	33.5594992949231923	13.5603356374549424
42.4414703183827271	31.4520473559350755	14.4793678579176550
39.5454001196439648	35.4693220605300823	13.0718393217562063
40.8484828785834466	32.9942964868111019	18.9596024998765635
1.0237588640242090	30.7999811633598810	16.9242958945752200
38.7710384104953718	36.7152462020322332	15.9373884400306345
3.2242617024438660	41.5658297723027985	15.5137510918581718
8.7453822342410454	38.9914325456099178	16.0376081389493130
12.9146487722012573	36.7125095125018390	12.7028402377087293
8.6596069444888339	38.9382721899648843	12.7000819693788802
9.9795894949717621	40.8230523046147766	17.4415535954729108
12.4234677972218730	39.6417493548614885	13.7743861906973741
7.3080354717270728	37.7134246727584781	14.9725699805313326
7.8542618824420716	40.7692952386536405	14.0197796602149705
11.5440989715283244	40.6508137773075049	18.4139989580854468
11.6306930113609397	37.5573698395262596	16.2460353641798889
3.1666302363354499	0.7227000321545817	16.2425428791929356
7.5746629643575343	34.6362857789407528	13.0896253713054840
5.5987513465315555	40.7981240011676007	14.4704862811229820
0.6002214377779153	41.5640255002501817	14.4483933262932212
5.7102171561903798	41.5419212977873684	16.2731304114538524
2.4654203630933553	42.4692695792238695	17.3957674477845821
4.4887226786595678	35.9228375261461679	12.2967737771156322
5.6370213508816676	37.7248847082892880	11.6425019823007503
1.6772267854615504	37.6272338937386834	14.4322447651715962
4.2970160931803036	39.9570142365378942	15.7812166426366058
3.2582716006838415	38.4792783705632289	15.5495904699300187
0.6608926382429660	0.2379729586206917	12.9019905290612105
17.3653411011339180	26.4899614600241158	16.5198813098464576
19.8336618398673181	26.8295727212382360	14.2148048510875000
23.7305638418210485	25.7810065641544242	13.7556479602421824
22.4364549820339434	24.8352743190939336	14.8699075864113919
18.9312415385102248	26.3404177694406485	15.9047706734464604
23.3739588858956644	28.9883709235058724	13.1587356758043601
21.7823475311492345	29.4664724976701358	15.8836987696043703
19.0045584910419869	31.8899441833629460	13.5987053096629946
21.5160648150033360	26.0949648735350621	14.4670056259853315
17.7992951113339437	27.9388327091655633	14.8491205767268006
17.1626473201930239	29.8091158625124351	17.7308129421045138
15.3883718593773899	25.5122501215172512	16.1872896979664773
21.5102761039502397	28.2259202582154600	14.8330495065564882
13.2509924729507826	28.2962300587086482	17.0474567398486769
12.3347966849963395	30.1197153153743749	16.7192479059208132
16.7085404248346769	29.4872463463937571	12.3931565239290808
18.3210498888724231	29.6870745731738097	13.3879981453653460
15.3461430267707701	23.6587225972182758	32.9680225624782111
18.1252438640176017	27.1502091409859965	35.8533560720449529
16.9309996102159843	29.1150876702843924	35.9152979241776080
17.3719043034866907	30.2719008122163729	34.8408775563953768
17.7266882149983118	26.1380447143617261	34.5792858799198441
19.0199367983517718	25.9372112199918980	36.5160985097087760
9.1284669056448227	26.1643228876936291	35.8872116178512570
25.5962036263032999	28.9559170714943832	13.7064295996392431
27.9260402868816300	29.5347274522017287	16.5083361400631361
27.1111142079481731	27.8248288086311106	12.5070842627645753
23.8131164274721669	27.4556696747004132	12.1206761345994387
26.7889542190520800	28.5713751064920807	17.1876907395637488
26.6143070510286286	30.4296509244490068	15.9993976256652672
7.0718132719048974	30.9014812259888281	33.6013876234266604
10.1710160935546980	26.3337886425676686	32.6094837268989153
6.6461186115722990	26.7185122237745567	36.0126343930346735
12.2894586124616154	30.5780222980589365	30.6771451396747139
16.6433584740627580	25.2826219949886308	33.6576494674395548
10.7635322583604420	30.0228235230384364	33.5470860123686805
6.8811616170313021	26.1556642621914968	32.4364981249120490
10.0283140494623400	27.9850195403164861	32.7521707030512275
9.1358681789036353	29.9971572484904172	33.4092934343858943
8.8560670630909257	26.0878288828655975	31.6790262018735369
6.7166619546825626	24.9167553839001172	31.3676037253136570
6.0518698684718641	27.3902021592039837	34.0466280585031029
20.6751838170946485	27.3621824991121088	16.0152750457562121
19.3474753982133194	29.9649667763021803	18.6168402045705150
21.1852497315757660	23.7815085090515232	19.6002197632440911
5.3920072119333824	27.9617963230919138	11.3701496076796271
7.8422854146008261	28.0977706516776351	16.4261428162139325
7.6195663163266953	29.8760153741591736	13.4523031590964237
8.7992337534165443	29.0228152957439924	14.9614063560579496
8.8866455894461325	26.2049604518589092	13.8779933061155898
10.4187342921543724	26.1539158421400977	13.2452399052648531
12.0906973780544309	30.4040650551834872	35.9773250641911773
16.1416007519511346	24.9009372212324962	31.6734918134788508
12.3244619403512630	30.4361274269482536	32.4922211470260294
16.5709013376167462	28.9025882159314662	32.2165229174883834
16.3547955039878978	27.2477307065964105	34.9481272583246252
0.0006069047211964	24.4887964818180954	15.1031485058185027
7.7314507643461292	29.6648549918487099	17.8758392783411146
3.8048752480732313	26.5682738533852465	15.5638690747387063
2.9500204518995141	30.3830153824264926	13.1954111714196092
5.9434268664646490	28.3285496644911063	13.3497402549472870
2.9577539628623097	24.8202227544201683	12.5708966600497138
4.1875568215903032	25.4460196279365043	16.6926160968511574
0.1289155706597143	24.6014387838080246	11.8229246779046075
4.1184632423624539	27.3109152737364127	17.7496159244603362
4.3518015841355142	29.4607559372206289	14.0777832700672558
0.2965122810974105	30.1213686669461644	15.6074802260696028
42.4641621207923379	28.4415864490304315	16.1303553357793952
6.7070140715899065	27.0437992483459162	15.1309501754536733
13.7151431398536214	25.8979408802690720	31.3752627885939468
15.6826237212819493	26.8718728191112959	31.8412775490975832
14.6017857744693664	28.0066771503351717	31.6159722608570313
11.8653018904539440	28.7469386678234393	14.9953603945881877
11.1861101081521603	30.4134766986674414	18.2726375465128541
6.8256033022017686	25.0695176508521413	14.3116159004078760
10.4646307172230912	28.1582005711744827	13.7600236710254418
9.3977523931218254	27.1044872669911143	15.1217508247171111
11.3185841614393485	25.1113533387778389	15.5790123169442740
12.4758726015236405	27.7055544250573860	13.0941625348681736
27.0711853379893945	25.7885529120598314	12.9282553455032456
10.4266951615294534	24.5571331365528778	13.7830815863745126
12.2208405011059043	26.1005277175253525	14.1726411273084629
7.7860590869740083	28.0694642084397792	18.6786229196906710
9.0981366788596318	24.8240790628414523	15.1243455031235481
10.8826174276241243	27.6208388526481983	11.9277743965589771
10.1439430560756154	30.2066887791782577	14.6670827179722298
13.1995083498487933	26.2833626611761240	15.9375939680462082
7.7523432458538784	28.1285498565460337	13.7830321905600233
7.5250642829475920	25.0902136198553940	15.7943872125291058
6.5133875033502306	28.7605938776355181	14.8954262481089525
42.3243286438034971	26.1709273507907767	36.9098811182043178
0.4127254963038019	33.7688207259060249	11.4925008859187265
0.3611253672599648	35.9108722473218265	14.8532093867616677
1.3122262888620901	33.9244562755539221	14.4274172646012868
5.0128007975003586	35.7526810609471468	16.1882430595700129
5.9368427149352856	35.0898281254617359	18.0531626758521959
2.8074142982687404	33.9855931387241412	15.0787411125771822
1.5060988656176839	31.1815971821259623	14.5983504388012157
1.1154836191337330	31.2090988793658433	12.9923903254612494
4.8483776837264276	33.2807344854125091	14.7315388694964042
3.7764235215886783	34.4464123605283916	13.5503933981425870
4.8559480299953082	31.4780501578580569	13.4512731819114943
3.3346001846829902	32.7707362803419429	13.6267192364123861
6.4071663290281275	28.7666162345515701	30.4600055610790506
42.4802920558282793	27.2099813099343280	31.3272156883581303
2.0517454450693542	25.1878767348392039	32.7965431792374957
0.8332150394986366	28.8913708069069592	34.2861571575436983
5.7823700982824926	29.4001038669078767	33.9773086254634507
5.3569577534767614	27.5280319799783939	32.1328912809959917
4.5387088999174718	29.7516194298019663	36.1675783819040504
3.6996736856837198	26.5810388742566737	33.3438496770917112
2.2727427766335837	27.1340588507594767	34.0718738079317376
0.3811513814915826	26.3341108703549338	32.3393334523923883
40.5509266815939426	23.2934942703586643	32.3226997080785878
6.6282185198545571	32.6308641685408531	11.2083159956514589
8.8153711859246151	31.9153897092480179	15.4990443652871299
8.6901778040805890	35.7266124269809069	12.5048197709721656
6.2048372332531168	34.1269387953380416	16.1912384516051162
10.0036949374241573	33.3815423820622286	16.4489944472711116
8.6992538399047330	32.0341290433446417	11.6659965650009667
42.1406885524138417	23.7966716162414400	33.4851076728783283
38.2293037145143231	20.5640357650737151	34.2198199975383162
38.7496729559016373	18.4457841141344900	32.6205741634112414
37.7045225300849083	18.8097890656867364	34.9655898339065345
41.5682590569849140	25.8573848609830677	14.4998339063935529
37.6509361890906860	22.4888199055855296	33.2115469363781912
40.1232773878747224	19.7427163486639401	35.1703418669428629
41.0279595786976614	19.1043986509012207	36.3698380784810240
37.9141807688548553	18.2523137401232844	31.0642229187688876
41.6000086793169359	22.1425120335620740	31.7456054444311064
38.8215449803801604	22.9728197881984357	35.9790468946941289
39.6947552367448822	18.7991408243665035	30.5027450268898193
36.6542332895618372	20.9419702624541344	34.4772886241202130
0.8487520936446608	34.6714814241478564	16.2543428847382430
6.3108192506577137	31.0526110007529432	11.9051145456075798
33.1287527037956053	25.6569271869789937	15.1032257692312921
4.2951014458337751	26.6514982149407338	34.9779860526070649
3.2630143297854852	24.4662406335153335	31.0768120480022141
36.6150552637510458	28.6713016946362238	16.3270142297516259
34.7647329363320807	28.5825001019840386	15.5930095082487874
34.8391763328784947	26.2140737111394628	16.4278966169710721
34.0810562598595297	29.5940537036400002	16.7137607054489692
32.8764556015362004	29.6935314858130184	12.5567269102015828
30.2591731578206868	25.3959695584475895	13.5140009447153897
34.2673277019672753	26.5101303904494969	14.2244166330056707
34.9237516404587751	31.6571661392830599	14.2926125752238988
32.0218563182278189	25.6955199689216478	17.1132970819235410
4.6454828824203691	28.0427018085597517	30.4530280797767681
36.0319908900574362	27.1858514360521291	15.0574065679160629
34.0002835544837296	30.0817650801929695	14.3101289115894073
36.6184297304331849	24.6640679389383344	17.2845618041175833
24.8964811882332242	31.0322205470529475	16.8191806298994706
31.7667049849040879	30.2427897404944517	11.5478263473574447
30.0919440081859406	25.7240266372304198	16.6984080757127664
28.4530875210123746	24.3209823449206226	12.5719602546337565
30.4050772611450952	28.9584322634182136	18.1702474980790889
26.5632868264592190	26.7077789344176502	18.3032041691132719
29.8505482057299076	27.5925232318096363	16.3841900293461720
41.8383909785353509	30.0808312282405623	16.4319839724787862
40.9564510299355931	29.2567873510429770	12.6227886293410307
39.0840990947922577	30.0221742896155916	18.1697094047772865
38.4026006809607949	28.2206730033222826	17.2655121198158845
38.2233786409164509	29.1547367237101867	12.7342296950340135
37.9139955280933307	30.1707890115042972	16.6314051764423319
36.8345975046432343	30.3692738311650885	17.6839421234010032
37.4513487936985214	25.5743792892514037	18.3962508109495424
38.7499558522055167	30.3336996551912996	14.6527440113653942
42.2691631065960678	29.5661949691195787	14.4682041709942748
39.5953815535788749	25.1746556164062341	18.0880053437377661
24.1875698850859138	39.9375260551576972	16.0490277655410551
36.7350932301669530	26.7688025525801692	16.9913360667039015
40.4965160351248414	25.9830167302972868	13.2724972269299890
37.9056426177178736	25.4817332020452483	16.0843911163683622
41.2105711802055481	27.9090934516679781	13.5059316549336756
40.5356708293414556	28.7136857786971369	17.3341529669302261
5.2103894564255651	26.0111135391671269	32.9019365693659367
5.5227497365917664	26.6673318639220547	29.3539281617707282
0.5398659672709041	25.0602653942067946	31.3296314317728530
4.2625617673611496	28.2057426470813830	34.8905078560916664
0.4380057729402222	27.2314862480837263	35.1213036360552096
29.4054143017030789	18.1576800426794200	34.3930840094966968
7.5531342950379834	7.7676241042333043	24.5915178518120356
7.1194894543973222	6.4116027572437364	21.0830663112560259
11.3043413718598540	7.3084301740211570	21.5403632190437406
7.4377739270398520	6.7297141581301441	22.8231182491414799
27.6641647232165617	15.5117074938975961	33.4347942927369530
29.5655784400386707	14.7875546464381564	33.7328625976067400
27.0466536288256698	15.7197056873500536	35.6945636519098386
27.6543527557905193	17.1320030739732445	34.8644211387018146
28.3667071235972550	13.0362321366220542	34.7807535701698427
29.1852623651576586	16.8978178764323559	36.2579870117164802
25.7170982524632343	17.8230808319602083	30.3984741620633443
11.0123409668577779	10.6659740543221968	23.0361920574301955
26.3278144784857062	18.7848969028474997	32.7901656668660522
25.6874129720986168	17.7112556309870044	34.0808253594114916
28.4039419535301718	13.2312506356335273	31.0827113813734286
28.0597572753246851	15.0914298042198265	31.8605684607151716
24.8923842722004167	16.4876444831272835	35.4270085909159178
31.9468786652500540	13.5932149815292256	30.3869464608153201
42.9369284326557619	12.0406271512352099	22.4947425350365720
6.0721888779159690	7.6188056038754324	22.3751710783900997
4.9271730016627684	8.3681819913054944	19.4342989363962673
4.5094644351785149	8.3969394284566921	21.4994931030830863
11.7907942035086677	8.7272906796364893	25.0761080812624577
13.8699346706003634	8.1185487339336255	20.3983941446555939
17.8787576159400246	5.6455241525798447	21.4883017293975342
18.9153445876181401	11.8328814024437250	19.2690718643227932
15.7075298650204420	8.6686563989364185	20.7309489221131855
11.3450827209216740	10.8114143393565350	20.9939011903265254
13.8178612965571688	6.7224326027777153	17.5322561089290581
16.9580018881681056	5.5520882693168794	18.0106916114280189
14.8826666008615121	6.8561670496485378	21.3382429461940184
12.4868973938658208	11.3136391537092891	23.0979016650757671
15.3213233400197666	11.9497756471510144	19.4560354446668988
3.1282496947176903	11.4970691882659466	22.7278627033652079
11.8604232656832398	11.2093443637354451	18.8531565003654116
15.8775137187532103	11.2075081556799869	21.4123038492343944
18.9957660990817310	14.1095128664818468	33.5361002398110983
18.9373394695690749	14.6412614501639080	35.1205203370514596
8.0965467955150867	8.0913082943952226	21.0771494077639581
6.5635043722751298	7.0227227830143253	19.1719784515807774
11.3611667141993333	7.1792878691143027	23.7602226880370040
6.3361497242960088	10.9933886211123770	24.6513810975938128
10.1303330723014540	8.8142169745962224	20.6581752539490395
9.6346970945888124	9.7570922822708717	21.8395716381793221
32.8693026905611063	1.1520305259109926	24.7266290833149540
33.0560027637427112	1.8589781504081229	19.3170118286514132
32.7542484381620795	3.6785550824211342	22.5031100162033013
31.0695495070130931	2.4120266975334568	24.3457938959273008
36.2140428462401189	2.3294697637516992	21.4835787296696985
35.9753660358085128	3.9494448019308215	21.2596068216979965
33.7098336500972167	4.8395701719650281	20.8451726649056432
34.6991349587327349	5.9539207567522041	20.2111094168067922
33.4273045598067213	41.9072349975639682	20.2073992069692245
33.5180307813024072	2.7333907156523618	21.2894323200319846
30.3589874143030301	2.2577999694386501	18.5951424000689940
33.2932170407121433	4.4477342713237586	24.3669809071324011
32.8341791278660082	0.3232257512507507	22.5066915950961324
33.5157831910907831	1.8780917900877907	23.4511974746765723
33.8406599809575539	0.7004128853364875	20.7583981765617978
37.0231505371230725	3.7155101716339178	23.1734010306436282
36.7158284976755951	13.0046248499184571	34.5716133079224619
30.8132059086854717	16.7320319309524592	33.9276498456748072
35.4136136564755049	12.9856121435884031	36.2509995774468194
36.3676852234136376	18.2795218190868205	32.7686292349123178
33.1105716023369041	14.2728571620731586	32.4345564231541346
35.9600053628969789	15.0655650482694501	33.6852416889829982
35.5551864737050209	13.2006002580249771	30.4148460272848347
28.6468216127957653	13.5240716990533265	33.1952660351377844
1.7598173186028689	10.2758259506812113	23.9319491226851930
0.5690851566340417	8.6032343017994588	21.1944078049360343
1.2949787171659743	10.2596775277747412	22.2371745119015323
3.6461817456904808	5.3802785244505058	23.8720194493490681
4.4024883101814583	7.3839235120654827	23.4441126867032246
0.9230432107300135	7.9744378361880628	22.6456476891155418
29.0409951651313456	15.9950335876875265	34.9077345971592763
25.4934001551260572	13.8240960138880116	32.4824556445573052
30.3842465173028238	12.7045157340139010	36.1836440218064439
28.4855959072056564	13.0671776900416265	36.8267336907170701
15.3609899812663748	7.7834916433612680	22.6867077270646043
30.0746802347623117	14.6246587299525288	36.4725838313265172
42.0328663885567266	1.7116837301320509	18.9685456958012537
42.1881185967744514	3.3042940646829471	19.1390224953649870
39.1420404490256857	4.1987242719473254	18.2856334457619276
38.0655047791214542	4.4366727409677420	24.1980937077471978
37.7400533004446572	1.1406749879345706	20.3874937884357728
37.8004841075599174	5.0651725210167546	21.8709303697386304
42.6840246559370513	4.5011647414051597	20.6363992366723004
37.9544364198778794	4.8146377562818046	20.2533760361684969
34.8705872204076357	17.0403643657597463	34.2507494143411577
16.8504881279489318	18.5971900578010327	35.6560410051494543
34.2993116226503147	10.1643210019993724	18.1457247691963346
35.9954813910536870	11.3210100052931875	22.5055201882358560
36.1926890785298170	9.5594816240967280	23.2224694540588423
32.9530301186050423	6.5205137728438629	19.2144952313773949
31.5376188255833547	10.4905797745685092	20.4736009341770178
31.5004291826635487	7.4530835193279836	19.0073787721899521
32.8227612188976963	8.9854301522964928	19.6108953749645494
32.6222447696094591	8.2537658182703897	23.5988901329850798
12.6832927456094904	16.0922504989093760	32.1571021584360537
14.9527925657634810	13.8723198063932323	30.7088170085281646
16.4871234932027022	15.4905708193895819	37.3244142989686623
32.5743431435096511	9.3636716711490156	21.6569223156588713
16.8487813758483860	14.9177228657260041	35.3761656339413335
18.2137153206385811	13.0760367336686354	35.0051987690226625
13.5352117848326685	14.6407466165246891	32.0050887465494469
14.0664986627495452	16.8050838995240355	33.9002186507970364
23.8552577435973561	8.4537242776264225	20.1511430237325868
26.3818970569058244	7.0070181073528905	18.3076739876125210
30.2379626836110909	10.8941064386461672	22.3470170936018313
28.2687626443200060	9.5247299195967869	19.7693467720734048
27.7271891854044199	9.5565309293347589	23.2089221068592693
29.4677175428039106	10.5341746343659839	18.1100347876448247
6.4813152249512562	17.8974781607512092	31.7130147826387123
39.7220544365552612	8.5371077668736746	19.5007596840554136
41.8244741174591752	11.6511324679087860	20.5513630077981340
38.2070814461597905	9.6035637349438385	23.7890048857413525
40.6272986046435065	11.2160693607384854	22.2358467047501165
41.3476416425377877	7.2738135546692915	22.4110007645818641
11.1480271112492950	14.4259804246803043	31.3436280010575246
5.8836975193686989	19.6289784051755092	35.4286764775196445
12.0389796121906443	14.4925859879781243	33.6546245671160662
8.4577662778659288	17.3570763651805642	32.8760970442291196
7.1161623919097989	17.9873101296488578	34.7626257540952537
28.0797836745751574	8.0744511990876564	23.3093754574459986
11.5190097599804560	11.3576621316520523	32.0774287572311820
11.0074252537454953	12.8671667416823059	35.0123573997765050
6.5401860527849660	13.4176576184607743	33.3004776060287924
6.9621006247632886	13.4972353814047779	31.2231519704348166
10.8935478172897167	16.2890317521128871	30.5716072574150886
35.8244336692222021	11.8121683113619156	24.6110810790289491
35.8349403573098542	9.4949009011271599	21.6379318478772547
34.2990915139148811	10.2288369742176659	22.2875141786113424
35.5949088544454071	7.7819577483938627	20.0303494934616175
32.1848273999705228	11.0985215285277778	22.1681984389886182
21.5904543965377016	12.0587772585855646	35.4610708928704099
24.0589798967992294	9.6149276193662132	23.0045649270986274
22.9916429780660856	10.4410853856363097	21.0580613381622541
23.8683476148615590	10.1975560790063433	19.3091120517002715
24.4177481388280384	11.1616423736956243	22.8100736769174510
20.7615938610809785	10.9183988322369796	24.7307306854845379
20.0252419396919308	10.4229410252702959	20.2448755050552762
22.1824283972597485	10.9871637147137520	19.2879090098673416
19.7100844129469408	11.2536895214219914	22.0874306597242480
20.8983655693720607	5.5780069953019460	21.4649662918614830
21.3164174449314530	10.9722662070158758	21.7868052749636227
17.7960220831152540	16.0057886096109954	33.7899217730432255
23.0117504358549496	6.7344181827902521	19.3088107863770659
22.5401502753957281	13.0316194722735741	30.7549728732588292
23.5378274767190767	13.5451772375991588	32.4955034803363887
22.7123793097194024	13.2531837715915959	34.3209815961780151
22.4041143560090994	17.5774332586538549	31.4131734711731809
21.4987294766327537	17.1455367824909501	34.1513989862960372
24.3214331234134100	14.5657514639820658	34.1808141271634796
14.7814821018595790	10.1811509407772007	20.8082783550389792
17.2110695960449505	7.6625894596498165	20.7469311992118293
14.1236139594170904	7.2935991918706300	23.6707095019659093
17.6238745368040348	12.3357628207141694	22.1247656249320102
25.5690952047475442	9.0837132700277436	22.6650359754370960
25.3945126679490940	8.7014569374462702	18.9631899381434543
29.6256131357505055	8.2890896300840655	22.5528378629897901
29.8517314471352684	7.8658344600138657	20.5434520126507678
29.7015495404071430	7.6444768310961955	24.1908615487166685
23.9513973454425653	7.4017903095455573	23.0398430805598657
25.3491698115293644	6.7772755266967781	19.9205712474679295
26.0653739918479026	11.7677106597807732	20.5880971121150189
26.8121010125619250	10.1544941584033559	21.5633347803653308
30.7820870397847521	9.5542290301468444	23.9949557748256019
28.3390313695847169	8.9965613165362779	21.2939153898302109
31.7031133573972248	18.1710003561258624	33.7610461905861357
15.7371988318177376	16.5106531146930848	35.5524718774322110
20.3600817118857407	12.8984176552365728	34.7481521410116656
19.4365005639048505	16.2982798562561300	33.7719692637264828
18.8800471691339915	19.2648143683669950	36.2493100356079267
24.6083258626544890	10.3993576844760245	21.1645507604620882
21.0574978868039615	9.3713934517086876	21.6425194043098266
24.4874327474371896	13.1101594333157401	23.8216461462927711
23.4461677945063158	10.5683708926619087	24.9993702140890761
21.8379873673760230	7.6156767009499164	20.6001837240399510
21.0596396355966533	7.0797718686772972	21.9398345458041746
40.0770116563388328	42.0633300353643165	16.3930239492071017
4.6115600377314099	20.9934369529875724	33.6870813661686128
3.6397032318371934	19.6786857101757668	36.4174792989236593
38.8085386248474009	37.2552841124367831	13.8656842049593774
0.5635312722317976	41.9017298891394248	16.4198364537010271
42.6102649364924986	37.7785856403293323	14.6385232646234140
41.7823526878594365	42.1202852582805036	15.2405254210303767
40.9218651445227835	42.7379062265169054	18.4248374169637792
38.5019444537273188	38.7925235090522875	15.4641978374680242
41.4125474649365088	37.5512351774620470	16.4211946565693978
39.5622367583252270	40.1975671205032228	16.8463442912392480
37.5493591844459687	37.4546418882187382	14.9065543541619157
2.1308964042126988	23.2913828587724403	31.4957362857354255
1.1994799582959026	19.1573760424964341	31.7943545158508059
32.2880788674566688	39.5628952339085416	17.6932536420494166
36.4144784668339483	39.6847992011497439	17.5504086115523350
33.7765988562862418	41.2208671262514201	17.0661479173222048
38.0753348999256858	40.7296524294760900	16.6247209334252730
34.2800051262801446	42.3922841205690233	15.3559380150721374
35.7850354104753237	41.7179590475710711	18.2797321215713957
32.0026995700164534	37.7400140755119722	14.9544556791198318
35.3247887871868187	37.5134834839570743	15.4404201636641485
35.6267963850557194	38.3378076369637029	18.1307972640831387
1.6180282691453249	4.8324280474082384	23.9886421073149485
38.5750415770848321	16.8476659769985062	34.9662171691797141
38.5332905597404221	16.4883920162013133	29.9722673565600211
39.4476797017844518	15.5353036430573930	35.3045469016997515
0.1077342188202971	6.3453797633160907	23.3536907733502055
2.6268914274498671	1.4611846666889077	20.6245915607330623
1.1307828546047529	4.8956735542469989	21.1849120008059693
6.2030739823134757	6.5445328134069500	24.5334327641743037
3.5702274312442976	2.0156941331019569	25.8218877288633237
4.3241102809127741	1.9281474694053227	22.3487873691527277
0.8854881936988440	2.7789084657599274	20.1927993375242707
33.5105456389453309	38.3998890054739306	13.2822541902589357
2.8199009986765886	3.4159302493009660	20.0268177064071580
3.8035899706607283	3.9245484835241897	21.7785909249241492
4.0110700574178955	19.3693236108845142	34.8233682463305954
1.6901844989146220	20.9241605826655288	31.5921717180238169
2.5850627098635126	23.1391114993286102	35.8187779178255994
1.9132935535218785	19.4965774537687189	35.1171101484404389
0.7285806827994054	23.9625578565321256	34.8891330516051070
6.4321433316853600	23.0689477202969400	30.4388546020195712
2.9638319462052958	19.7482355598576085	33.1023944203319900
4.7651974746867651	22.2892435008629164	36.2113324848218170
8.7395081364863820	22.7033302548598392	31.1935506840320116
29.1378114937793420	38.2747884054991516	17.5197600852893558
25.8746930806795312	40.5777989774462711	12.7010332635100625
25.2791285179936516	38.7377958775405347	18.5552544000736326
27.4628035207573724	41.7944061539540996	12.8499576601042822
25.3910807558705862	40.6702500078279954	14.6606394155908717
25.0250465731775975	38.6403662092187048	14.5258405434927411
30.5573110765153011	38.9447635089582178	18.3516834235527320
25.9477356898711058	37.3640107294223682	14.3085297112971812
27.0484251614582831	38.7531884829680635	17.0611858570078674
25.7143294082638647	38.5781616550786879	12.3200197296653666
26.0090645632101136	42.0722323358641432	17.0776212888121073
28.2351868116970337	36.8634917466028824	16.6262882181550680
6.8780875024158865	21.3727245058932205	30.8367092478299476
6.2367368352436729	18.7482292678527678	33.4096257730037252
7.5194689693516690	20.6280771084156953	33.0194340060102576
9.7677599910143620	18.8569629000609993	31.7660639452219868
19.3058229728885458	0.0834427742299830	11.3090116849264106
19.0702159725494376	41.6942949467625255	15.6961593770298737
20.8460193851045581	39.3071344775169607	17.0866485628340676
18.4175115527980111	36.5989477573373776	14.8006222453321588
18.0648241517545038	41.4544173309502781	17.4794535305161425
22.3934001645281668	41.1647642426089533	15.7547803832716085
8.0062358403994196	22.7743203106798333	37.3381031697438317
30.7853853193127662	38.5961622816945749	16.1902788813418930
35.9221072416439924	39.4728040497061130	13.0750251495340990
32.7941337453783177	41.0212194249125801	15.1896366894122075
37.0861296411732795	37.8082658941317220	16.5503603766535932
32.6891617323312076	36.3280516604266523	17.7992382011197279
34.3979885010029847	40.2124490652252291	18.1237447431037282
36.4657748017668553	0.1636565712092226	13.4715873300657396
31.7382502870555996	41.0509406242012389	13.1165272476559096
8.0857286706001581	18.6650282000544863	33.0778530043522210
10.9521038619202731	22.9315995564843007	31.9003340684661545
38.2714966282454725	17.0787647353218297	32.1461315591876016
8.9298590488322152	22.3385104961262755	33.2333010544239542
10.9602685527124848	22.5330729927353453	36.4734799651237651
11.7118218406023598	24.6800553433529259	36.1053287955509319
6.2307887002297493	22.1592205485771494	32.5500933164562696
12.1861280528530393	18.8221229344526968	38.2068319126013307
8.8555009263221045	22.3117684689041162	35.5497927951714630
9.3576553273468139	24.2024090703522177	31.8691793192133552
6.8074897725373287	21.6228055652161721	36.0464941928327960
26.8966425113720753	40.7509114654982625	16.6236543977410136
28.4872621767487431	39.0409419610337238	16.2389780447823142
22.1045361564103580	5.4170003055605607	23.4809293960471450
35.8841748043212618	13.7398518154339175	32.7302987011446262
32.4331934111501212	15.6465697777789199	31.2798963677513733
23.9561353725117669	6.2221477163419543	20.9989293390057448
23.6995282631460675	3.8211583481922338	24.1844391526912581
22.4392013351036610	41.5398732555986641	22.5509408939239933
18.5891597720348010	0.4191453940145370	21.7252818136867667
17.3273531308370075	0.3274128974853198	19.8817206949981689
19.8247327883512128	0.6098404008969613	22.7225668110731895
20.5449878310642866	1.6364202976522644	16.9430006880159141
20.4398727432272942	0.7202621474778191	24.5462758170772197
24.1185290935324055	0.5163913449555655	24.1446616130389948
33.2709130508672715	15.9182326812510322	35.1890805181421484
20.8931758954196951	4.8359080100306091	19.6782450840807250
25.0219017440527516	6.4180711269840405	22.2359453151067505
24.0093172268155897	42.8119452600951007	21.9959186705316654
22.1313609880381357	42.6894123903333877	24.4890060874538449
23.2122596419801326	4.7164808246018497	19.6228195205965612
23.9271737843346521	1.2198847689528014	20.0697657520577195
32.5386899490481412	11.9570577473622635	30.3790788649766874
32.0860375959873920	13.7440843078702262	37.4082442105105031
32.9511302546322611	16.2838824055656133	33.3097599054202220
37.0544425580986356	15.5196646636542752	35.4935609984898548
31.0050307121475868	6.1285697265565107	19.8407078626004392
33.2892582093698124	12.6158079192584278	33.5606620541654479
33.6281508855566713	16.1979875408109990	37.1502013971502691
28.8808906905409515	3.0268669986932797	19.0099989860283465
26.5108782597686741	5.1122408832664608	19.4344313741378016
29.4709820675158269	0.0668614769576479	21.4849152416008913
29.3651578358122904	1.6493139072729275	24.7529146472447401
31.5507506762361984	4.4332266942311387	24.4098093260022253
28.9027111714436131	2.0213602714111705	20.3244035928206088
29.6308502190755938	0.6524540763775146	19.4413207236211250
29.5888568463873618	3.0688634821938305	23.2500707737098331
33.8564920115177870	14.3601099448593743	36.0352542367264732
27.8629606310539160	5.3234699448144029	21.2240756883949544
25.6801662303830120	42.9674057423879816	23.1393124059192488
25.2584044293572383	2.1029912819167098	24.4682449119448080
29.1075041090884206	6.5745508937166424	22.3486502834881584
26.8434747350030420	2.8552057326465494	19.2560897622452813
28.9805200859987622	4.4637268864220898	22.6336745422508407
33.9643065489182305	12.5168309254971089	31.5475826803865402
35.0241223278737905	14.3835704507643101	31.4699198563499571
36.6609304186102420	17.0589311120894074	34.3312555218953648
33.9031124405893749	17.7293307026541314	35.8222371015662162
8.7049566976600126	1.3299680937881309	20.9760662932042443
38.1182834152670011	15.0535699643157557	36.7340681806328035
5.7537219809901581	2.7963690577487843	22.3126165766195612
11.4977109604663497	5.5891889001924477	22.4903048364594582
7.8243655182472365	1.0598661412518400	18.9169330649654306
10.8644327748170451	5.0368826425166349	24.2788262956965859
10.9588085100941193	4.1430852684518680	22.0656201732631239
8.5232187317628387	2.0765350661770015	24.1644550470169754
11.7063208053111438	5.1820985911221493	18.3228544143192096
6.4827413515846546	2.0539875509902559	23.5318422037491146
8.0977731781202529	2.8055717594209435	22.3818845885730653
42.1446158917507816	18.2176850566908115	32.8987058922048305
5.5306321884098804	42.8733658449807322	20.2034303120096830
10.8428777958452667	2.5770950592012056	20.5360252704402519
7.2900021652288807	5.0637537630629224	18.9829348801801707
10.5991611985585301	0.3949135204473759	21.1001774304647931
9.7189174837522447	2.5944588238011419	22.2223281200955469
6.0410352175578543	1.9734493553573964	19.2687348316341662
42.6707782839704635	13.5244647199070620	34.7700049045958366
38.6930769411511761	12.2708931544813549	31.8586468293456129
40.1506196518544485	17.1262881234418742	33.6325739726837298
38.5423408371736969	12.8548152026673748	33.3593299271206618
17.5350573812777348	1.8672032833171055	20.6486340209992427
31.8169015420434782	14.1750329427673645	35.6730217330221251
31.6561138301164142	12.8549185959894086	32.2253655053502115
16.6778926996562795	2.1849640428530837	24.8651222345895846
14.3412265449112635	5.0622880075278394	21.1054860192312184
12.7770759748565403	4.6494987084814889	21.0827335842198735
16.0098245722157628	5.3411129290738453	22.3069235577962139
15.6655946380246132	6.3142972205888492	24.2940701092736582
15.8154488994866842	1.3910884067694016	19.4849144786315591
13.5353172243176569	6.2375432162714235	22.5756751801844011
16.0315633448911896	2.6260020525774332	20.6603624560657089
2.8180312143550648	27.8042651828310490	14.1177374536361580
15.6910916980438451	2.4020937232634503	22.6974306696407879
16.5861222429112267	1.2914460503406131	23.5064183473573429
18.4030574811493928	0.6931376015767967	24.1041106925425517
14.4630011772035871	5.3824735560540757	24.0656930490086758
16.8599160821057268	3.7680594934171241	21.5280202421754119
12.6420108209140558	6.5632800233724904	24.7067371419452328
12.0813115049916551	0.6552945859010746	20.5925581534320123
15.7422209772893460	0.7098088867005639	21.3970858286618508
12.4799319669166806	42.3760371228317041	23.5406138787705430
14.3040608224644981	3.2652279837219678	19.9063609728833661
5.8998169226965578	7.1891463474637236	17.6498564182755580
8.8515689130998165	13.7379683890779383	15.1595606195992421
12.0632058771095387	6.7861069388508977	14.4265618630911110
31.8015790695248164	33.6464780085743485	33.9920827369694294
34.0540065556997220	30.5473627298143455	31.6847033354695178
33.7398925485642920	36.9016501358430418	36.5649485394238383
33.8115374220493052	30.9651194345011085	33.8613537762961201
1.3551977743655446	8.9878821203680825	16.0365378692533618
2.3637537948165916	7.3050984938773178	12.9932129640385376
1.2456368275042200	10.5757468119476368	11.7236577090936667
2.5484671766836242	12.2228566418937152	12.3692929654391630
3.9768478160577359	8.4732969535063773	15.1372482634691909
8.8154406475513216	9.7202614894507615	15.3254175962631951
2.1529568315945826	7.4076423958039799	14.8190431759417720
2.0824890331540402	5.9508094270467300	12.1071072344129469
5.6390860981546842	11.6057933595516936	17.2163069102086013
3.9172432031712350	10.4463683800776170	16.3443194629198310
4.9855100072534757	7.3000205452965581	15.7118063859839374
3.7084394932488980	5.9918306282159675	12.1823179988719144
1.9875661985285873	5.3576382044114430	16.2373915747563657
7.1970062089365818	9.5687051800839136	14.9402755623878782
2.2501506073747528	11.6020536747781904	16.3582178989544644
4.1774382173907787	7.1163602310000496	13.7938641263747339
10.4704522397051907	8.3008943151507637	14.7570295239580673
32.0924743137837751	35.7366912889781787	34.0952258150705774
35.4273563697257501	34.6910264661965755	35.3424441496625619
36.6738774613662741	32.3603727432836976	36.2933919439963191
35.3945882745720084	32.5084731514663048	34.4463210816420045
33.3707920829604348	34.1296668947659185	34.3577011735835143
36.4044801800246063	34.5863318190675884	32.2608089410929892
33.2792265323918102	32.1206132909842310	34.8222399985386915
32.8604125260248736	33.3356865002559175	30.6021677946998132
35.1691927135291849	36.1079296977737982	32.3412203865887662
10.6527053516132622	10.0756678464410570	14.0640981112111803
2.2414660882528201	10.4288125359567392	17.5818501601085835
8.6459731393818480	7.7898194993628262	15.6824567958573713
5.5146228770857171	11.8761933143704592	13.6314808898925008
6.9818513595734695	8.8919142604378703	12.6125411889094892
7.8682244635602760	7.4769968594265910	14.0822302705780320
8.6726828887257383	9.3490584856544761	13.6944513507212395
5.4753290902565368	8.8470116862591013	13.9364806471034282
12.5647084138411760	8.5376622377736400	13.9942041378313462
7.9648093647670501	11.3975595217186481	17.5046478726087429
10.0599653383553971	8.9660152455771218	16.5915983427717499
10.6385027116855682	10.5592573738794986	16.1738020252906622
37.1412960088220316	37.3519647352752600	32.0037309694690606
39.6993076194370573	3.9739130767213378	16.3682934291021134
0.2450752540951301	4.5565412645620702	13.0128264249118395
38.0332022919815884	0.0461972022116717	12.9554871523251656
39.1365859807984293	5.5077809716325312	16.2709391989297814
40.6322377350589079	2.9057345721230017	17.5857995655791441
41.3652582866460108	3.0859051936813788	15.4119704231206178
41.3092842360972909	4.7068684538052485	14.2131215307675109
38.7411360532502513	2.1275344655791688	17.7844084150622130
36.9663284584918088	32.8285823385417288	30.9559609128836364
42.2535006123111927	30.8097049728822370	30.6508642722717290
39.3858543715424219	32.8754415732476915	31.4911593167845254
40.1113224467194840	5.9083232742774205	17.5168578752151518
37.3422308989476832	36.1952081608509673	32.8827814598385260
40.4875921837364174	34.5243394627994888	30.6444720712014309
37.1950389610115693	33.5986479865695742	35.2943251577751056
41.3847717814777667	33.4184697688855437	34.0350062381389193
38.0303272315733878	2.1170334756756750	13.7368490818755227
34.6454674828596296	5.7524273019363683	16.8204983721453161
36.2948148510846664	5.5923462203046190	16.2971290786112917
34.4992826975657394	5.3800613490987983	15.0262048037060048
35.7421394081695070	5.1241196607079900	12.2063791434983120
30.8583760996362848	0.9998866663178509	15.9676298418297087
40.0685433231354438	35.9770141508084649	36.3652917997048064
5.1357369492846709	10.3962868416245833	15.2086074595948109
4.4027859228189259	11.9631398921645129	15.6066359562095300
0.1531576120192000	8.0013646285948461	14.7467451830832665
3.4036183871535970	9.9633826083964561	18.6371289840731436
0.6709389115974600	11.3959521019671612	13.0473886834913237
1.6341239113798105	11.5200512010377274	18.7049466299344438
42.0743884077466745	33.7635606903352183	32.5532502122706475
39.3961930054084775	34.1603728706530845	35.0011117404205052
37.9539968022133678	33.9799399370281066	32.5595339474734260
40.9872118382348631	32.5106172904174215	31.6860305105662299
36.7572454248170999	30.8776684647954873	32.1619029104429899
39.9952570374170051	31.5641754500640346	37.2092392087598967
40.9045192984083954	35.7658164446679621	33.0893609432513998
41.8922988682746578	35.4334676951312133	31.7551805926495625
38.4725575506849182	33.0496144094423840	37.0186107651207479
40.2943473565237795	1.7545937911439871	14.0228792955384343
0.0871812311751055	4.4918414470809243	15.0726721566620974
42.0238704690243381	5.4909262233324849	11.4360909721257809
39.1778134319047737	4.7986346216264399	14.2405644693446920
38.2507531927931836	0.8487509347638792	16.9686852047492103
37.5891059712967461	6.3663085125358680	14.0874432192052730
27.6538517119602041	8.7614966948610622	16.3898571160763531
20.8610756785143572	36.5506895647208054	32.1138150087989729
19.7405848456054507	34.2440961141803371	33.1313782663266494
22.6790627986715272	37.2427312564371107	33.2918501525080188
21.8234074583361704	35.6743689127490029	30.4763757228627021
21.0704820069048928	35.7068749719530416	36.3443953234582935
20.9211283560523214	35.6970367146678669	33.4428563642800682
22.4108087254930055	34.9426974710218659	36.6422098886035315
19.4365017912268954	35.8298958477373475	36.2605632210608277
31.3001789968555215	11.2744775605262788	16.8595801313395270
25.3853611924133133	8.2052492674691297	14.9211472006502213
27.2715255137810964	10.6764066710542114	13.2316607656675718
19.1626577458902290	33.6355497692658290	31.5625283675303479
31.8531704934083990	11.2840457968625447	12.7476801047828054
25.7818483146421045	12.6921234545739878	18.6727618585635220
26.8015634793560693	9.9272318845371110	15.0773280212667267
28.6757267870292374	11.7263238102051037	13.8010356472417044
28.9708222469022196	12.9838463070787284	14.7791610307119416
29.7148005066183885	5.5389715176866954	13.9026678472088996
30.6882162305659278	9.2243998754219181	15.2010884176578145
26.1880573711317339	13.2151688974914379	14.7799450150133556
26.8967699904785746	6.7828139946669959	15.6717489312368290
25.1335075156260466	10.5203781532673730	17.8502260402485078
36.4549502111865493	12.8605487047822624	17.2614992183023439
23.5481683347430142	32.4584060667504914	32.9204226800833339
21.0738634615181049	34.1647112117751988	34.8801057916032278
19.0367711536757334	35.6323858873547294	32.0240358068922788
18.7249371196817940	35.0739765303321960	30.1301439784670855
34.7706991217440162	9.1931031623342854	16.1199835942521581
31.5254303836126439	9.0030747583158686	13.5287701972488286
36.7584666839703473	8.5120496281464195	17.7488433552734364
35.8159690548956462	10.2660710377905442	15.0439785307327476
36.9570856512328163	11.0336470746434969	13.8405015723360183
33.6308747435101054	10.5447110755779487	11.5433135105482716
24.9085609975108468	9.2393371846602417	16.0660659151044811
31.5868806504992818	10.9568815685029115	14.6395087148219716
32.7607939437485243	11.8233132748963392	16.3094992855592871
32.6718331041232162	6.9727966117567526	13.8729842889741235
33.2752653287614137	8.4668614203429513	18.1163398143539105
33.0887699014023227	6.7069616861117209	17.2594240519332516
36.8626186836447971	11.3855501713826417	16.1408118764456923
31.8335597267391606	7.5925099752237282	15.1041230699761257
34.3468310106862944	11.2623726472618859	15.1234363746755118
38.2449692798558161	9.8461374877905925	12.4053089659554914
37.3222533434685459	7.6343258943318988	12.2531436529433009
15.4709160840626314	8.9503901917250559	16.5969828691495245
19.1642790568223766	10.4850652708265493	16.7002013304894525
18.5072073219550113	9.0455121619959247	17.7266772649650441
22.3037258888109378	6.4335912785853191	14.9748301851783427
29.0827483248373753	36.1598946764556501	34.9978213016582842
27.8121697275318311	31.5473279540484555	37.0052471680901647
27.4271527066157290	36.5306137387920629	34.0609409288183684
12.1800858792518643	9.8514900542275026	12.7737028595855691
17.6115037427939569	7.0035356917470413	17.7186708072698842
12.4179789066497772	10.3130487440553935	14.9923581008962241
14.2026721557949376	7.3721822747088090	14.1607393767361831
19.9148880340603931	8.9998372842250145	13.8496532871207183
24.0189286322849433	11.1253862263712175	16.4537206588611120
13.1221062209467458	6.8846880511498565	12.7459233590735010
12.3994786168766709	10.6771749841577748	17.0490193677927167
15.7693415673708373	8.8961696814162856	14.7934179803926416
14.4537226909717145	5.7535465109793327	11.9406830518087688
17.4645478388235844	8.8884434271224055	16.4773734415357715
13.3392770497218649	5.6862686647902674	13.9132072885263156
15.0037490111882121	10.0362921629512165	13.0079690532096652
14.1343964967153219	10.7204333515040382	16.5213662479091070
33.2804326587980057	36.4066907637339980	31.4660669468699687
32.4518457656765236	34.6880991245397823	32.3855577457627604
20.3372353286700616	9.1997088050496600	15.6978706276663864
28.0694908264113572	10.9148992042015163	15.3523152055905978
26.4533508401181621	31.3950906725699674	32.9910579539455071
28.7924620756033818	35.6058233840867402	33.1647708521868054
27.4180833304560281	36.0938757852989696	36.1992078627834246
26.6065374934428469	31.2927970391187849	35.0491484040089745
26.5819085234140537	36.3907271425266501	32.7076150004817805
29.6449468627463268	30.8587276087215123	32.3002318107144717
30.1964222664638982	34.6276551053287989	34.8351105897919098
30.3222768294786995	35.0506195605526756	33.5337260230570706
22.1288697969478143	8.0596590903744119	15.5904351445372278
33.7341064617984969	2.1246612761520787	17.2813699605946169
24.0669620530454615	6.0520361073451667	17.6853154304897728
21.1278283162847842	9.0296361124482836	17.0432485184331348
19.0594994851217656	10.9697927019734447	14.7929917109482609
23.9365771618483230	7.0979102956676128	15.8253828682369715
22.7165609448110786	11.5214426648724295	17.8685810073531108
20.5562801667443296	7.5613302056306413	14.3520900581987494
21.8962331029293544	7.9391114855491551	13.4136260936041189
21.0089806188670494	7.9050432946688183	12.0780672076363960
19.5357490392180715	12.4367209340155931	13.4263239507120229
22.5030569642601428	7.2836426785973813	17.2689530839856147
3.8750621341612344	0.7447268049024326	17.7636834130165155
11.9586151696964009	6.1370604988025121	16.3721326344461389
9.4141242037625688	4.0890881316667906	14.8058808119314342
5.2845563334835761	5.4726140193829291	16.8505854072120052
11.8664230371451165	41.3129820441453646	36.5815446415794980
11.5232682883051467	39.8231945542568653	31.1350780416675335
7.2286366877063131	41.5300492793571792	34.0377097679134337
7.1979055115847306	0.0347321967037457	35.7841451509911721
9.1712210261469025	41.4577260428633636	34.1542180058819156
9.5554356923421508	42.4210410873339967	32.3904965862499665
3.1507964214532063	6.4923259569849030	16.0232488629897318
2.0698321919933687	1.4100788968257070	18.3905160123837312
11.4820201967687296	2.6880849671057705	16.1457197444304796
3.8207193938637856	4.5719458345991173	16.9500726227423861
0.5862321211118905	2.2538853113748210	13.2839433618056812
41.5955558756785138	5.3872158701272115	19.1757510752981020
4.8935029059130288	4.9460836897117915	13.0194514771195244
5.7884345671757806	2.0934828309236386	14.3860514005824935
0.2976202424569597	6.2071655494570184	13.2536930312090622
4.6492474921031750	3.8393574114083440	18.7727611806598205
2.8811775548276879	3.3241298171654976	18.0332754033253373
2.5879113033441628	2.5228699050787164	16.6501653279681605
1.2767598488889131	5.6303143997312066	14.7418199119650950
7.8593488864097756	5.9961815395773499	17.5976562730046879
12.1161185272438221	0.2606524345560403	12.1573372954681389
12.4153953585190635	42.6320091106248071	14.4343119403958351
6.3025728641635848	0.5399310710392934	12.8320771680714643
10.6976769693796321	42.4767002532164497	15.9806084748551260
7.9563417639260665	2.2306090802180245	17.7600698426481856
11.8592919780990584	4.0893791220615547	16.7456915148115826
6.3305451790922698	0.0364442405809195	11.2691280256721900
8.1955756627632663	6.4641223039232099	19.5021005524903259
5.2439239989675119	3.7988239882709758	16.8797200040729187
12.3080215763937399	4.7431340255629468	12.8009373322593909
41.9000984321390533	1.3707815259620355	13.8583565995954139
9.7531423503573578	1.9377244362043671	18.9267389415433911
6.3865058484790485	3.0953730080465514	18.1558018742034939
8.4361275766746449	5.6729027147214959	15.4986391789269629
7.7241791095449130	4.2048832549033746	17.0632061514828024
7.3305867551957125	1.7719295786192311	14.2116966258522446
5.0265831971807815	2.0873434503545978	16.3658974914145432
11.1523467026673586	3.2639119881163867	13.6776398763015443
8.0153725200627512	2.7662818197434942	15.6736668388614877
8.8055958346130421	0.7146100736138137	15.3951215587580581
6.4337849122190400	3.7404826253877084	13.3275313578534593
13.7855900659189974	41.4157082519448281	33.3610282100860971
37.9891641274319483	37.6587647387703228	8.5610735894583829
41.9967380379693083	1.1545958059573656	8.9044450336842669
37.8237580643698834	41.5629965473794343	7.1758424339118285
17.3421327878518952	36.3368841982683293	35.4913262201181965
15.4309851613618587	40.3389993948012204	31.5614833139575701
13.4203767410212134	39.3749054664067728	32.4870851422865812
17.6423776503416292	36.4886178416631850	30.1926071406529424
16.9608985319828633	37.0041531406371718	33.3831278104789888
13.9020214222212388	37.8115970983963408	36.7342372001217967
17.6496706633715839	40.6878024917885739	31.6758827520051547
13.5866701034683128	40.0896365864005446	37.1159238326540901
42.8161213033218289	40.8514732778140868	7.3040803082673618
31.8934343738782431	37.2392329437740557	8.0826296823725876
34.4740932720179671	42.2075532970440719	6.4472805246791660
34.7559367487782325	37.0131483756817801	9.8121043630708424
33.6275260038971240	38.6632868267804213	10.9333192793502665
36.6938844987310020	39.3403782041025636	11.1664476827148071
36.6076351235409092	41.3442383870161763	12.1373494517223772
32.3039430718907496	38.6379152648607231	6.1525564653309850
30.9847437147181388	42.6304806795711926	7.0171704425917882
31.7700229736880360	41.6862398684387045	8.8252855035381934
37.2556971489932707	39.5956462489861210	6.5288623715201144
39.5373356005546199	38.6074253226002213	7.6510800527069946
5.2717041737230446	3.8809923281461338	14.9849259517714319
12.7218010521846434	0.2769494204703292	31.4941930802985333
14.8807494451968587	42.9221766608402362	34.1122499139360329
12.3294714699487802	38.0489713881137064	31.2827219632063809
14.2222576085680164	37.7599879163198295	31.5704814295523590
13.3721943303539224	37.3208172583385576	33.0280661538200846
18.9495284341105048	39.2184054687253365	35.9724780670425091
13.3555495874249157	42.1365650584528808	35.3238644949973803
12.2651311824869644	39.2621940102660290	37.5829019254284802
41.0653382324076475	36.5837003455241998	4.9816779398078523
10.6475090716520686	5.4139306198744350	14.7931717273306269
38.8065624405618337	42.8737872234989865	9.8807028714505147
39.3721751821832413	38.2524499908941209	9.4959051990841363
37.7715454780251960	0.2047784622476027	7.1054982959348241
40.5486244621473944	0.5186084187798536	10.5201417665625296
41.4693507920395064	42.1789232527044220	6.6913955549030710
37.2515237278732343	37.6245570264221882	10.2341125332488492
40.3554184798235838	41.7580289723340670	11.0532795629313334
40.8556024743016337	37.9999916179812232	6.5169423619072830
38.6002468322155465	38.8592143609104568	10.8185549369108678
40.6962981106926449	36.6610200528993460	7.7460057494677601
3.1071316348376650	41.1963061285903080	29.3834825913466240
25.1113060999857112	4.0461469591076566	18.7645452481652626
26.9956845598327035	0.3203484067915096	12.9021544724380348
28.8965628460903616	4.4591211494805849	12.0052342630836897
29.3849109135902253	1.7351832425779674	17.4174106652734402
25.7343958057794033	4.9738619849035777	16.8021159219363660
26.1094986717663247	4.7541364974984432	15.1510313140168336
26.5628317507820881	0.7108447583533376	18.4838264833156458
30.1969929591043460	5.2507722711916021	16.1874891561255971
5.7332579415351761	40.0616938505089806	32.7996737637375020
4.9988211682505774	41.2817771059018028	30.0074232080490049
4.3776137491990559	37.9843483200738987	35.4928670757770135
25.8120714940982978	5.3557746928868362	12.8849447534479360
3.0242263886032137	37.7882648025120602	31.9322082607213780
1.5838063129939424	39.7749623603100062	33.0794654585133330
4.1128406261333224	38.7378606641293928	34.0288799495648533
5.3571904953746223	42.5413980903157523	36.6991896785222664
22.7396524573421921	0.1552135169002238	13.2880461695670498
19.6886581418385305	1.6580810708451583	15.5577316526771252
22.0317587486276700	2.2979842756473463	12.9917136846893353
20.9560874138624165	5.8592707110016615	17.3392531108517751
19.3505005787497240	1.1668234772172723	13.3684659475252321
20.1779336056974614	2.9871095808749279	14.9965033110256449
34.1716380433334308	0.2031262623522860	13.7662950974352167
31.4403076910427011	5.5125497173260900	17.7752479075613792
32.8020121372929054	42.2324430734177341	12.1178127229894681
30.3539077648360092	3.5412485913915051	17.4212551028749232
35.9749860845427492	6.0979072373884486	14.7249939751173482
33.8674251294949400	3.9741307379071813	15.7761200713503467
34.5552115681593577	4.5948840017308097	13.5463758902901326
32.6884435414203125	5.7786492580885191	15.8858359659043025
35.1996685237892635	6.2411091910675109	18.3416674988334130
34.8107315217652129	2.0755059358371262	16.0967551405675167
33.0727056453427011	0.8396345075088808	15.8250476110738205
18.5594696672675923	3.6893403673410852	16.1068718223262479
31.9347409347711704	1.8189454714867455	17.3838351051387825
37.4747225467609226	4.3642632313048342	14.5170361849814888
37.4863902780109655	34.8065903619357044	34.2673990204290178
38.6086957938229105	36.0311806368702250	30.5486813890882338
40.5615004779536150	36.1286658049416616	30.9610348618930544
41.8664226484133337	31.2274381675625321	35.9815130696038921
39.9847009188750420	33.2395906697751826	33.1696379657960421
25.0448926960059310	1.2551988039548374	13.5173120819141008
25.2930526208851418	6.3962159016203461	15.6844040393325894
25.3459827596708465	6.4047274621191699	14.0683145949466120
15.7589244563304920	5.9957658152215876	17.0033735126806107
13.5801669454491432	3.6785267732828593	13.0798682995457565
17.5666886212184252	5.2921332600245607	14.2524055255691753
13.1793991101876973	41.8870194292043294	13.1201576705489682
16.0819779588347771	0.5850821461909043	14.5572928448358230
12.4607298047628205	1.6206616267455554	10.7335372301662666
15.2863062282758850	3.5944712815556947	12.2220942419998728
13.8283260638904579	6.6506869779309588	15.9158008086669209
12.5634419702835771	3.5984347848256730	14.5700038095434348
18.2282294905658553	1.7741461781703114	16.5023857677002184
14.3148170237145127	42.9335742232056958	13.7913067277001193
12.7918194453632701	1.6700475789262927	13.1643636295071929
17.3933951707035845	0.6391243076657431	17.8929957029575917
5.3634544740448877	38.3276065471936462	36.8945493280881465
8.6784589976659419	42.2735329733017835	30.6412070804815002
7.3404245246485429	39.9258971026054041	34.0299444208535462
11.0981798797250288	41.9777915441350444	35.3410723824470026
9.5914802050212913	38.8865429047734565	30.9288662848267002
10.1252299279288707	37.7775023218485444	33.9710629052273987
6.2146910822529771	39.2650143793040058	30.6886388706622490
11.2488102417002036	38.9528442397917516	32.5010628888184101
11.2823206656149146	3.2177500013244607	18.5006669180965666
9.3986619380292780	41.6287667192382429	15.6478184001437484
24.0910853878288016	1.2176569071652716	15.7754679529111481
18.6878323100317196	2.4541761019932360	14.2999286556916267
21.6988026646077152	4.6144348634398122	13.2457844408951892
21.4729230700535112	4.8355314631291941	15.3084520401855801
18.9429433236419591	4.2300294142430417	12.9603632643412254
18.7467866764197524	0.2547074746422994	16.7094443967461643
21.8365914748490333	1.6039265402109197	15.9374061532872577
23.3120385323361283	1.6306391395391109	14.4001368198886368
24.8869923005901974	3.5672680548897322	16.8000623239441431
20.8313967000421734	42.7321667983481106	16.2831672291668497
20.0074862401872373	4.9648173044877204	15.8730251249706829
23.0587911783674322	31.6112564647372096	30.8945260665202852
23.2408380427036825	1.2598482072158104	12.0538277881702118
19.0815798193255368	5.2453034031464361	17.6460874477683944
1.7660672626103529	41.4941058909550904	36.1549360111191405
5.6573552509369636	38.6899997002271760	34.3824906355914948
6.5936063146465971	38.7946216565576449	35.7562268801451353
3.3976743981615107	0.1658636772651673	36.1615972441710838
2.7538269828687225	39.7326535129965066	35.1101867467979147
17.1611201383887284	2.8580199889236688	17.5878757173447369
14.7091497179440580	1.9686876814908496	13.6573395124654393
16.8255768774090306	4.4309583404773054	16.2729846628014201
17.5257332362405442	24.8888318398589128	16.5326606894524062
20.1282780617944823	20.4790674838709883	18.4817139453662733
20.9413815929485700	21.4142046340391268	14.8923154309756391
34.3353047298117673	28.8190226831376961	35.2932373591424948
33.5974577765553306	24.3317478978620478	35.2494762175654373
34.4843355230245123	29.2394814932108318	33.0787102380750397
15.5529513172022007	22.6943560099507771	18.9318586568410474
15.6732069862718699	20.6501542891889684	13.5753947075349242
18.2038309606617901	19.8532932942069458	18.1647302091132410
16.4209969327897056	18.5478658210853489	13.7304898078574116
14.1803953810334153	21.1310034950343670	14.9395418731794738
12.5690046304630823	19.2040820362469518	13.4727695746203331
22.3246986793318847	19.8927274806721499	17.8048486359982832
15.9962216119891654	22.3378839195728780	13.3563409413026850
14.1462210817031888	19.8431441422223038	16.2065847528128444
16.1682699950648399	19.8022474177606504	16.9345469210324922
15.4896706389285193	22.0746346129458182	15.0594310327478809
34.8910636564727099	27.4827967324431590	34.5188620462790752
29.5543982637363847	27.5074448742198641	33.4325216859180543
32.6560878638346352	30.0217963185484678	35.4906739128573676
30.7983499609215023	26.1617899102003264	32.0694972218911758
30.3445833004126335	26.9350253393207844	35.3733189594324102
36.0561454012482727	28.8587967332748434	32.6140432655734145
23.3983294140370575	23.5174774294920716	16.1390326393737631
29.4270754408529100	26.4943522445141433	37.0186522707300085
28.5347231783617197	28.0823533411123272	35.1638941870258321
25.1625940616575932	30.3175993232694978	34.6144575724508741
26.0255570421343592	25.6562780976055507	37.0738040221288898
30.1035265197268593	25.5665299885024595	33.8042187654822257
28.4481670684668408	29.2029330034475230	32.0977324253447378
29.0728214152724966	23.5366023112396192	36.1527028590456538
29.4132208322250968	23.9155085462714467	31.6904894079132227
26.3047928163001359	27.0771949345264922	33.6916753177955854
29.1306948449830649	29.4071064733375209	33.8004763260987389
36.0587252306416843	31.0577791774972418	37.8913856849719508
19.9187794574976280	24.8638019956033460	14.4831736535801934
19.5350496750929921	20.7923548048851785	16.6134886629361134
21.3719734002909547	20.5984648231606506	16.7066545994509248
17.2425132338293814	23.3436728263312894	14.8780681245570197
23.7573219827827806	21.6502749790218374	13.7800413840502465
21.3450637004723376	23.6418426613047856	14.9675825852787110
21.6208199159631711	21.5620577471508632	13.1122720499332353
22.6490685788653181	20.4237474294926535	13.7587369181421852
24.3467814848782602	23.6677681372143383	13.2156246153861066
20.3523813462985999	22.8807515230511314	13.5156191011745292
3.4503300415207452	18.2250706454454239	18.7786410442247664
1.3671739808621275	24.6777297953150949	16.6472646208044850
1.6813899578308216	24.6596079653605464	19.4535156287217248
4.1102814846842808	24.1741189893414123	15.1513450591194534
1.2410207829901689	24.5744145414696256	13.7614793288236648
5.1421931762333379	24.5711804380740730	12.7570513695615819
0.9825417791953599	22.6437654075618262	12.7398225281815680
42.9072774907616648	23.6307713441361749	17.7910068742136929
42.6428523246856770	19.3665096173697542	11.2041546777789911
3.5214371260684083	22.6568139568685893	15.5602271813779929
1.9069263758168034	23.4915657795083312	14.7092163192139065
5.0189547389547577	18.2696543424501563	12.2710122640043391
1.5194501822241397	18.8813892679198183	15.8487065754727929
3.9611351897894105	21.4101279708759051	13.9447526953310241
4.0780548924365716	23.4885082508697636	16.9507027222070263
1.9118078011480288	22.8710172440907051	17.1863432230156690
5.7672586629701259	19.3616045216846970	16.3985341362656065
5.7179908177470429	19.8743775089061927	14.2081737668278105
42.4179578350695579	20.8101685283546054	12.6492026936652149
2.7976236507547525	20.6562581459903249	15.5907741420967199
2.9445356402245255	18.7265410958004068	17.2406192030349033
42.4221421744137999	22.7680765760918007	13.5938164631806213
3.7275978943112200	20.2779875605634743	17.7203772400098529
12.5163146373625533	19.5499953561729214	17.8612554795569949
37.1126947767920967	25.8674138349369223	36.9253739679590538
34.4561676355420019	28.7588940883526227	31.0208754412460159
33.2240161208928484	27.8161454701503565	35.9481576120266624
10.5423568836431141	22.6889367441910359	17.8637539583701717
6.0234180894007769	18.0624274654851611	15.4133058088621073
9.3670242643127910	20.1794910434991657	14.8590983975631179
8.2246318302547721	23.5214200588473688	16.7300537049774398
7.5875559143258009	18.7708994077642366	14.1127299676717470
10.2675892994677067	22.1922222305733676	15.7318863769169290
7.0871926784705366	18.9808640049655999	12.6309453910968248
26.9241878191744846	27.4162082085491576	36.7467484682914503
10.1967111598287214	24.0732526745841540	16.2568510441732847
11.6473604900817538	24.2851817877796741	17.7135131932046370
7.5631669746852381	20.6102030313362228	13.7967737294580015
8.4770246270581939	21.4889169661958555	15.3477180916424700
7.4791804209282562	23.4383554951146706	15.3877246109691086
42.4982075403243229	25.4423341612517007	34.9733516206203063
36.6758765609355848	26.1301167633030786	34.8249583391923281
41.8418882126900584	26.7105970034895250	33.5074563868300004
36.6248869353926381	27.0151919243763103	33.4768794526775011
38.7269769623277398	24.4068286528170724	32.5145182304788491
23.6452484153749012	26.6052987418365845	29.9913448262676923
39.4612940610961829	23.2722832620653328	17.1189063339195506
37.7614788919404063	22.9086468948823558	17.0496141736033913
38.4015161743301263	21.8305294134137853	18.2605859898864082
40.1951754365249343	21.1860579136750538	16.7465820257801070
18.4303930216948828	28.4601115465071075	34.3524184538194604
20.8921526051380084	29.9795244278139137	34.1902210699177687
23.5129266230281964	28.9046218293196233	34.6248653511706692
19.0251940767454641	30.1358999819868743	34.1825208760198365
24.2656035279833446	24.6832954508411468	30.2413233554545151
24.3736830788279732	29.9549014755659542	31.2371205749028604
22.2847178523544116	25.7534809101083475	37.8764886167973458
38.9738779040265371	23.7721244345644642	15.1495133094132441
18.9305482727334926	28.9779629239461087	32.4877191564570396
21.0045629462499832	25.4238420091887818	36.0963731433521531
24.0208660237974563	28.8351501024677148	33.1421562905510854
20.6838310300907757	23.6094953803067362	35.4910109597073387
19.9012831297341357	31.2506421140758199	35.7139642245561930
35.7636630501820605	23.2780198876261899	14.2857043796548453
34.8484668288240726	21.7368773383795677	12.7774182124128259
31.0800921132673231	23.1887992116192798	18.6043291555924988
33.7892914428935924	18.4209670907029412	18.2272747491829143
36.7766750177376522	19.7621102100979975	18.4249017652996194
41.1398457868947602	24.9771564370267853	17.5374770204405301
2.9032848267904243	25.5446228195804892	14.5585465982303326
2.3396165133393021	26.1814659318206324	18.4508394655670287
5.8895296883147568	28.8253204291478937	17.9234849103648344
18.8226337130068373	24.8435787686736944	33.2001764583180687
22.2021737012435736	30.2545912414890203	32.4995598608675706
23.8433927160019827	29.2573597704515400	37.1423629101463604
24.5211013189755569	28.4451980732111274	30.9522748740595404
20.6935278640109210	29.0662857962669463	31.3669810630633350
24.4305115759507459	25.7226472894328957	34.8542943898660056
0.4645960014438646	19.7675410552377393	17.2106017358627525
35.7122145547934835	23.0287323089977605	16.5149396822156156
37.4238248096198518	23.6320153964694732	15.4684401699385532
41.9878975119249773	24.3102305624414115	13.4732016042008631
42.9712610185761292	18.6333175579205026	13.0731593000791761
39.1470311172886980	22.2501646535601374	13.5651333638027243
41.8271088160374021	22.3168686097795756	11.9565136758045423
38.8807394512210251	19.5661091695076763	16.1759515717518489
38.6496068945284463	20.2998562950315211	14.2202384986732433
37.7661898679382517	21.1421151268321772	16.0565381080656273
38.2269183477057553	19.1084494434261387	11.3966860411734050
40.3821362018771453	23.5253858090027066	12.8082321028921431
27.9063425977771651	18.4401242700987318	13.9953751392110739
29.1066532610134772	22.1290881159182078	17.7653172714906660
29.5716205345141496	20.1734865271669186	16.6631895218488992
26.3685021171588012	21.6482640092587353	16.9857057099611133
30.9315297883519271	21.2428297983043990	18.0240741922781105
28.3919739791569654	20.0699838598557534	12.7886585068227436
25.5661703565481062	22.9697597896198786	16.6657839673168553
27.3042066277368676	23.3417102080984193	17.8753238998279969
23.8061984292021300	19.6900064648246129	19.1882736601865354
30.3608685042157092	21.5711407383100955	16.1236519279334409
28.9995711216513463	22.1619599613941034	12.8655683664216145
29.7276953687100480	19.2446477597988448	14.1500240379667481
27.0414595371212378	20.6590620178555184	13.4302873570294210
26.2735541675068411	22.7718984092066918	18.9468577157381546
28.9488137972918835	21.1422369744634366	14.8353679093027235
30.5110523644059519	22.2418353530051292	14.2393449529475706
27.0914559913835475	23.3442252118708815	12.7995426843645799
27.6153266331971068	20.2141897831978135	16.2203427386351073
26.8032884134181195	21.6010774650267443	15.1171183262685513
23.3226921212400065	20.5400429405631471	15.7733629563908018
25.7214297266903600	22.5658203729096059	13.8404679453113904
29.0773329406974064	23.7629681863430200	18.4578633265118697
25.4355934813954434	24.6725735954785712	13.2059178230439080
27.0933180034059014	29.1973669305889025	34.4937046443036266
34.7113058922680509	19.9437131472610538	14.3335253879997335
36.1514528599273177	21.9882521443997661	15.0778431473224792
34.9023147085345116	18.5813272681576258	15.2934632515077435
32.5425006212141668	22.3571639525762009	13.3128761382605330
32.6464973814626944	21.6153925051450386	11.2803745489247245
31.1695325066046003	18.3828391163178892	16.0756848115643045
36.0401063240129673	20.1211012173771842	16.1844613114963956
32.8504578687441438	18.6729133852138780	14.6901922120546136
35.3490371532395429	25.4416416564291694	14.6464907746687398
35.5847291653911384	24.0489812867875621	12.8470451528849985
42.1560962176520064	29.3903484340451975	35.2723083247683249
26.3808290581099456	29.6842875067052354	31.4991612875839309
30.5706349723253261	24.9640935425412280	35.7593418708171455
27.1772513941783700	24.2763243733141714	36.0727033569919229
24.7611380021591820	27.1942049205005247	36.3675354411229748
26.9988690372575384	28.0979536022106302	32.6869705611343235
28.9710838462286269	25.2573981192971715	35.2640451219990041
31.9598444638406995	25.9579161173722390	35.0173545721866404
23.1732427941763319	25.8823145835672079	36.5260648137613089
28.7013416200258220	31.2657081743510830	31.0012362656668614
28.5613690322513207	28.3488815340508928	37.0677547793130984
7.0808574318500153	12.8329653889258442	16.7553224458755921
9.1341313896644358	18.0032430638987258	12.5956250251235407
9.5863314189876512	18.3280047553717118	15.5397435815035809
11.1884155927619737	13.7979627757657823	12.3039862128431210
7.5323112998358042	18.1242886882025722	16.1069451304504838
10.0051142035884126	17.6685897658014781	10.9894243092828976
6.6260568015665298	16.2347653739783873	18.8988617136371104
9.0009028854251216	13.1530478284619807	16.7032090532828477
10.6467969767279520	18.7411896106860887	13.8261790821296149
10.5766193905558250	15.1902442725732048	13.8005466543012556
11.0936576330926275	17.1991016360860769	12.7702089324688526
6.5143945480166430	13.3713986160838267	12.4080025327266323
8.4168956481366468	14.3074154548157857	13.0817105137659624
9.9295095562361251	15.7203984923057032	18.0684375428087947
6.7841211679415458	14.7735855070171240	13.9007653472139800
6.5079977366328006	18.2555959190245680	10.9348227500523212
7.0025173300170280	14.2414988069089024	15.9805715901073260
10.4594633699104573	14.7261887219775982	15.9907331506531030
13.9297189965331718	35.3483824824032880	33.5956327423527128
16.2221305220257328	30.7032529274849395	31.1774324202189987
16.2350140315732894	35.6818258156961647	33.7942436170244704
12.8207029562139319	33.3288553111455172	33.1879649683043780
17.3499317119972005	34.9249396502552969	32.1622606287317012
15.4966104685052297	18.9256246721981540	15.0430348128181546
7.6650631761513397	35.3819460674111355	31.9089452814022430
11.9442493038930060	35.6116724670094555	36.2975922315953454
10.2938159779550489	33.2977930602053647	31.2538581852193396
6.3258896219195488	32.0858508405150147	31.7232219332806160
10.5169806937643688	34.3003810854866984	36.3549919204128500
12.5419331243945358	15.0977617620174271	12.7538714657656609
15.2261340125172531	12.4457259052940312	17.7113204718893371
14.2031252963339636	15.3371255461955904	14.2062525460948930
15.7128025088220191	16.4978068351606915	12.1508060148934227
13.0958511920437886	14.1784644799975368	18.0473589976486686
15.3198772575136655	32.1364533782860633	37.0038981505912474
12.0490863464150380	14.6765749812410444	14.3223982202971865
13.5428421659784348	12.2215945537542243	17.8177827128162711
12.9447374013614969	16.8447659312247922	11.5116599009471408
14.3489338798976380	13.0059135770180863	16.5441180602144549
18.6377649134449364	12.3786575465595412	16.7275777616595782
17.7035733476363539	11.7580292625212195	13.3631439031047154
16.0012251002441772	16.6107332283462696	14.2423182986058308
16.2434318724322502	14.1877229232570023	16.6550481593858741
14.8246306673216264	34.0572846096953370	33.8536937779331808
8.1183550783952469	16.6773469904847609	11.2917570596570886
41.2455026940533784	9.9791345816944368	19.2821480982099374
3.6358977778952304	15.1989828144641397	16.8510275999181225
2.4155562479519581	15.0253175900089708	14.2929370833931095
42.5707323730550016	18.1217464268497253	16.1692267286261249
2.7356562643884366	17.0810629018233655	16.8902881503037605
12.1713979599765203	32.5710914656430930	31.0572954782453721
38.5518246890190852	7.8768736575035572	18.5528691470065041
40.0735073668156971	10.6333622156907293	15.1411748050215422
37.9472775070217949	10.0811224748068184	14.8375145224856659
38.3415052493744568	11.8514533591349878	17.6966060265879115
39.6861208247987705	9.9594519595415925	17.9532475211624067
38.8875320991302544	8.7388221524936025	15.0836950821632065
2.4722047900367228	13.3620289174189324	13.8789197256357468
40.9156356104124583	7.1427607525818191	12.2007877911054461
42.0578594513481931	8.0060312936200368	13.5907961052411395
38.1330923040900203	9.8671047485052892	18.3439492677032518
36.5885735051654990	8.2366274542978655	15.0250777778677573
38.8545607328929847	7.6586476130404080	12.9806441144360747
38.0014029223651448	8.9130369458873577	13.7174982944954902
18.3882491274026556	32.8282463913754157	36.0667509253956169
22.9098560152736859	31.3996609845022014	37.6551556777945393
24.6674621885996501	36.7121738547294925	32.1346011833620295
25.1953171474663868	32.2738619992656197	34.3741310548002517
4.8232716164138969	16.3244273619127362	15.9666829390475016
15.9146169298280196	35.8746453192432639	31.3383243733243511
13.4133675947123177	36.4188287124031476	35.0941632527127538
15.7708850085772738	30.9005239176394682	36.1843584762928714
13.4612684701839598	34.4094525697640776	36.2901163139641625
17.4147342245660433	30.1586580456709008	32.8507701454820662
14.9381097175290272	33.0927826556282412	35.6943778266677469
16.4224130256534373	32.8557186452245702	35.1101313142958276
0.7393302868152180	12.3911407365832478	17.6338221435378415
1.9354200815814944	16.3602597000713885	12.7550940367298757
0.9175325799216831	13.9436104872066711	14.9756200391863796
6.6267481611296946	36.9666961272276993	30.5950120880319147
0.6461251757676775	15.9736155174767696	14.1909378885774586
2.3142454689011389	15.9986978594907381	18.3674630620454096
42.0786040281222284	14.3422152288856335	11.6054113341194416
4.0399191527675828	14.1702023568811857	15.3714710478499086
2.3768160297740808	14.4904288554219711	12.2030760300506262
4.5182286773880511	17.5679064319111404	14.2558134516738111
4.5167439060507117	17.1298895859207292	18.1007260551032765
5.0625225165285501	13.4798381145768484	16.9940850369719243
5.1185083468884942	15.3792025877921343	17.8281529657298812
1.0273843433138690	14.5369606849385988	10.4779200036635629
35.3535072595176345	12.7131920613556009	15.6572813907767969
2.8498133385198066	34.5114776362504116	31.2102677419537820
0.7514189468482438	30.7541518967045242	34.9204450389908132
3.0660285890908332	35.8849724125993035	33.1165408395170502
2.6471140001737989	29.5162125160822448	35.0739440757010854
1.8263151588923334	32.5370359904434423	33.8822657412502579
2.0694605558528223	35.0807300609582668	35.0754983679030445
34.4730294267992718	12.3111259515986387	17.0102679607615492
31.2561003789490712	14.5268854382395300	14.2653359205154171
34.9462752189119286	15.6387510562177408	12.1272823787977551
31.5988864130684810	14.3960566921559678	15.8423416734660787
35.2338444785905125	14.2060653566194066	13.9506560167371791
40.3024172710750932	15.5588860964590339	16.4688494343028893
34.3102705087867790	17.5949676265504635	16.9743537795087214
34.9073643539575684	10.6774384879403037	16.7451401409182026
38.3094722048343925	17.5509231426648213	12.7729609076023500
4.6906321285365706	33.2989953018996374	31.5076509435357188
0.3943274161185188	34.4546190216890977	34.0297367937880892
1.5568361106123196	34.0529371448062506	36.6624130604854344
4.3517449973055378	36.7542272159659689	33.5160376351437606
1.7738082881663411	34.5874854021700742	33.0765997029292791
3.9675198376032861	34.4847873316196143	32.8574703835493551
4.0531959925701351	32.5391325563406753	33.4230344868015194
40.4046216860932716	15.9085217770446068	18.7933787227006910
41.6088962689535791	27.2417858816536693	35.4592151990632161
39.5998452369903475	24.9488800636722772	35.9163089830987943
37.9687749300192863	29.1806033346155580	35.6545746568216586
40.2790302013120893	30.8245207267819445	32.3508111572578514
37.0989889723374873	24.3702732241797442	36.3211263769365971
39.8030839034645609	29.3166837994352250	34.7402677187191742
39.9331109094928181	25.4750608773137657	32.8612446878129703
37.9822009744816000	31.0588620451058901	36.8882238393497701
37.7415076595251406	28.0775844820655429	34.1230918343836578
41.5803132030277496	29.5902344446619310	33.7925002299183106
5.3078248076734038	31.2877314704923961	34.7810927516926185
36.7209610199435517	12.9053644555645626	14.1040327595671258
38.9363821535962344	14.4222781590203564	11.9465020252626353
40.7735062923674079	14.0553945315590667	12.7987410923859599
41.7802816360015683	15.1456263926936074	13.6461079245120001
38.7037679054421844	13.7374722294507166	13.6667145409254100
38.6966233112367348	15.9922223396024954	12.4748416302046241
39.1852816036253770	16.3577462014416888	14.6105584712057510
41.1241616920401896	14.0490638639191019	15.1906874268273686
36.8988575723518437	17.1261717816019932	16.9025252823594592
41.8472552793826509	16.0966259506837090	15.3411467270507611
22.3320584139742628	14.8329506760649625	13.5292345022930345
8.9797646535516265	30.7820231003291553	34.8078831769371320
10.1722192346301981	36.9453187528368474	35.8599877260994475
12.1132788118275680	31.5494233668135848	34.2878376178727038
24.4323727064237950	12.5017179586733658	17.7730993751501529
24.0425412002243668	16.3763819826764561	16.1826649529261566
23.2387165224204146	16.0702139165305979	17.5112245590066919
23.6374131874231601	18.1986726168546049	17.6748205112207124
21.6188947523350556	18.6959570102204147	13.4611608343062645
20.5793647210995623	13.6245564091447999	13.8021201196486487
21.9551226886621649	15.6400936539340467	15.6196674579869352
7.6729252140303474	34.1941708878175916	33.8901958572878854
16.7862082532051282	15.4914726719819420	12.2660467364937613
20.3821957762306560	15.6529122042350171	16.4016894599793837
18.5052190689472980	14.4378046277031444	16.3005397007484802
18.7963890571740251	14.1298734761227109	12.3755431455450839
22.3845602910065509	14.7733475327355190	17.0388857347128386
21.3494897034674445	16.6773037114254379	14.4333680125782156
19.3310533112880378	12.5331135736297501	15.1997044330702149
18.8901791749221140	15.9922175301236198	17.7008073544122944
9.0232474541647196	34.1059098042033142	33.0217262619672951
9.5536088303296918	33.7855424076900377	35.1510536530665689
28.9536078626006450	18.4644211057034298	16.5921956557054777
5.5590111574882624	33.2463504044198430	33.7087822860088693
5.0546126958765143	31.5935526103416429	36.7988981699840920
0.3825760727081003	34.7131490754203043	36.0241728884903196
0.5390779766807836	33.0184436374003667	34.7831576900289150
1.0944962169816166	35.9569884916716873	34.0243361605112185
25.2845001601888839	16.1511604997066875	14.4573992238568341
29.5029762280607599	17.1714610102070999	13.9776825665884381
26.5473685240432715	14.8201670653916118	13.3540216650748000
27.5307726553081835	16.8553483103451747	17.0139895892745621
29.6195581348677131	15.2618274109907919	15.0845009639933654
42.1393616939193691	10.7373428391870789	22.4952233251359637
28.3331067466837219	12.4805672096417553	12.3987603203555992
24.2554357455508125	17.4576961380551481	13.0417384546764925
31.6707675213420785	12.9769717878161295	13.9998548944501806
27.3847049406551903	16.1987598869123701	13.7952904569325874
28.4400212223222049	17.2687603926742348	15.1577480757231928
25.6934065588467071	16.4859500233519469	12.5932174588892476
26.6885112582763995	13.1460345773579785	17.0199563772249078
28.5392985254731713	14.1836562086590448	13.7415895957036192
7.2719697326655606	32.3630476217705123	36.8483435087897391
11.8954725067634257	33.4803168932147059	34.9731613158264878
15.4010402544306171	41.3694213876224168	29.8525561799655854
10.5284529114768812	9.8338037000341849	26.5655004223054370
7.1896985666457489	9.8343875089939470	29.1504400656475546
7.4096952608668989	11.5750661277519988	25.9561610761550128
12.8503753855417511	38.8824814941062940	28.7209636149772933
14.5848368643886008	42.6995672409285305	28.3365372426193538
15.4359992836169990	37.2575103389398734	30.4990559382904465
13.7037319543173108	37.4994404047658207	26.3014749054052217
17.7271230420366486	42.5569728147374988	28.2584571048696098
15.7370437976753781	38.2122935436759761	26.7896999034755616
16.9611541500126073	42.4313374488710480	31.1528117464421221
12.5237720516402078	37.2363174338408243	29.4287419209893386
10.2189099165894284	8.3112823151116384	27.6849547599072139
14.6387709058813318	39.2980772158145371	29.8842065260073220
14.1071757911644298	41.3121458203806640	27.4319604262392964
18.2159919331135853	39.5093531568020353	25.2791455247077508
1.6374730063445593	7.7296664430641933	28.0062144162990236
3.2624266973049414	8.1477109898586253	26.4551350191093846
3.8571929927962443	10.7079007525153713	27.5378522890529247
0.8453350423600681	13.7051475130621085	27.7723391804607367
0.4504559105817000	6.9093473440376592	28.8398497040248643
0.3216191141404166	12.4660139262316800	25.8827405979666274
42.8882794880256810	10.8239083763370374	28.9195250634298873
7.3331322136447881	40.6608722712092714	27.0569004485082125
12.3889671425812367	36.9894486927455191	27.4741924460637854
10.9137350940568698	41.9191836173203711	30.9396778252527014
9.6665022522093480	39.5904555842319184	28.3763355609494354
7.7226975930900439	40.3045324382993684	30.8612431446582001
9.2874582339680192	37.9749454014508174	29.0230759131973599
9.7141012840018170	0.4846718573541418	27.0544147359315161
10.9724371279140804	38.4200308298157083	29.5710709764133632
7.9424645350616450	39.0791495812321301	29.7780260892296695
7.3803086721338591	40.8269792854721558	29.2918023644797607
7.0759505587508986	37.8614618565094219	24.6553385987998013
5.5821117442406010	9.4786264278387939	27.5066756718867502
9.9276083361272089	11.4077400740855204	28.1169164531927542
8.5642740676170632	9.0253549675255087	26.0850703044685481
6.9867863254681737	8.4280742144547656	27.8587934228654568
9.8268838257839608	6.5805759767990324	30.1184203304283642
8.5023211154978551	8.9441779733924438	27.7271402234388731
9.1222505271464343	7.8238562451134923	24.1806594981616954
8.8058791061218145	7.3831896002088184	28.9352526673452957
8.6062481397957171	10.5852948326322558	29.4271614074537631
5.5824291147382947	7.9122224088056452	30.7253763728697891
7.4063081451897697	6.8365804666223235	27.5885885977878438
34.8289613481412843	2.2214908232198618	25.3214204761398136
41.5688714645066355	5.7592121181845650	28.4354375412641929
40.6015012513909994	4.1209644060968094	29.7664100031521173
18.9171823731559101	40.7008439646301028	28.3250735161530187
23.2352119197361802	37.3559091783815447	29.8533739558035336
21.5015129420633109	40.7338687943211184	31.1039749985507008
18.3826022789479246	41.7909795706332474	29.8671945379145036
22.7402511850467164	39.1420850414688317	31.1153442330330350
25.7782108969353061	38.0641652174082239	28.0910323918649816
32.9296123420351066	2.5706170432560000	25.5487184653353765
34.0292053321694397	0.4283073993520328	29.2106745166086981
30.5871542079963206	1.0396525337674225	29.9399718046767624
35.9492699001525224	1.0584550402724344	30.5686244290180760
35.0128051656158803	5.9615439098502936	24.9607507371336155
33.5008243367225163	1.1000796860794226	27.2844644236608218
35.2656571568389694	1.5819628596500903	28.6164299819752799
36.1115032593716947	4.3929779927498318	24.9771894963720840
33.6599505347017711	1.7125230800390889	30.9648298039746876
34.3282611397172204	4.1433019603244077	25.5376694375512905
36.3418930531029574	5.2670997772439829	27.6937154124338107
29.0477208122893913	1.5349784208168042	31.0102865539228425
33.9557953849267378	3.8134338349608532	30.8785981181255593
36.4073714443623118	2.7944029220954083	25.0772018460327715
3.0921496253901335	9.9990773600259573	25.9277558102355954
1.3341078622938483	10.7525975331640122	25.3856034284015699
4.5847767891450557	10.9419116179053031	31.8512495670653557
1.4043518009089702	6.8993353993970281	26.5803739390778198
42.5167806122368930	11.0448605945333664	24.4999253934095549
3.6130473666662573	12.3597603587406901	30.3169933294457437
1.6665718227338415	11.0078019941819569	27.3447815581689966
6.1930431022724211	7.8187730523606120	26.3029460683962313
1.1471463465818856	12.1480092180112180	29.0179865205842304
5.1549539039750307	9.3780934535753655	29.0434925476813639
6.7833406043986129	9.5737986389640639	25.9365226880934046
16.6729859719062148	9.8446475629344086	30.2638106329830769
4.9832491611745011	9.2880397720600190	25.5619340785417322
15.0962070356567963	40.1074164260797872	26.0452292232508604
14.3274871783726141	39.1977700643825884	27.6343944498464289
17.2540978323229908	37.7808008108805637	28.5779117553503852
40.3155052403020875	2.2281182109473816	30.1324886187403393
41.7318069785415844	3.9952028369088746	25.4315426075227755
40.1189634444648533	4.0196072519242092	25.2013612259609943
38.9304019137557233	1.7175760422233657	28.5312657536423053
0.3076941745825706	5.4680791635341457	25.1807173277820091
42.5604729501241650	5.0531146117268086	29.7010402294442386
42.7454311719105320	33.4777160368074433	28.8297627486941721
35.8206090997767745	9.4530187865403654	29.7381472034895857
35.8309199542767871	6.6928935481567198	26.2989397188725320
36.9129605807557084	10.5016483518160264	24.7856879559884824
40.8834837983042263	34.6111272527296165	25.2503280868815274
42.3050654336085046	35.0072550013332133	28.9485434359155747
38.2798183456226582	36.5976929957355637	28.4708984413530715
42.4962993745467728	30.7747492432645124	26.5576864930854022
36.6068743931171028	36.4215738145377941	24.1222569248723566
38.0853242148047855	31.7858641270782911	29.6263268343621604
41.6557931992752941	34.9031583212052965	27.4239999894094204
41.8288921087015311	31.8129455740613487	25.2090719615889647
32.3969932360703012	8.5654687844138913	25.3672355739473367
41.9502568055535079	35.7330823323371831	25.5908402036008340
28.5597234134861360	11.8225503037457749	26.2039127371536118
25.8649175579760531	8.5845361462620904	29.5648020485689464
27.6415201410394076	8.5780088389459550	25.3518024460510070
23.7637998094730065	8.4096612495945919	24.8701949256461958
29.7690658838957241	8.1361355037132679	28.0412008458489730
31.1263944792907203	7.4191029640374460	29.5633560524924519
25.0923103365997129	10.7922491001926737	30.5214286304595213
29.5358418328164838	7.8887324684915914	30.2569761991034163
28.9566222620158094	5.8023143766446159	30.7119435602456718
32.9583216477480221	9.7804386669291965	29.5470697156442981
0.3035353544896733	7.1784703443410827	24.7895444267709522
39.1826812942949161	11.4460896409810751	29.9965438449626127
40.5051140185201319	10.9301113136963757	29.1920939713609471
39.9838027236847822	12.7208929030111566	28.1846268030418514
42.0359736214817303	11.0130318012424748	30.4431479644350738
36.2277923371847663	31.5533779917222112	30.1617999825697609
39.1333775517721989	36.5192722081264520	26.3176364129483673
37.9880641648107797	32.9927888676912602	27.4254887499534945
37.9792763421359112	33.3471315536008532	29.1059138501919286
37.0731599365635205	31.7284277870920555	28.3012401817779669
26.0466334124790393	6.2973090852702329	29.1762023582507055
33.9024891176801120	8.2400323791944245	26.8169590027858256
34.4240247652047913	6.4134933052634535	27.3703724776563639
37.6765592929574495	11.9373757850588351	26.3822535674475205
35.7111425203184680	7.9310851773715791	27.9291253284287642
29.7875715797737506	10.4070397024457346	27.4039593261672536
34.2366681848972689	7.9094070832598513	25.1295636810753109
34.7134591595340609	12.3707709105044792	26.3026739682818445
32.6482812530547690	7.9539827741856515	28.2303438048756838
35.0059909963226659	9.7838618263929966	25.4408538192982121
31.3555471274444137	11.0982391963145037	28.9260085514517193
12.7682454471612647	10.6113555035214322	29.9735881172260434
24.3333363356931294	9.3432713295322678	27.4933137624381772
4.2800836712891819	41.3624545873888820	27.7903785930887146
0.5525710436731779	36.0601644472296385	27.9630991244944092
2.3960957384965411	35.9137231772847727	25.0571319083678503
0.3562577156999958	0.1095163345461347	27.3854058646076588
3.2488389363134771	41.1137480613036388	25.8683271897562292
1.4406415687116034	38.7491890372109467	31.0471586437821934
1.6473756460283941	42.8060059772477928	28.9793414637628715
2.9499942681681546	39.0405692239705076	30.0885562774450932
5.5136994207323493	42.0822215459829181	28.6746982758087370
15.6853140543308189	9.4895077685404772	28.2162972619088315
23.1941469145259518	11.1752024324329380	27.1898218869887138
13.5208955225718981	11.2884643581810948	26.6532328286122073
11.9712155823487745	10.6967875908977064	25.1785764410943820
13.8900336524072383	11.9740308950165986	25.1412866074516401
14.9249453104217285	10.8729072087766312	30.0491390658304773
14.3155178898552506	9.5016185280345091	27.4250632887478538
17.3594245322409684	7.6299380734278870	27.6425154422532238
15.6081582421929763	10.9924101220118899	26.4190451019847750
16.9415161025657284	8.4945013142512948	29.4777521574141588
11.3402022660482817	9.9599500400134655	28.3023931828692419
17.8134904219852643	10.5968387192749951	26.1815082029040447
24.9028572356900959	10.7602945950666147	26.1745398636280875
29.3718120504880567	7.6318986305089931	26.1109549416735227
26.7356698825063539	10.5376394550807753	25.7978510620001771
25.6445417528326374	8.9308698145299861	25.8182500038975924
23.7556647141013073	9.5960549782433251	30.3959725542981758
27.1704566758002919	12.6597419655318681	26.3081035802683232
30.4572145018892684	12.0137627754150103	26.5854919954754756
20.3778869863080985	7.6340024607295849	30.3320535922114622
22.7939173200581600	7.4953496368829899	27.1558453431766971
22.0083547753499609	9.8178415714215461	24.7450409775968971
20.9871037096331534	7.6307145033603678	25.9599626882621806
32.3574464858030666	6.6833800325611072	26.9646804764057357
21.2393128457431253	11.4158713518975379	27.7469928697041439
19.9359456270055695	5.1806500125661454	27.5935712707914362
24.1400669590024641	11.4238043148220250	28.5703993935677687
19.3096131117961320	7.1432762335824336	26.7488564369914350
22.3379344366534696	8.7525412280377868	30.1649799539738019
22.8325084579024598	9.9325582155930832	28.3576103841927534
18.9205290502529948	8.6807591535650506	26.3225389214372179
21.7195442884994101	12.1533742363158357	25.2211068042521056
22.7690932253524601	8.9325365479590193	26.3280715306900852
23.7097438833965555	12.4117678468811228	25.6748719629527784
0.2909383099058623	0.4837933206142606	25.8035561144053354
33.0687401753773216	42.2151674651856439	28.0048760842083766
32.4720604657876137	37.1424327528332796	28.9052812393903125
31.8535602322617422	42.9779136500694037	26.5542008684711419
36.0718205442853446	37.2687971068562476	28.5728701473750064
33.7436699324125016	38.2863844527227144	30.2906452657759928
33.4707700674240840	42.6492887320331633	30.9776282193053056
36.1786955148325902	36.3706331313196074	26.3699006473610282
33.4544330683287612	37.7270337424654514	24.8916621304587515
34.4610709614578852	41.3683531855960709	29.3860512342363371
33.0609639403875377	39.3733882443964873	29.4664427455499940
34.7155812129181456	36.7266207261748718	30.0314890003051893
2.4034252968949574	5.0326284146424234	27.5823086218847386
41.1275977342754899	39.0107343445108867	22.6859883886909728
41.1932289565163643	42.9775652748121786	22.1876290972642138
40.3534367738895767	41.0266994009540156	21.7468410566890249
37.4807276034856116	42.2595893916317067	19.5198780308107906
39.4175838460500785	42.8527433465919216	22.6285902418107554
39.4255318283028373	41.5174310550432182	19.8182689375177006
39.7313600825369448	39.6059978642875947	20.6436358035076992
39.9215736745540468	41.4481414629278575	17.9314926493355671
41.7230572281094183	37.3293000654494875	24.1689705412315980
40.5045713488604093	39.5361179609814144	18.8026449603561687
1.5252537955580254	1.9996355096846519	26.5592724193093659
6.3759325047069000	4.4440344543617796	24.6574676120241456
10.8334601851216377	2.7639345142576719	27.0912822956924195
10.0744116446910095	4.1908077919440592	29.7543865667113820
33.2061740741637692	40.5284413680001947	30.6501201457811554
29.4963464310964660	41.4256652743278053	30.2811038742491974
36.0875284255657931	42.6848404267659944	29.0707853476995091
30.7249486833364465	36.2077531216416659	29.1469119897787792
30.7477203602642071	42.4970052128758979	24.7302967116202872
2.2640315597894083	0.8057420642485189	27.2437316044116322
5.1814228372867985	0.8471475977395573	25.4357592024199874
39.0982215384401499	0.2322900733931989	18.9042800099689998
3.0704868366065905	3.9345815477257942	24.8776602573460366
3.7099990644290317	3.8538860994645714	26.7241919062174240
4.5886847799954058	5.0967831617881947	27.7022840250919415
5.3679533161756527	4.9199174388825986	29.7851121568588084
1.3915203781316463	3.8398301847416709	27.6411221964888512
0.9491810277749393	3.8400256946578035	25.7200856708746386
1.4212151875364409	1.4592777096224383	30.0161587916943340
0.1875679989945763	5.7938686836172755	27.5795341295421501
4.7280541347551832	3.5075196001847746	24.9382500725793612
3.6772093189279578	3.9223134335716274	28.5534792280595937
5.0781213712315143	4.6888552128162786	32.4884666501946668
32.7539474332023772	39.6725670994267290	24.9211988314525321
34.4940338532091388	39.4608076799486653	24.0910110568863871
40.1287478792681469	37.9208522607446596	27.2297629679922792
42.3826948006216924	39.9791634583184745	27.4438647622777445
38.2695847185059961	37.6162444733583428	30.4708781858983002
41.3913772356901219	40.8816383806170975	25.6523955180122698
41.8464335534190255	42.7999316511760881	25.5177285293162335
38.2579055050511272	42.5968351245519727	28.1002253115650902
41.2197162838224713	37.4926321158570559	26.1471260037657167
38.4660967781232301	42.5179603300595090	25.7516974116958259
0.3465782098162163	0.3487494775744635	35.9087254606279558
36.1091942807586150	41.0046363047057056	21.4674082746421604
1.7537135490224707	0.2003677933265774	37.2206365267124184
24.5776759407877243	38.5813723854509121	21.2265128431384831
27.6525659092587759	42.1290795755735914	22.2824816933343506
31.7076454698601076	38.2724937850428262	25.9659530232825979
26.9105952504940831	40.0915653213086429	21.8900185107849836
26.5546091503030190	37.9828113973596331	21.9206335202818927
27.7545141434636271	41.8745045202512074	18.4798784607671323
28.3214054382332527	38.7740313541532444	23.1516991467586770
28.8512197822308210	40.0487776586024395	18.8733104916282635
28.1725969248204784	37.0862164845868776	22.2027617196970013
35.0770675181550615	41.5433676079152079	24.2575480440189502
38.3160445558732334	0.2030563811774613	23.7192485944857907
38.0194444211538922	40.5831607125160261	20.6947583510798658
40.3032039863245970	1.5008033695613665	23.3180298652193727
38.1001587911184245	42.1803833009085523	29.9276581170556284
0.2635253350076981	39.6444993037627427	29.3661944894350704
1.0776037142365384	42.1183709469989651	30.2277292894898117
39.8954648250405128	0.2388335305830769	29.4276297400753606
37.3868764551531498	0.4361692227765533	27.3763824234561923
41.9520979436361685	42.4064687777659017	30.1006169099674423
0.1610274059978880	41.4678544523533077	28.7935399471169191
6.4402990450589925	5.4025709682930483	26.4250314497449281
35.2687892212677880	38.9866712607452115	22.2552320623442519
31.3328439009118860	41.9061190146381222	20.9542661048293972
36.3776286827021096	38.3040520207996664	23.2336468929901443
37.3519937119574053	42.2644525783631693	21.9285505543632588
31.4936895912780379	37.9975052693267870	20.9584797428733154
35.5354779110957537	42.5599210000200756	20.1472369176994839
34.2550501605561095	40.0748732340045066	21.4681629343512590
30.2022010345284571	39.5325475571866676	22.0817321131995392
34.4505357242332693	42.1560310381573800	21.4483463433476018
33.1030037725495845	36.3624312532915326	25.6477062107556115
26.3461663613208827	3.9579115164548249	29.2474168351931461
28.9500317413413129	1.7481647188606542	28.8428169554555822
30.5312691546915218	0.9784903006389312	27.8475723540275801
30.1631943150582273	6.1481285133487296	27.1547946754073202
31.4943598970760661	5.9832114154314393	28.4225730127823866
28.0155712867728361	6.3777453849217887	25.9540760661108152
29.1447153811731106	2.3909967120649287	26.8959615103141090
25.6638483198490448	2.1377038075653809	27.9238265942135300
28.5983663149522087	4.6928900553660515	27.1017778582710953
29.4595278760875772	5.8712910852104878	28.7895390450298052
24.8398746702971316	7.2940898572973003	24.3530408622453542
26.9774332771637830	2.4594701605367653	29.5795789461270608
28.6741219215955248	4.4090241691206931	24.7305238238417893
30.0909514719155240	3.8315415966703354	27.7369899331929979
26.3282245539731399	0.6869600856906564	30.9258968063461666
25.1402510717192413	0.7383922090903741	26.0236783042135009
17.9848196283129695	41.0278827373538704	26.8359536593594790
23.6350190486651961	37.0559248701815847	24.7536349813634686
19.9346638380756431	2.4377646013836975	29.5907526135026693
25.2607582453022488	1.6043505614340776	30.4853901280378174
18.7035637962315100	4.2069328732475553	29.2441506579471309
21.8223516995597109	5.4869706015914579	27.6763133895050082
21.4373114763659203	42.8865818873572948	26.4129455492221155
20.4763386312826192	39.8744666535686108	27.7381487457373801
37.7336520732650484	4.9459872102943674	28.4199433493625762
21.4770886162980617	40.8218527910644653	25.8857433945727848
23.7245217510256872	41.1414474674208961	28.4518861838604202
24.4015995832254511	39.5521516670109250	27.1935025780112554
23.9416268994389441	42.1697199067190667	25.4915385516861370
24.4264627881285570	38.1592145247994097	26.2848616006061633
21.2088092523421636	38.7099117256245293	26.8539202512160067
23.2617334621290226	39.7059686758445949	25.1912006815271887
20.0551686963800364	42.2291607703739729	25.0799198776030039
21.4896683195219254	37.6699493501805449	24.7804036247972626
22.4786237973866143	42.9280203545198802	28.2571705918211471
21.7636814809985779	41.2742471429683278	27.7382381712111616
20.3051116634419699	41.4086936722765202	29.2830474120566038
19.9065341612284499	40.1429133685587871	26.1180795036150002
18.7988810990434878	36.5622342717071973	26.7466453248248754
30.4008822292564993	4.4785883184454862	29.6155014818513393
30.9633804555086769	2.4918830215547740	29.3254858358300616
27.5993084172619270	4.9356756794156293	29.6225723731620612
30.3615848262135124	3.2971067993319592	25.8011445658988059
30.2721839094078291	5.9342860960176544	25.1121085275120492
31.4424029856744127	4.9319689491770413	26.3995217996757461
25.3477533547060041	42.4034332837097665	30.5922557227667085
15.4085675208107951	5.0967592263085919	27.9626766081647347
16.3900022577063638	1.1608439556884675	28.2074810920065104
15.9847566213795655	3.1875946121921901	27.2539259246481826
16.0891034492954326	6.8310521539845901	29.2497688821143242
15.4269183047047065	2.9758842754545776	32.2001695736726674
15.8940828707656685	0.3294076887385268	29.6736661491530320
13.4902622702959469	3.0424463235521153	29.6444223420890403
17.9907080722900510	1.0543818241504661	29.4820158132202970
28.7033520844436651	0.0964808903171706	29.6370526802542464
28.9001321578772945	40.6469127453169321	26.9200856204122836
26.4467188440607721	40.9224266911218422	31.1837734546826049
14.2779937254789839	5.9367224031698580	26.1031936158358491
24.7443872818685158	41.4899166288879471	26.6760818063572991
5.5569092143616325	3.6680226984834832	27.5930156688860997
7.0277611208699051	42.3172487480347783	30.3142157567502366
9.7967814243199438	4.5941919363251644	26.0900482143342352
10.8447468892943029	7.8477761560373738	29.1783151314104181
6.5508453320867206	1.9711975718034491	26.9668018714965072
6.8960305154406116	2.0857335925006701	25.4374722172546939
11.3466031236682365	2.3109845922568488	30.3009431938963587
10.4448005209848009	6.4245408039757272	24.9437605875937756
8.5719951465225304	2.2666855071672449	27.1181384482739816
27.1190197380745346	37.7166137332641540	28.9038873830344940
19.4839382291348109	0.3591514060985218	29.5243285976971244
24.3680037029986494	0.5629990255235295	27.4007301499044260
20.5690486090924303	3.6447061977609314	30.5866714175760990
22.0997943803962116	4.8032497945536603	31.9045482493076129
20.8742615108400678	1.6315241077133049	27.8269541549296058
20.2481030939548923	3.7760599313298249	28.4350679711259993
28.2334534256219420	41.1316524170827833	32.2550238593364895
28.5710901850325421	41.2857801826006536	28.3997006504205700
30.4414350075057847	41.8548885807832107	27.2455538209878227
30.9429625317299966	39.8206111141190107	26.3576391506234238
40.5027657118158899	11.8595620079328512	26.0254560436829259
27.2925406153220358	39.4439243955155234	27.5148021106239931
26.7055155957850161	38.5607209219086045	25.3841872393539774
28.3309628856831388	38.1424265431395639	30.2122919509273551
27.9380769033042036	39.4721505679988525	31.1601748296330854
28.5693172106265010	39.7697700513445795	25.0260453663898659
12.9282607222307799	2.0885564975532263	27.8554961239185097
15.4243937607239356	4.6908816784789549	25.9726684833125852
17.2326179518143334	4.6744451993119451	30.7812939654823410
14.8309744703578605	1.8199936532383156	28.4774536060394325
16.7508014463346413	4.7376643190523087	28.8309163571162479
23.9678409008362650	22.7024345884853567	30.6698841773269386
32.4440443717742397	24.0104973055573723	29.6450317593884414
31.2930438262525570	28.2953936547893612	26.5868643612766888
20.5644266869541603	20.8695151027457584	27.1544229546228557
17.7424905362441834	20.5949940332117230	25.5047584812735870
18.8160290183155965	22.1801404388482695	29.5883610901594238
22.7851337875257158	19.3197575168845646	29.9805870249577211
19.3137130430112727	19.9929153559502204	28.9339616867414051
20.8793060908354455	19.5271944725271638	28.7025833807762076
24.2859298025833574	22.0877975755880982	27.4020787471398997
17.8695721208137961	22.4779189495555052	25.6560008621758620
23.2848988299221169	22.8523058276448872	29.1820469358969632
32.5422355218017003	26.1001380192518084	30.4260122226641698
19.4102930254972534	19.0694488975544445	31.6187186150948918
22.5813066490348646	24.6407475895702959	30.1900711423140073
22.9199877199717719	23.5410853695237101	27.1323510348411823
22.7918919955164760	20.7810357077841594	26.5915225676083864
22.1721402032836821	17.9451467600577175	29.3344880452280670
38.4526305145284866	27.9820461275781511	26.0847635168260013
0.1392360590291329	28.9838479721015823	27.2711147721162348
40.9085363841331215	30.6824804256425985	27.1238334546747240
42.4408037567652343	29.9246874175238204	28.6619129102979606
16.1019398551379460	21.7142472329013643	26.4361507351823448
28.5821470891556721	21.5738917995755379	25.5813680990304064
29.8593498406144917	19.1979507226340012	27.5579520371495335
28.0540621083656312	20.0981862462048895	28.6903485467567414
30.8984374392426879	23.3359509550907944	31.2519672663092187
26.2086724075384119	24.7514727691320644	25.9122721693061884
26.1013971051729321	20.8946473559329036	29.7571290538742588
26.8225361094206889	21.0217123816959415	24.8322847541557863
27.2230347008029554	24.2286226839418930	32.2473905978068274
25.2792407468516700	19.4301517828146295	25.6263743656373748
24.6017583300325953	23.6965793063391779	27.7933215203176474
26.6088250751721986	20.1009291025527155	26.9268466155658430
15.6179498121922897	23.5980358250533264	27.7240834486557262
26.0004784776965465	22.8147974245069172	26.2849370336343675
27.3397281922405959	22.4974092696625441	28.6433229673727610
27.8112012646448044	23.3763627312714917	26.7101227052620942
28.2730632181356434	17.7256852343198581	25.0709933085530494
28.8736490535685490	20.3634988731727233	24.1627806685457998
34.8672765519092422	27.7441120477355945	26.9276424266835193
34.3212221904040291	25.4635151871320815	29.9402465093764611
34.5504127638535508	29.2082332178113013	27.4787873190550087
36.8196806753143662	28.6288727091454227	27.2606034045544448
31.4823177960824019	24.8772985212037625	30.7913691755629877
10.3156512331639139	19.2514500460348330	27.7090772589531369
42.2656233932573002	25.0874517348457680	28.3806846090004115
38.9150811935503356	29.4497980270981792	27.0377222112245974
6.7499794592482383	35.6400429405610666	27.0847209094069328
3.2056623526714856	33.8048628708381287	29.7861377406920873
11.4664729686045028	19.9828523712012220	26.7416270934981384
6.8942756846879165	22.7867752271128516	28.3634959967041205
10.7529149872587126	25.0293150746753028	26.0781377059567632
9.0731187114870213	18.7121775635620580	29.5550979849512174
10.4001672803616803	20.8646151645473239	25.9176419616079841
7.6148861974216677	21.6636274502025330	29.2576269311854347
12.2446206795584356	23.1427586299929118	26.9402262829268082
35.0844148540322820	25.5274305842674032	27.6977807855298295
8.2089358626402422	18.8985785798723072	25.7734464602655819
3.7396136901388020	33.5957422666890366	27.7703107861366654
1.4970049339842526	34.9256533190684451	29.2966872498071886
0.4374871483504894	31.5160889463188632	29.2378049165351754
42.4579456072703749	32.7452991550152532	30.6651634973324718
5.6523840321459415	32.2814568250951623	27.5290161889934701
3.1583238335218704	34.9200397381386693	26.1499540343553747
2.5163033688877281	32.1596208468083518	28.5855300311737004
2.4291467322940541	35.5123856912539324	27.4750840408907600
2.4105595652769556	20.5632652915548029	27.6149401838323953
16.3627394235827737	19.7874394507472999	26.9308033326672138
17.6700388538473803	23.1713096180776290	29.9306758800237844
13.8705040831194921	21.7259674301056904	25.9894473870935805
15.7445533911853062	19.8911657734764766	30.6582037353588355
17.8361658329218535	24.6892846439752418	25.4377156635424733
17.1045060382275054	21.1769514908074825	30.1340855528328149
14.4278946891875428	19.1738430522550267	27.9238415440162022
18.4464675576536976	21.0509394954268885	31.1586831024113025
16.7548581986115899	23.1694046205715480	24.6819728310543347
13.9365879995878412	18.3456902726394482	26.4742645427910048
12.9224706460282945	23.7127692987943703	30.9894387312241939
29.3713888733097015	28.4254965461544984	25.9110050937368115
16.8826617143039357	23.3367433616834283	26.7879736186591408
14.4307855465922454	24.8805384814445780	28.6104392624419788
16.9317293353009077	22.3812147331563907	28.7052605711481661
14.1505962620617396	21.9503620821025116	27.5496570557819815
15.3766607276894032	20.7054678968992114	28.7621881685996641
14.3769343357508852	22.7586892392228393	29.2679065107270624
13.9988642439555164	18.7253209861259862	30.1442662410843027
40.2028358360363498	29.4761119091004566	25.7572855160868954
40.5753531885110590	25.8467437619788534	27.9727431122632701
38.4327863543162138	25.7771370028271711	25.1682056336754414
7.5127770142625030	28.0881961152597164	29.3115241509904756
8.4223321224568917	24.9472837927057363	30.3051042746093167
9.3549545399885350	26.8704854300683564	25.0924101185242243
10.0119730215086289	26.3232012451728181	26.8626471786998415
6.1501255553361140	30.4104754054900788	26.3955225910171940
8.6125336099435650	27.5245789327156913	27.6857353274529991
7.1374081776865754	26.3321978506198278	29.0302406912982676
9.5743530682975742	30.4434620528824880	26.8144442360899191
6.7555558930739767	24.5832872137917029	27.1860097333498700
9.0597610209912229	26.7028493765940773	29.6464711780047772
10.5420621554291056	30.3499090701944887	29.9814505301770566
7.8237884655732994	29.3516826990950648	27.3956719356183456
6.5497399998042862	29.5343785415153945	28.5408235518788871
10.5116739047999310	29.5187369989965660	28.4627057172531046
23.4220837336243832	29.7023317444535735	27.6402647790825995
21.3542251054596406	28.3718545038502441	29.5268215864821073
23.5002738842388119	27.7275145280207411	24.6807018503088891
22.1066336260733678	30.8690672868701306	26.6500751842471253
19.1598801993765946	29.7675461754865438	30.4018211246923755
25.2515535728098648	26.8158907230885468	25.4075376609609584
23.8607024126866953	27.7489536988408680	28.8449050647978886
18.3819096463297136	28.7523669649064182	28.5340659928191229
20.3089105026084056	26.1484349552696713	24.6191620752520990
13.2517522979787383	29.2880470673485078	26.0154616077296055
13.6203420801359698	25.4416936350373177	27.2033054405267727
12.3386482889225793	30.6195723320762987	28.9018714495658919
15.3647880791723264	26.2512837827008489	28.1407983027612012
14.3640980726908918	28.3663116876872472	29.4867325887125205
13.5837966346184746	29.2330098972599295	27.4697995217719999
16.8166536385825367	27.5907097070689744	27.2097362180078051
18.1954308840616115	26.6803429193623991	24.2193018189861711
12.5897469432103684	29.0935144142618718	28.7309782180222584
12.3537922535991811	24.2368093690758961	28.6459536217245336
15.8796061356422520	25.4613114760747479	26.8651593190327453
20.7907647849098218	25.5930174512509048	29.1550365939885907
15.4592627633899635	29.7456940289673213	26.0883385289061778
15.6202902752696318	25.5098481719040144	30.2516659644344656
8.5085850532647260	29.3379723758419111	29.6014718931985534
7.9611348722618489	26.2433687859280269	26.2909638646630235
12.2319490700338456	25.8710024455903245	28.4388220171606179
12.8918379289139295	27.2349456738224767	26.9596192023169543
8.8059753734404058	25.2190114968531951	27.2797960716836769
6.7010757095850497	24.6737780413227483	29.2213208095832009
11.4783703589341748	27.7654266685416253	27.9266115795687462
10.9326739041125567	24.3422644558792776	27.6206450746721899
34.4273681372860310	24.3784177504155224	26.2129452590749956
40.0382051164111061	22.6128355767300953	30.2641797113734974
41.2549783675813657	23.2732413573178505	29.1366828967801510
38.1623281315003666	19.8577299477687674	29.7566246976030975
41.6414982385401586	20.5621416811054374	26.6960203786129320
42.4472215559672179	20.2539667403046124	30.4926863921200102
39.4464479300919777	20.8490216655127369	29.3246043816387498
42.2415773899139992	20.0080982195361834	28.2954687936466343
32.4658021604408233	19.5476465040740450	28.8166259517879659
34.9176286500045165	18.2776597764973658	26.5347399669962236
36.2904055336044564	19.3497133622616388	30.8868588562470414
34.3227268057071413	19.0538032831180182	29.8540052331677082
42.6869254204308604	23.6219454492843006	29.9178622944730783
34.2291300310644431	24.0966803567430823	29.1684067511746967
33.6318849931198827	19.6619530774314875	26.8769323527167714
30.9268655839045223	29.9066701003709028	27.6212743736246971
27.4709793891142802	28.1458344323228076	24.6118140865713109
27.4591106118572803	27.9259901563364927	29.7620258061802971
29.3688400899047508	29.0616581795826896	28.9996447400524424
26.3444608495435055	24.8420894806869299	30.2440657055578477
30.9621039513875402	29.9870146805906543	25.5893044722390393
25.1826429645795962	28.7456856244506938	25.2696312899010742
28.0682613721083491	27.4384640367737838	28.3597305188006708
22.4173044757882494	29.7396440133853872	30.5655024175547112
0.5624034744060619	30.2170211972679894	25.3463338109931016
4.6646283690896002	29.6014776693086858	29.2958313344073140
3.3644172807651667	24.9502629322969227	27.0309511280625792
3.5813060353631552	27.7409204421591760	29.2314470700923756
7.0411112214488059	30.7917705828623163	24.6175703533992092
3.2490743119936223	29.1984800372741056	28.1162370458131576
42.9479716294717448	28.1782685939404693	29.4203900459217529
2.8894455065379070	26.1627225174233473	23.8548570428752917
5.1915221152896454	25.2737008574144220	27.9641696189474658
19.6669343153768814	30.0707808658843732	27.7129733943347816
1.4770649210862528	24.7491202131313770	27.7960107731937462
23.4427842635963373	25.4562803206076147	27.9732893039849060
20.1708106761454964	27.7858183672246248	28.1916818251396926
24.9054371248262960	25.6980369805972302	28.7857126742720233
22.2105125962510321	28.9624275955438364	28.2946937450059472
37.5568715142091705	22.3455511669886775	25.2558545013128963
40.7177542360954021	24.7612953254277777	29.6973959675285109
41.8224028984391794	24.7477574581433366	26.4574989612127141
36.2325124007093180	23.8864716733172209	26.4536651762451811
41.5584270835949638	21.4929871805091430	29.8396396214857340
0.6087543766778699	21.2859080328559074	27.4919149649222341
16.6832497211616584	14.1954482064547385	27.0166633370034965
13.7581330448936558	15.0794564849088033	26.7859941125781766
14.4175505025260708	15.8500855432929555	29.2147576448256245
12.5373011697107710	15.0501889524506041	28.5318515037713034
16.9419739984071214	17.5165570663750643	26.6296431985001973
14.3303099695867786	17.4296015038811802	29.2713878935014336
18.5233821185832532	15.1626557295622248	29.4358782771188530
17.0971986822252120	14.7068927680423442	25.0160966282284960
14.0909906808406813	14.0256863705960200	28.3622900950071326
13.0957587765760994	13.1949705370381967	27.5825052636722958
15.8358963510313338	18.5944161149283360	27.8365010772819659
12.5739606501549179	18.5642869216512523	27.3919884950198202
15.4747274457060797	16.7004859015880243	30.9689593941540799
16.1253551563346420	16.0310188822130897	26.0057115819129159
12.9235749742558035	16.5651384906435943	30.4733468301129413
25.6926394953368060	32.3378195853245458	26.1570855206702255
29.4886678001822062	32.6535197658467311	30.7302012602030246
27.5682275459583188	32.4463628848443335	29.4812136088590826
25.7360608330232274	30.6182555655140014	25.9926691590219967
24.5183290264656257	31.4422754655594510	27.8787044075249035
28.9368814133740386	30.2904638022050428	25.5390361898040474
30.0122215027804096	35.2764389767587119	27.6687837472070441
25.4013516251702711	32.6159261761655159	28.7615904872219836
18.2929586363011012	14.2675169506683446	31.5382896630951670
19.6797339598635190	12.8735167939709587	24.6029656863893216
22.4926504927748354	12.7407222185854589	28.5844567814895711
21.3087020270923375	16.8253728827353761	28.4435839085771498
23.4512778051047626	16.1516382332965946	25.8648039661391351
19.3296562050275362	15.6273717954138487	27.9620770377907384
18.7463730510730215	14.0827758870942148	26.3467610058069788
21.0489133975468690	13.3256535177654243	29.0865517747526745
23.5931064767713217	17.1720619982493403	30.7599523103456320
18.6482014582740696	16.6930983583632440	25.4030520825730015
21.5009707035971189	16.3343278276813884	30.2669167249873006
28.0674366467198446	35.0568153892513834	26.8013041305371367
23.5429945984877058	16.8047873521203570	27.9187270642323746
28.5123275440055579	36.2994884428272115	28.7150691661209301
29.3976187284165356	35.7140375637945553	25.5497509560173448
26.5349832728960635	32.6608197299293010	27.4616714021688928
26.5377112810088711	35.8825975755349020	28.4797043736799012
18.3053024863919909	14.4924846166886105	27.8366812267489436
14.9950854242519593	16.8454659897694654	27.3938914124701824
16.9702816174077427	15.9020649923690538	27.9159733886517429
13.3420210006353610	16.5603832440443561	27.3911918295919961
15.9680927682253877	14.4994485628467320	29.1375915932468388
33.0384260712960014	35.3623078037662282	27.5821281035232566
6.2918590482286145	15.1896762187066034	25.1430327090838404
2.7246086014771200	15.3799839944630357	27.9573009221351967
2.7068453261751597	13.3096640381844917	28.4239882232022794
3.4613678317088250	12.3564239851002942	26.4879855906201733
0.8600278920464079	16.7620242873229017	27.7737264089238387
33.3822468097642968	33.6674027853635209	28.7158230464746005
31.9195289861206106	34.8892330044676555	30.7814555140406121
34.7440392637827955	32.5631925835444704	30.1597151198785589
36.3727941032696762	33.7509944778096909	27.9280074216770693
31.6518912770278469	33.9363175406386972	27.4213894467451489
34.4698428781058581	30.3312065733334926	29.5519346853753291
5.3293919926587821	18.0499261522519241	28.6681187295570723
34.6464187733051148	34.9457386265091969	30.9316796103682243
31.9832208254569466	34.9935446010498197	28.9922795277314016
30.7414509280087174	37.8555628152134886	27.8720535155421203
35.2730461896783538	32.3146388749115658	28.8065118162075322
35.6271892962565033	35.7580385811740484	28.1614753883910716
32.8740021481757481	34.2208684749552674	26.3775766980840558
41.1157437877308212	7.7123809952349829	24.9773975643800377
37.4680409816003461	6.9820940323370282	27.3269388229691046
41.7304858184885816	6.5556053807156687	26.0806377026962153
40.6882739279749757	7.0908928067515484	27.3233361701537376
8.2112515018540631	14.0077527665810049	29.2956504187217064
10.0637512474842818	17.2693688739159477	28.6262987226047372
13.1089737566841631	10.9893166320800617	28.3015682586298603
12.8795980210613443	13.0629978857831830	31.3515085583441895
7.9157672097940264	18.3996035591725793	31.0246897677636682
6.6934206831652805	13.0233957106398979	25.8582051820571905
6.9359374728373568	17.9547865118996341	29.4205431122487937
8.6616804959471736	18.1788184859776472	27.9802377653768310
8.3336776595058684	12.9014489897065818	27.4805133165848936
9.0607251212243849	17.2107959382887401	26.5997556575752405
9.8656928165384556	15.3112092456959630	29.6718386025190703
20.1922887608166661	18.0319629207604812	29.9108474258404335
12.8166207079151508	14.8850633242704742	30.4639513305861982
7.6616466198849933	16.9999496895531514	25.3203059401281685
9.7711630254047801	13.2377752451390016	28.7517708974679209
4.2952621505526434	13.8964714103762859	28.7824150865448978
1.8792580194049073	13.0665809783926505	24.7842412999055561
4.5707350426361542	12.4659925618768739	28.1704130879088339
0.0233271889833876	17.7293118391676892	28.7713556781071631
4.6244634260598794	15.0351421283689479	23.3707867094718935
1.8381853511456721	12.5791987950325783	26.5105574367768284
6.5120635363253712	13.5890597520579366	28.3193087410147406
15.4745185707962900	36.4634478691434722	25.8348492421665163
42.1399232640452865	15.5914911435992387	28.2339111424823095
37.7152220468881296	12.9330200712500947	27.7377727418012014
40.3934753704030314	14.6353794201596781	27.5626272801305383
36.5690858197014279	17.3569394503190679	25.9671454573472325
39.6389674192786927	15.2609675934270879	25.8136968334716919
41.6876590473078039	18.4185699653793975	26.1898404084098750
38.9956017703734688	14.2591442319751476	29.1436907560825063
39.2902050866237644	16.1858032424702856	28.5336683455657791
41.5036299438015561	14.4631244780463657	26.3218096405253661
16.6622219345923384	34.7715298883656700	30.0059429655736629
14.0933322674112116	33.4758739370569529	27.0870276116953903
38.9640038530158819	13.6915671572736954	31.2933999483305989
13.5843254191449816	36.2973897595308586	30.9273222162070063
18.2610198124893515	33.5481444544561072	28.2124822112416993
31.6208229607560369	14.8455816858360450	27.4883494502873731
37.7927602719507476	14.2123157591787663	25.7672875974586333
33.2593296248923593	17.8193576578625326	29.7199457492959525
33.9779141802059925	16.5761707921380292	27.8455125587910679
31.7676567264814409	16.3697667694813873	29.0012869403428653
35.2448905009832671	15.0033337505298157	29.0962974441573330
33.3431864041358281	13.2077289888684355	27.8463199244548036
36.2704264940996737	16.1751772110728957	27.8244574614552640
7.7455713863604956	32.2427617503619430	24.7006489658152510
1.3477911758245289	19.8360055963672366	29.6582704494227869
2.7926207087654227	22.2964913044713740	30.3394941803197717
5.0020537104390854	24.2665228974711980	26.1052924074150354
6.0507582351192948	19.3935096411494570	30.2624349187468518
4.2716834258432961	20.1785585647719969	26.1026373208117199
2.8658985786232809	23.5921040206048964	26.2649109185995755
7.9877275576868021	35.8952816988786978	25.9013637237807117
11.5713673931819461	32.1504187258584153	29.6023991242791844
5.7012022897903245	32.5661987307745591	29.7760983115434499
12.4196418557198598	34.4235557638724003	26.1988643263791054
36.1086946991936344	15.5489733925424005	25.7379655021313951
10.9455033849522643	33.8454235264322847	25.1396281247719990
11.7366844999461861	30.2969085849141457	26.8103910200134941
7.3490446269568395	31.0244473134565624	27.2462335614068003
9.4804073215281122	36.3756441004050686	27.4466396747414692
11.4174349619671780	32.0072690553232917	27.7784538659077782
10.3309759087542279	30.5959354616003409	24.7432966848009421
7.9011858358040081	36.5880167598000199	28.0349878911876509
10.8928707879672153	31.7649366728257370	25.7662745216517415
37.4904829846850731	14.8458659136775815	28.8046840307362579
40.4986130805601761	13.7682232439669789	29.6837658859780120
18.8526398832094273	30.4413988250910599	24.1799784070546764
26.6523549562083311	18.7109902139880475	28.4904558096965026
30.0827387803305832	17.5210355226416823	28.5154175456495516
25.8285803512582639	17.3099614875775565	28.2562504274549546
28.5805440370452821	16.1887068828121663	25.7048984943814354
28.3383621354060189	14.8271271409789041	27.5480682083660682
24.4790971497237955	13.8156416170228589	30.6149547243508735
26.4852698281734469	14.8360292267471987	26.6795646489602412
29.9135685758693803	15.3124324003761583	26.1375391200652025
29.9073965230231700	15.7274316967530421	28.1131636854861462
21.8038507584090446	33.0408556503563915	25.2008919896995600
28.5887430508044069	15.0967482049889981	29.6986772547971327
19.6062981180037106	31.7291718125680724	29.2169238194771594
23.8164452755201701	32.7553693746542294	29.4952448489788317
19.5083657009809954	33.4315007545090310	29.3687205218332821
21.5687404065395967	30.6558573857899290	28.4691745013094746
24.0949052439125069	30.7469469585984925	25.9890249240087208
21.7063833022557944	32.4553492497413387	29.4121424814646453
19.8488062623338095	36.7837961029259048	30.9349949196480232
20.8181197976479595	31.8423952667470296	27.7428307756574135
20.0739716395495762	31.1211402382774729	25.9553326394153459
18.1043329374600823	35.2962155347910382	28.4228748056315865
17.9429831306585470	30.5243777589854197	29.7507444278782280
36.4997681037291741	18.1870439811956466	27.7558884954139025
32.9648231651103458	14.6539216192029258	28.4597716086501400
33.9332444274192326	13.3974442462985976	29.6889672516869680
35.2315355426728374	17.0657327151102542	29.0820837316792051
36.4726266279984301	13.3115003095679185	25.8536412246471983
34.8114294163100197	15.2546516942258599	24.0736709077844182
16.1462357576973758	33.9038662777732469	28.1748994069265457
14.6799701685429334	34.1729895263076173	28.8408416500196303
18.2671583641880027	30.3756436341537288	26.0571353994410586
17.1034233906271709	35.1131495251939896	27.0250841306011615
28.8655458454610532	40.6516036010308142	22.2432196938883955
13.1548230319392836	35.4964104945077210	28.8560580868565353
16.7378547830991629	36.8566626882478872	26.7910398270612724
12.6501689675466373	33.6602528952195286	28.2599727105099916
13.4445016928040193	29.4871493286328317	30.6893391458789324
26.8261426281249626	14.0578507002014810	30.5552706158180776
29.7875342163389263	17.5078709463171371	26.6772103822341826
26.7447179444207030	18.0513137091179701	26.5371005569407075
24.5311774640625089	17.9886567046829846	32.0735263089077876
28.0274853833347137	17.4518877375252330	27.3849903638361454
24.8692405687716303	16.3896456201988308	26.7955464117330173
12.7065165728932357	21.0983971833150754	19.0169426078140056
22.0461693334076436	9.8199822481651271	33.3461869227644456
24.0573456084853561	6.9628259233363208	32.5298643719039404
25.2593188834004252	5.9147537252027442	34.0533208501150142
23.2250775814453512	10.0700598259202323	31.8614945200541193
23.1289941240856329	8.2691424564631060	32.1520195577219852
18.3391825664720365	8.3851369822196560	31.0060638849198931
17.6685195284714176	6.5596205315728424	33.6827119428488331
20.7836312170405790	5.1480153458599176	35.3284514485911245
19.8117117212602629	7.4125712269977537	34.0946197963774367
20.1591071130309771	8.7879452818285575	35.9979120520401707
15.9621385517927799	22.3358777987074468	22.2583420197925470
21.9610873827660740	7.5601494572894250	33.1150084746546085
13.7938148569086305	20.5653635290579615	23.9291719335616442
17.3627626757581268	25.1959379945055737	23.9310554168069807
17.1909057391197528	20.6082748502219353	21.8428978324413237
14.1779129565673685	23.8141681693209719	22.3376533579914849
15.0592523480635130	20.5465492010697339	22.5403410085735239
15.9078078583787921	17.7783697532383549	18.9307197826298754
18.3382420478042114	19.5512480340057060	23.5136646948264278
13.4241991780864236	20.8588122205228359	22.0490644324378238
14.1293272001986754	22.4659202250555161	23.2239739352543850
14.3583276970686473	24.5386510201712227	19.5264820913703616
19.1192832687013166	18.0333444434714778	23.9802007644665771
24.1875956534557979	22.8107825073733395	25.3538471718965148
19.5680107178963851	24.0462977284705559	19.8924061643199792
22.9117235602988778	18.4524589470951952	22.2750500931408588
20.8963309659675254	18.7658531349157940	22.9935745277987458
22.6192191189079530	22.1943225256853900	19.8684695853186426
24.6000952043028605	21.0273241329172471	20.5513182246866712
22.8512027754627383	22.7428036735444259	23.3595738187853783
24.0122008758326224	18.6254911278307773	23.8323903202823146
20.5117249711353224	21.8539142353392180	19.7476178177189006
18.6516997814190937	21.5305065127342736	24.4867104413455188
16.6998436518095410	21.4781118659688914	20.3347938913192294
18.6990479503802192	23.2138123258755975	24.5264777569062176
20.6929330957357713	22.5056787452687566	24.0735362023660286
18.6109839068989515	20.5995922219299743	19.9740661536110942
21.0972332552406137	7.2266699415912710	34.9666003984089073
24.0051579964102970	5.6156553742903021	35.9757843742836982
22.4677477120682738	11.8550980012004086	32.5337506467235968
24.1056171089403755	9.3556731422526003	36.0120943875722119
20.6189290102043543	10.5765544256614969	35.0908599482157797
21.5058617793240678	10.4090631463377612	36.7844134983169937
18.3594707999722893	12.4522740029975267	32.7493976902225441
1.3076218583741324	18.9246631463577017	23.8666474526364603
27.4340997028792621	11.5989086215529831	36.3173031436573979
26.8812275472056328	12.3109793768749931	33.1615093862404962
26.4163894653067572	12.3356494930850893	31.2550996927754703
26.2655210948689799	9.9695981719650959	36.2486379571902546
25.2010239415219424	9.0803917389410316	37.1678142032940002
26.0809666354772069	6.6898971838207455	32.8817820262418437
28.7206997935708550	9.8735082490220893	30.0017516921215481
27.2184522129393045	5.8191527016761349	34.7769312112466338
29.8984256927659118	8.7114828242433564	37.0976746145909360
5.6967507489245035	21.1852284599679273	21.1975384866525083
0.7362026186694457	25.8932497649374014	19.9247153709246270
30.6974483704119905	9.3618560102732093	32.9394625983330442
1.1894089945567154	20.7908156801165092	24.5898253272620408
6.1690553038447824	19.0035486643871572	21.6597792143868269
2.9421545130817908	18.0843285882956764	22.9415856103258271
2.3114640771403852	23.2821887651152011	22.7027181657544972
4.9159687403742831	22.2392029524849626	25.2844212333434477
4.0772203894566230	20.9826047012493113	21.0849453141276832
3.1211342455949751	22.4928209848454159	24.5714811956937496
4.1076814254701306	22.7256386725194233	22.0123980544280933
42.7165041597292401	23.8212962254158533	24.6031620717808366
2.6055497583520015	19.3500820775576194	21.9699349240257860
10.0097206088476351	23.5769558911720765	20.4436911737440496
14.2404208353175576	18.9575144256535673	22.6314134550967339
14.3480976534208313	18.4779241091646256	24.2166089075741624
22.3024396768850828	10.0940772195353166	35.2723226081964185
7.8130020674837439	19.8866167897986585	24.0191389085762950
9.9762442360944572	21.0498760810369809	19.3337195549349197
6.3504043099013643	24.0793670816237082	21.0230700484933344
6.7046801848762811	23.4254764070567347	22.4361098304637423
9.6209875347343292	19.3839576565184437	20.3737916349510364
10.6461710265669200	22.1819435094552659	24.3071236527180403
11.7210706240359368	22.9822307680799796	19.5257144990772922
25.0049045776543295	18.6920843485823305	21.9403970363132039
12.1795358107225198	22.5868980485468178	22.5461385912954846
11.3727559734052317	19.9725055219762453	19.8367083761985370
11.5840583603186111	21.8204771887578417	20.7091560850117240
8.7693743964846629	22.1125750480309264	18.0413409131126592
7.8706713609705039	21.7697235343709430	22.9983133235915815
11.7996228887593819	21.0747877790971003	22.9284661546529662
12.4433465629168190	20.6838418263347563	24.8609084274368435
8.9652961888728999	20.8596485242707317	24.6622179604992375
6.2846913378861515	23.0968642224363272	24.6791963954289564
25.4789585992768863	8.5123300181305837	32.0507536487391391
41.3720438208669989	17.3020355559006092	24.2805641208660639
7.0233208527296735	11.7497660377202031	30.4518925141565333
13.1802593024268688	10.9917123040762803	31.8892182783559157
9.7861592575417635	7.5847627969923046	33.3560006290192561
10.3303434377717984	9.4798090512315021	32.5172436677391303
10.3434193432394661	7.7108457631747820	31.4497038948750252
5.9025488176450729	9.9272082552193019	36.4154301492864718
9.6907913578422757	7.4252812538787278	35.6086902698255230
10.3184337488270241	11.0502241554637912	33.6944973873001530
37.7387049844525109	18.5719108162502664	18.0638953466400238
0.3083233395822783	23.7484562675060253	19.7177546108553265
40.0517504003617262	22.3605886667409344	18.4999267802776259
7.7046228534845476	6.9385982725113307	30.7097204041373608
37.8473907809808097	19.0289415099242909	21.5068939620853818
41.7876451338822790	23.1866662503189040	19.6357080611201447
39.4143314812240746	16.9487376285422329	24.0179106458411269
37.5213610661488701	23.7778511811721103	24.6854851449003263
39.9298758014164861	22.0103880816739057	20.0915086800013611
39.0955869709198467	22.9126729708688224	23.6811907641912569
39.3931806170797358	22.6942693158577633	22.0765515315846628
42.8744405647755897	18.7605717476625600	24.6186850425626886
38.7427117010126665	19.5819347214210282	19.4672647597119486
42.7418916009262091	22.1125045349432021	23.3699196143300689
3.9834580285783527	26.8801365211810470	19.6420466925506965
10.3473827518153811	28.6101764070508366	23.8735924008569143
7.2000892524489295	27.6273777876253277	20.1256209427632982
8.6756377510049543	30.0859315821420523	24.2161235540153186
0.1863140544482988	8.8413599844359894	35.0058131697928019
3.0277347718446932	13.2009631807439192	33.8185709096321432
2.6465946608885358	6.7733969347088836	33.0835957803496044
6.0791587886749658	8.6358296325871411	37.5678310928362080
4.8472645327301622	8.7653599930401001	32.5188754496668793
1.5251867281111027	10.0880346399148433	32.4150347661921643
6.0421342351919911	27.1361719511169319	23.3039941214619901
37.0902782870596468	20.5064088077449931	23.9136751395811444
0.3328757024982478	25.2704412710861028	18.0475340039436176
5.8091771472172526	25.8995907536889192	20.3437906478475341
1.4733754428608425	24.9280028237128306	25.0365684311180097
4.2499736507851589	24.9158071381427924	22.5744090854655965
5.4644737035647841	27.6171017589624483	21.1803306010942265
5.4294854774347483	27.9394228509534202	19.2687220694763077
5.0957232889773287	24.8728284137748830	19.2705504693182590
0.2416872785345081	24.0688144627771372	22.6174620752323889
0.9834245525500752	30.9813911494043985	19.0537097816080880
42.5635271934246120	26.2560700506229523	21.9490165308281426
13.8662060661715465	6.0323059867220348	36.6057730570216080
30.7531640252180019	19.2201753693322210	21.1871136692710991
33.2356839181835326	23.6860382306236303	25.4321687444367299
36.3852011298067026	22.0682621713919218	23.7689875750948794
36.8600180042249264	19.8158190659875793	20.2261898096735422
30.5211790424101679	20.2155456003881611	19.9362300581453873
36.4563138971637670	24.0019646834153484	19.4504747315697912
14.7348622971167611	9.7394082073758224	33.0972918489506682
15.0340883195351331	6.9460396955401551	31.3084708900867668
15.9904678808167091	7.8097586669943126	33.2388147714653002
17.1258285965853752	7.8580388590094552	35.0897742719755001
11.8643747837158315	9.2729446187243063	31.2624340520662436
36.5228356422820184	21.3395657540873813	17.2136453651622645
27.5763599464333602	21.1865440194636570	19.2962457205123421
26.0463027676570889	21.0487183078816251	22.6375867462958169
26.6074345835479420	21.0882856166710972	20.5813347924448884
30.7365890881727495	21.4281493604391819	21.0253701808240834
29.4017397184531575	19.2926124407046693	25.4952426336974618
29.4506121591419010	21.9810916924127469	19.3984082761594436
28.9176736705477921	20.3718829419125669	20.5856621698157873
28.7569881278897981	18.7289785969082558	23.4184446201045589
25.7814808385279974	22.4315885237275303	24.1906144532661891
22.6312709413749111	23.0113149575043145	24.9600098699255994
34.9948099781803279	20.0930330162872508	18.9445734182404735
37.4100220464181916	23.7177487665513560	22.6365603338584833
38.2467445393685708	23.8713797686503959	18.9201949151495228
40.3769642189495741	17.1994983769680729	22.2893122674526616
40.8126344909470617	21.8924858946733210	22.3181088639966525
1.1477684688980703	22.8900201987634482	24.2621375512460489
30.9214605983578998	23.5035041793168880	22.1375331716665436
31.6018600709652837	22.7292969636296647	24.2900622239520914
34.5051576064735315	22.4527530536594995	24.7732923321403504
33.5760682710087224	20.7063888079323064	23.3491346444698742
36.2998328682119222	18.3525031917603236	21.6660152021379098
3.4084311873554483	20.2333621324422062	24.9388427546892579
34.0411247805036510	23.8470650530736492	21.4563561958523366
36.2163918532744091	20.5076994840092119	22.0101564635025859
31.0465572964972516	22.0611310970298646	22.9416622307322733
34.7626934826736544	19.9375274531279452	25.1313555949500760
34.0829035186103155	24.8847709626285010	20.2333994254013554
32.1974584725730324	24.1493436517936573	20.1479254718987733
35.8022910997297714	23.6613938964291357	23.5193187069068870
33.0068604045821132	20.1135073150877126	19.1509771703727587
30.8347128108848381	20.7692134460683420	24.7880242230441361
32.5191369857545354	20.4246072081240335	21.2595979590009740
7.7796833277716901	12.7945556497663926	20.0308508086326214
17.0182792522127748	12.3983996653413833	20.2503551699840294
14.2895250283386748	13.5935845032395157	23.4863113250700977
15.6208671555277743	15.8175288729732362	20.8984716003548776
14.4833154948550060	16.8721810076329888	25.5779802479585783
17.5048340142291998	12.6533298376905492	18.7013507495360685
13.7438097488909889	14.5640303064639163	21.2616842818733360
14.7946495974237244	15.5954037671028818	24.1822455840462389
16.7275806731672603	17.4963899487388588	20.7706359816055013
13.2758107946151434	14.6341516594270100	19.6595441322725755
14.4811416778799877	15.1224253051996360	22.6595485662913205
6.7776252426165433	12.4761033443844092	23.2386542109053238
17.3480561370661697	16.3763604378999368	19.4765190470216787
9.6607797567804017	16.6396109203764695	20.0777064872105662
7.9831169175793306	11.3755188336704158	23.1872149305314181
6.3571677261203021	16.9927415914195166	21.4056237021842755
11.5501276156641914	16.7969363190734882	21.4278754970424679
6.7814873626696466	14.4434672373147635	19.7681320975148154
11.6475765032876790	14.0818890625352449	20.4914928850085616
8.0592639012716631	15.6877011217306901	21.3265262298608356
8.4761390121018696	15.5551530650911900	19.7742761132205835
10.1632319574573700	12.4943659670063543	20.0957674283488181
6.5365548931358308	18.4460591202902009	24.4089143701580156
40.0343503528864986	10.4876576664828178	31.0891963454967239
19.1818959203490955	13.1070395304034282	20.3329662327806950
23.3000784926054614	14.5210493757543730	19.0921408404717532
20.5480169077888917	14.2560955315804598	23.6991049209922338
22.1495340986089282	14.2480388610675810	22.7018548181359563
40.3458187355664109	10.7166111782578213	33.2925923704748996
38.6531345351810032	10.5675108796854129	32.7937992493361890
42.2723714186715256	7.2495103828462080	34.7912903451734863
36.5281076431961154	7.9942509028556703	30.0150221648279221
39.4086974399930980	10.4130077566706660	35.0028654422969865
37.2977197850539710	9.9087416736195504	35.7268838098072834
9.2313997795361775	15.4953862623804337	25.4069315371992310
36.8565958760011299	12.6492709421107605	31.1033250582192267
42.0446039476053031	13.0706845735921213	30.9919877343371368
41.0214444600353119	9.5158432575046508	31.9277607782199624
41.0198737176202783	8.9548865474001378	35.6748526185403421
13.8542137657260653	13.1186105170475074	19.5026465836150820
17.3277451778869178	18.5640598391060720	22.6562164590573296
14.3108019698519868	16.1257059186534732	18.4989746346987474
17.9381263375473949	18.4746496475736706	19.7496094695876501
13.3539688929449500	16.9091487097873667	22.9563343622230107
12.8725394457218378	14.9572553265661536	23.1592862331162372
3.7444225181377617	15.0796637630845751	21.5064283027178789
5.5002130639320246	14.1580914891322998	34.8471600925942298
3.3509123975820954	16.5470266261027454	36.1131392358648355
5.8533938649374884	12.9401868237459468	18.8484107499557787
5.5151344776046383	18.0827341011634708	20.0342708290120903
3.4853422293906040	13.6391456505217192	22.7628762366521897
5.0081959947754351	12.7173964254120619	22.6610601630131718
5.5347356474518232	14.2256907718027268	21.4940565340334260
42.8620613550332763	12.9246657062486818	23.8677941194518617
5.7628848594416340	16.5707958013201591	24.4157781052114480
5.3212210586668904	15.7263398738835747	20.0835504132969085
4.2946445721967077	17.0073832696786482	20.3379088921127078
4.8449154576829896	17.0190146243453420	32.8647130580646802
1.8744064468844261	14.4040328011903522	21.3534940963915041
2.5707573863187290	16.1654712687139330	20.3269323232591290
3.2469371663475077	15.3471456779956519	32.7763786891954965
38.9016523486008552	6.5884608026661153	20.3454235023636727
40.4220879935188577	9.3190007094573506	23.3610981388120464
41.3075563415771825	11.3683873574170828	18.3520484764340566
38.5087123319310081	11.6707048421173116	24.7445955131192505
41.6207106630152808	8.4537663083774088	20.5199491585773117
38.9351134384078961	10.6160285068124960	22.8369946521477267
42.6587974754673525	6.6272488371665634	21.4896717848006595
3.3121926926193050	16.8111336157284015	33.9304094253555348
9.3563772496154041	13.8368669362804564	20.6710288856262991
7.0359513075110121	19.3430090026523054	20.4012259639548290
9.2409878964682370	18.8810283636239120	18.8047387407817048
5.5817188562989895	13.9440643316140669	24.3625224317021747
8.0738295861538241	17.7499304381550473	20.9695905437577927
10.7261357036937284	17.9456784822843929	19.8719055911314229
10.8960894432514799	14.4756580878802108	24.2881770076502193
5.8555278622141902	14.8301091480899938	37.0032241476179351
0.7267235767134674	16.9211408885245191	36.1742889138764312
1.8255564987988069	12.7884959172162507	32.1697406109694484
21.6110525121815904	17.3761704212819303	20.8374230385094492
0.6654061724314593	15.3129219242213228	34.4713600514159921
1.2157419947155770	18.4755688223553882	33.2473616656847781
42.8049583727949923	11.5329204177086186	35.8689611851341041
3.4084289236022447	13.7367029308365840	31.8726468504784997
0.7218718928315276	13.2990778988899869	33.2963697707721025
2.3554542362706083	18.0075045600898775	35.2367250771065130
2.7453167547177051	17.4298980872992644	32.5739120949968495
1.6223705788761047	14.5669414374892572	31.7188330895830006
4.6822488552765078	14.5276395835575567	32.9869770207701904
4.7571650249177075	12.8068343297077387	33.1954300277702430
36.1925089201221724	16.7068260568329805	24.1220733461211800
41.4113255717340678	13.4256524174283172	18.5397528720523752
0.2424398147779408	16.8365949895774989	24.1491173334257354
42.1848220123571238	13.9675881408210394	22.2858847460435037
39.6910548366757681	13.2241745546232519	26.0812689156376258
39.6222533919693944	13.1829050477901628	19.1160681095221179
40.7124367298745753	14.6194763899967111	22.5610484340547757
39.5634364777638439	17.6490354236571427	20.1752324448787661
33.2948094232218139	12.5963835632682688	35.8051313881700466
34.9208785430679995	10.0217951840579094	31.3825837733892143
33.1869307226621544	15.8192819973460956	22.7260707893648579
32.0624243651547829	11.7234418366511957	18.5878438242259314
39.3142792523556395	15.0821641963812674	24.2247115159861863
34.4733624471980846	12.2069497706067320	21.5530630189958821
35.1507014244228202	16.3463950054365412	18.3012835641912517
32.8417376646703474	15.3074102527674700	21.2720918961933982
35.4720274079778335	15.6430876157880689	22.7401596507284580
33.9277790810376061	14.2093444395080493	22.0407388116527265
35.3282869459471272	13.2787594809344309	23.1113807527355561
32.0149833112360156	17.2585191473223460	21.3288489065874849
33.8856112447152427	15.2843957935141859	19.9488074257060575
37.8742341489012091	11.5358364385649761	34.0629775209832175
31.7014268328179796	12.3448124512511157	34.7151444762210346
26.1963395256717817	10.6056594532982444	32.3141308428746967
4.9391466884086670	23.3668507308426676	23.6124753763728172
4.4200454129360418	18.2767612196820615	24.6268523379351372
5.1673958847597250	20.5509715844609886	19.1305352219998497
1.9088905991776410	23.3397050905778158	21.1625815747887032
2.5313654828942749	21.3752620904830017	26.0997522189144462
4.9566184355194922	21.4119239470960139	24.1098886952377178
42.7268233495887344	20.1431041047964356	19.3568552151565143
4.0398238815031364	18.9843364114027793	21.3184051158697976
29.2830700438386451	9.1267984342731001	31.7709319161967336
27.1583838156985067	8.4975079143374224	32.0814304642772967
32.8247644715398152	7.6510294055689831	29.9835836305457164
29.2991463916885522	7.6190370795437774	32.0297235874324144
26.5369378718008413	10.0675404921304583	30.7776315574679913
26.9361810702886793	10.7647560604150208	34.4144583462449489
40.5071213062598545	18.0743092053879835	19.0673916240150163
40.9799096161565544	16.7956980959136395	20.1654447681190305
41.8943900874343385	15.1908960520009160	24.2406413028690224
35.8847976386804959	17.7334959909843697	18.2957528815071946
37.4732868902433509	17.0724038914031802	22.7330373500544880
37.5873867042102034	18.2109932577060540	24.1522817551777038
40.9840550054211192	14.4833091825712188	20.3358188262142363
20.6944611955825764	16.5661443480218793	18.9281084270216056
23.8312904836677539	15.0446807538152001	23.1026882642154305
33.3503343452906762	6.8598294338510000	32.9778289713878010
32.8079254848468338	9.1837863944049420	32.4182205040633846
36.8391842299187715	9.6088008055090341	31.6677475330087503
36.1607525469658242	11.2587846845366641	35.1252240432439535
33.5962175567393331	10.9235058154386149	32.2314063029306581
20.7768316813372458	13.0437818186381058	21.6716282753297769
22.7189750347220567	13.6535881171627604	24.3189276018362861
24.3794666359846488	16.7892133483904331	24.3947385852557481
20.3605894736501156	16.3866207864058175	24.0935202251742808
27.3100070892044151	13.1182948851086767	19.2947706455434300
23.8601125256081197	11.8398309718311250	20.7527546733005863
22.3216079455961562	14.6859957462137629	21.1652366939553609
21.6106630868482803	16.4118267455054863	22.3509222305100437
19.4817175760956403	18.8799485219473766	20.0387241998406935
17.5960215964207691	14.4664360448327933	22.9929211188615987
19.8881022713585729	17.5872636398495992	21.0356018021693494
20.8748727575069637	11.8893894724283005	19.2505069662962640
22.3251711159797175	17.5250304164255510	23.7127346403095771
19.0747192645984072	13.0892085377650780	22.4581347239521953
19.0449736451565705	14.4654327193898897	24.3070388403617237
28.4341019380168305	13.1082050189221455	21.1626307900941377
33.1066465518650475	9.6952008342489915	36.5956390465051769
36.6276457405199665	10.5707685017934860	32.9911930270171112
35.2083517801095027	11.5311106168192268	30.1132861513749113
34.2191736964367408	8.3521881486770067	32.3101746501313301
32.3634515711055286	7.3462537389955322	31.5899952983895211
31.1051415504549134	10.5826280318319892	36.8726995468461070
31.5902722467276362	5.6356034858644071	32.8534523054750807
35.2692007835616010	9.3435191293206348	35.7887658185510347
27.2530907022957365	18.2111276789471503	22.2609947112482800
27.9333450055125390	14.1655117038763674	26.0653420656074530
9.5296606899923511	28.1234788872527481	20.1550925498962172
29.4682106013521903	13.0609962686341525	22.8386406905720349
25.3462070276860381	11.8477935887901786	24.4991078986499851
28.4403019955936998	16.6975549829368433	23.3563170460555867
28.6843116907909774	14.9528887434568727	22.1602738629297704
30.2302639745774400	13.5839817662137179	24.9655453815222437
27.9431968158990038	14.7471528802645793	20.2213476212258669
26.6894839340111858	15.3649106350287354	18.5992102148536205
30.0396916568081274	11.7754569344386457	23.7313605991507792
29.5411540068948710	15.4700064135975417	24.1209118466605652
26.8319855537541621	15.6655288950550737	20.8836105238151077
16.5157324138391530	6.6009036278233539	31.4135767604937080
42.7295003941464131	33.8041151318504873	25.0999098958649718
0.2089343375541315	29.8719573021052049	20.8449127336317552
40.3647125430763296	33.3345542747247023	20.9119071207466725
36.7311614288792612	31.5697935939462297	21.1276061345082447
41.5738780908079377	31.9804426678715608	23.3829282550529349
41.5446438108471057	33.8361571142244841	23.8985551988932983
41.2582197621716773	33.6167139026904778	22.2194488823111129
36.4037025091734350	36.9159910893137351	22.4711151942151126
13.1971938145417145	2.8548708835854697	31.4765331866928761
17.4524303420961502	1.7419458566030974	37.6661768016978300
18.0763000810481032	1.0881004906268199	32.3439362349980399
41.3450419750640492	36.0632137073925989	17.9439168433956020
13.8848046359024639	4.9951010123271518	30.8814509888419160
17.3914114553482868	4.8132065962064221	34.5953504754575079
15.6119123130340434	5.7454930107520106	35.1239507184411579
33.1257039314438231	32.8816504515587340	20.6501444538488741
30.9270610044189063	34.8144831255892697	23.7539073476816682
32.3384804915042281	34.4630603692021467	22.0608590400758224
36.1415161480796385	34.5340668804072521	19.6210249569306789
35.0567920522111081	36.2082397583654654	24.4627850909400699
32.1246943293269638	36.4882057364866554	21.1095631681220439
33.1572862307295964	31.7306572613058826	22.2704107926702370
14.5480719919473245	1.5362726110201543	32.1042230949011866
6.9051154078664858	36.5685127853189869	19.1202711553153755
4.1592473926490454	40.7819766485756432	22.4159588630636009
3.0279300904824491	36.6785133498065790	18.4274651613538900
2.7741871466747465	42.4059164903008323	19.6277575469224921
0.6999994909189020	39.4113394688328142	18.7656194454376113
2.8945950954922242	0.5442338823776819	22.5723418414457342
16.2815078518910283	0.8024086997805741	32.5041196574942504
11.8776528604135958	4.2891029862927663	35.5934163830543895
15.6592422348080795	4.6249496203719103	36.2500256296058154
16.6415804938060958	4.9776378110635759	32.5918437076325418
31.8228295628554392	33.0240570557421194	22.5794483420630776
42.4423681597379243	36.3072687612464478	19.1386321305374381
37.3834184933260332	33.4803211405993792	19.5153716834099349
37.1665067461219394	32.3344003010004357	25.3256777708551866
39.9911226238684918	33.8063324015669124	23.1543951096250602
39.2043694553260735	33.0530571580667996	18.8543863222540331
40.1186002470779357	36.5321856161968626	19.5459388600958377
38.5800841021025889	30.4304526747972552	20.2045048560176035
42.5448786230419955	32.5208601835359232	21.6037564211824922
38.0107366586133679	35.6414500086232451	19.0240624974995356
42.2464342213947361	30.0015678782348836	23.7190125054729180
24.3440610560673960	37.1694805933942689	21.9000195070389090
29.4334643481419818	35.6312804615571466	23.8047411576271699
25.7871375998178785	36.7074905784937116	25.1418444321524639
28.4083948585226267	31.4432246574839986	19.3226670571125503
28.9424646632369083	33.3659674820111860	23.2834448245249632
23.5628219575716642	0.5911758764644457	37.0948943626793621
19.5198012684719906	3.9612635504625957	34.8506672878377870
23.1763279256268611	3.5260515915541135	33.2778381951549136
24.5465720394230296	2.6616819280465749	34.3994182744057468
19.5688027053924216	1.9709792772715895	33.7255721824684471
20.0205459076918686	32.0293382048810216	18.9322822812154534
19.5598016986602978	31.4142082024102969	20.4068423200186118
29.1633447359474332	32.2332081036923199	24.5448267119736379
23.5010484222053222	32.2079941648328543	25.5181301227985955
23.1020991065619405	33.8436947921008766	20.2442540017036521
21.7827477929694311	35.4320062170120451	19.1859632987381019
18.2577449446186293	31.0570931856762300	22.2155406955982180
20.5742876042400589	35.8151095077768673	20.9906410727110426
20.4503966437869025	33.6324603967761533	19.7662231240861672
18.8581677617138794	32.7728564477568298	20.8585402799748785
21.3381130769688774	32.6616228399171931	17.8740269169144668
20.8220937012390159	35.8815148404252255	22.6457059980198245
28.9031314785181621	0.0060027435335560	32.7637713892678519
21.2361092035773353	4.4455792233703484	33.5209088459373419
34.7525638792362983	31.6291164737670414	21.8886168449225025
36.2198140639449306	31.8112953726596217	23.2390114611413843
30.4005784545481106	36.3720151559371061	22.1842722385148612
33.6705262963772824	37.8941347705712701	21.3944455227653734
34.7659343248505550	36.2650241970286658	18.6273014339827725
36.3202411723050531	36.5638783015188977	19.0412967564805733
21.3031539931250649	1.1180365526178915	36.9574605942003700
21.5268192336144715	1.8395193934435576	31.1942028195739134
19.2813859074987981	5.5255178694864826	34.0564843687474053
21.6095674333000147	1.0727545239084022	33.0437556760777369
1.0596581484438501	36.7146383293086913	20.6494407440057728
31.4778151161515609	31.3580207487885012	23.7548739115733518
24.6498016959754267	32.9979627999522194	21.7433507900668808
30.1352508270845050	30.9556113131765329	18.4514557923687299
24.4773453019143155	35.1317430835460272	24.9687033915047003
28.3615401742968416	35.5909761451451701	18.2922901743433748
27.3806803691169343	33.4031900452276744	25.2620876264526864
25.8704157293101069	33.0497326338365056	23.7246981624234969
27.9462931522311564	36.9533372746301296	20.2143395345471326
26.3829733424072082	34.5350026661132858	25.4833942605577555
28.9666830223811580	34.2694119622158553	24.6040581643574967
20.8956607482503749	37.5133691691150375	22.2620540483410849
18.1420105778643226	37.9928356951430644	19.1516092507058211
23.4983958392585919	40.4670767124397059	21.8867225699737453
23.0595928060361182	36.0753964672108935	23.4342676793907501
21.3854548858721643	39.7997256616646666	22.1535815004387295
22.5271078420050088	37.5711832947315330	23.0729295899880036
24.4646081873294392	42.7168337335459398	19.9795757739260935
23.8690147561952806	39.6685597831813510	19.9639261128490375
23.7524596452707151	37.8159451438570713	19.7008108111996059
19.0517320774980057	36.5307569938679535	22.4274352394190188
22.2173413686779107	40.3299499895323095	18.4603984871697513
22.1510458401328485	38.6800943955592942	18.7694144530521285
21.9162061916965385	40.7029621424011694	23.9492632660391251
25.0119427285481635	40.1974550936222172	24.8445019669847724
19.4110780118623616	36.7956455589671663	24.5595132899860147
16.4528812253815886	40.8445664568938440	19.7343143719453593
15.5949214985719031	39.5580801497543746	19.0586247770491255
14.4319249293971072	37.4586208299108634	24.4169001017193850
19.9029783864868115	38.0800709952303862	25.4550037014398001
16.6597725334015756	40.1305173833080389	25.3305250364717054
16.1719941789247414	38.4900755162905597	25.1497661852034682
17.7295473745625465	39.8413368627554902	20.2582830101700324
13.8549741347696536	40.9744530608053523	22.4429889068711894
0.6224212064964427	6.2461525939932079	33.4516932575934831
24.6716270524901198	0.5691222930063707	17.9665547654359408
26.1077804987360338	42.2510480486999143	18.9893004073575966
30.4345141850284477	41.8385137930086586	22.6229254557531725
29.8519752726527230	37.4321902565984956	21.0386784285910942
27.8365117699995714	37.0526926150669809	24.3581762243169742
29.1290300849007977	42.8606770141450113	23.5364390476750778
29.1508263681354869	36.7533598027717758	19.0067393331428178
24.8423387520068886	38.5646073862703460	24.4626401474461339
26.7656899347361446	39.1239939192829951	23.7168868093333600
1.0212914553434251	2.3380839324869309	31.9586125616290069
12.4323859946398372	38.2294411625524262	20.0141793955422571
1.3672861932294429	3.4297832809149220	35.5842225791504987
3.7365244308507179	7.2010014789527519	31.8919988446856024
0.8501810095221289	2.0566009146715558	34.3622901844818145
0.8521690620132932	3.5409229549064243	30.8337128999769412
0.8738868187021448	3.3390625486002321	33.2694355297393471
4.9235167003860090	3.8408930817250546	36.4352869502520846
3.4806449250245639	2.4375079454706268	35.5439429678466823
1.2970935367614083	2.0394546029185303	36.2540719855040265
17.5927627124214503	39.4012148320546132	18.6803775079497107
19.9700575546877133	41.6724818346537873	21.8010245585577032
1.0106274708055432	37.0866264479156555	18.5876732579383486
8.5681175772830311	40.4986817358576943	20.3826637908856725
12.6948869737470389	37.4912997110803019	18.0345140705415581
9.9278571978607726	35.0234229045621035	20.9819999047702872
8.4338983895213318	42.2496154951143978	25.6722403711630918
10.3690108360820172	6.0320649066926082	35.0118369182192097
9.1861345015961451	4.7028106130905432	33.8702024580788219
11.4943496244379322	6.0205830814907815	36.3937795578262566
8.6865975385278524	1.6959546921149391	35.9259756221488900
6.4317274901198918	3.9065988777057119	31.3974294249107260
9.9240668324095918	1.4322361669652848	34.8132037711361377
5.8396392727538657	41.4040088576271970	20.8773743182360363
7.5864719930275886	39.2324012470001477	25.2890374756851521
2.2015286372250920	38.9206467399150924	18.7617791571262238
4.1680903165386898	41.2229205013383080	20.5169159269571111
2.3657508383589745	41.2272445146516944	21.4991987411720125
3.7857852841562885	37.6877267341327311	19.9379577403524699
3.0034654839306625	41.7639742948268804	23.6242284114287457
1.9058936462668281	41.1256996455088100	18.1270174306400556
5.1065253398553097	37.4072728976102411	24.5199680484551479
0.4554929795706785	40.4174723802053322	20.5752114918852236
4.1070814847521557	0.1830436291273260	24.4016967852376823
6.2824503673425580	42.2759541700524508	24.8677847431615895
8.3277818827063612	3.9196753788267018	32.6992957314988431
14.9332412267933190	39.4128102232524853	23.7307072844697586
13.9091275815304609	42.6258584657759343	20.6435146668914378
12.8386136946113023	42.9569776472567568	22.1095111470026531
8.4900408704886399	6.1061950002879328	35.3661407650079909
9.8573344435479484	3.6401024838216482	35.7086439815078762
8.2923215489583519	0.1536588826505323	34.1336667116143531
6.5758530943907623	5.7421422723587394	31.5577020610955898
8.0179680309777979	2.1139969104424914	34.4236583933650948
7.2263050429889084	2.3592405310565838	32.3775817757417386
10.9635211722930812	2.3125296415077217	35.8094944542477904
24.9302763009358372	2.8685021955236056	35.9715005065157811
8.8246242935762265	6.1007760380125653	32.1679703871741367
8.6337398544038209	42.5679478744451316	20.8244372290355955
9.8977705723600824	41.1309002868163702	19.4285976165303005
8.1170762334382189	39.0802077066672453	21.8382667133193564
10.7883682501122244	39.8209724400231337	20.0139649577605212
11.2374397186405268	37.2221841601006389	26.0565814550026857
9.1257330368816785	37.3842066553212504	25.1657893539668827
11.9678069117850310	41.6325001480992967	20.2139501430096971
7.0081013694924561	0.2026237450509794	19.9246021260177706
9.4047063247714124	37.1843444692365068	21.7107255327630035
19.3440041080244001	28.0772507187146587	23.7590746373687800
27.6425742869369166	27.2620236549305055	22.3928470192381326
27.4563244576133734	24.8433669006602003	19.3857349814590272
28.9533134054855594	25.1272944798042417	20.2167469751294213
28.2592635388866675	25.6139415164771442	21.6425211798888384
29.7425834804614198	26.1003394887825522	22.1244651032402899
27.0450583428162403	26.2616811199538418	20.3702556839918820
30.9487727476877765	25.1097441816690434	19.8872002832462336
28.4134032202655433	29.7922291606211722	18.3475018869531681
26.1301417210080658	28.1426952356098283	23.6397527749874463
23.5233650221373978	28.5868114703923411	18.7006141870406744
20.6080717353903609	31.4919331126258619	24.1254057772151214
39.6528507640757297	3.4594589593188125	31.6460170446718720
19.5805048216932995	25.6135612031572926	19.3697728891976553
19.1926979803492763	26.3730977481594380	17.5710070843691994
22.5765387871651839	26.2594135416801286	22.0535269884112815
20.0981931654962196	29.9660238413959163	22.9918221248831536
20.4253124281255687	26.8933413695189216	22.8498323334763818
22.3586118267928242	27.5703783957164319	22.8280970856032575
24.3375221198944374	27.5042891447422768	22.4237311426390917
20.9567671835319480	30.5546551280818512	17.5593920133266401
22.3940004271916919	26.0299401298428030	23.8759274961293571
21.2595225387161051	28.8152678473461741	18.3775867236951207
33.8360196457506461	30.1429740629262852	23.3918815965699487
40.2330667966033531	1.7880172547858306	32.9689740822925899
31.7263430267194231	25.5073947134064341	21.8720399545074820
31.6259378852446282	25.7300739532935481	23.4504442657454248
35.9530523844837901	26.5772173129421603	19.6025127461836135
34.3696202414067571	26.4679713681254398	18.7126805244563101
35.9730143526952020	25.0862494171618025	21.4161068682656008
30.7955411409448274	27.1053859425868247	19.0111590339378083
33.7280730668337512	28.5372009113879557	23.6769303669491791
32.2351593008854778	28.4689817615637928	19.7373083261966258
34.3776516525449836	27.9186442381457383	20.2837101523735726
42.7588007357662505	11.6409581983985717	32.3299275233318966
33.9268351683860701	26.9815119819140605	24.2171357718537621
33.6641335042284808	28.7618752495554197	21.5568265611677603
33.6725671898792740	28.7979181392946266	25.3792300646708355
35.2402605315379773	27.7114456217065950	22.4046864024273660
42.4399198239879354	3.1001148124043407	36.4854062018294485
41.4192618961709513	2.9248255801687271	31.5014131663347250
36.5903446345557910	1.2836305601553872	38.0963118672628980
41.0349042014233376	4.9172918561363685	31.7382163336761387
37.4989582177856846	4.2837184986916803	34.6053731515276155
37.9302941995279426	3.0656466249776604	32.9773075787776833
8.3626736394123462	29.6282960821155079	20.1202005640707107
5.8550597042264094	11.4446283512172666	33.5705491560479174
5.3891810889853087	9.5749013938826391	34.4394458045710437
4.0600478427282161	11.2444128405825197	34.4136557822711140
5.1989217143430810	12.4613324112533554	31.5591361501061520
42.9825275103168849	4.5603413115408982	31.7947809362900458
5.7435868121794789	8.1702931544023993	35.7835912788438009
0.6881850248830429	10.2196875037444421	31.0275016026587274
41.6476859289221650	10.1064804354446274	34.6701371718883991
42.1965865869068537	6.2172864991208998	32.7345373363342986
10.9429697336719709	26.7340116673064223	24.8940972793525823
6.9821817387882197	28.9550951056668424	24.8188742011162233
1.2806065193858154	7.7018158498460760	34.5242469707189201
10.7900867578999744	29.7020889635378111	20.4963555012656862
7.2473322474388322	26.7508630221981676	24.3966775328101164
11.5751270709583629	31.4548822355355249	21.3788450087805870
11.5443773463011272	29.9867803025536261	22.6434796680011168
9.6146493476941419	30.0084969631123570	19.0002290699450533
11.5433662241528641	27.0840458311243530	20.8937121616793426
6.4653417516141909	24.9242728306412076	23.2748182091325830
7.1572037965159652	28.6533554825190713	23.1631795410340757
6.9880126216971998	30.1371917545644479	19.2792188141558469
8.5041918402392103	24.0257077188835702	18.7561660685844203
16.7474365530758753	24.1315575132020790	22.1219051648149225
42.3782667063833642	11.5935951431106954	34.1853593793801736
2.2268084052774393	8.6952124059486202	31.9962472471817136
3.6376146695670992	9.7540596522189045	33.2772150793955106
5.0057820243901023	6.6798916980086274	32.7418856228287893
14.0048393682897547	27.1234605657053862	23.3504471832330154
17.1955405020626770	29.1575185151766156	24.9374430908633293
17.5749563286738670	27.1552218387083855	20.9636850207154879
18.3918552865291751	27.2759422592134300	19.4347566837931396
17.8521213164589092	28.8017122050513166	21.1760852246664406
13.1229729037103588	26.2657829757565722	25.1785979069259760
38.4769489398931626	5.4538236365244206	35.8913092238820113
17.2400288257064993	25.6714101532196430	22.3689464872845249
12.2188496093000882	30.5136128747330702	24.6026775118142425
15.0008940352783231	25.6446132716618713	22.0507821810155740
17.8532805949992301	25.5795504203876227	20.4174729494331366
17.4186602780255910	27.5427885315120697	23.0072421728291516
13.3460399875603599	27.1971212965186986	21.9290237777288759
13.2976353078156695	25.5327011073022021	21.0675329830828453
12.4071663658570763	28.7655174918417345	23.2770765876579588
2.2499253046764101	9.6513302873725042	34.1962950106106831
4.2369264692212507	9.4488751979404952	36.7275854432528988
36.1984860275497269	4.9250682134487169	35.4695683495538887
8.0080304563215901	33.3502686344735224	20.2909597477363235
9.3682614995013935	35.3595810519646392	24.5668390547957429
12.9139957658370346	36.2607850431947227	23.1969995906133484
10.6984324775011466	32.7042856510821380	22.6592486219878424
11.5958787478533694	34.5805228639005122	22.2566866368152425
6.0804371982178536	33.6137745373570951	21.6844212067954025
10.9793752664751292	33.2582281969400029	20.9327887598725617
8.0426615162829247	34.6570526527063052	19.2981739579241172
12.0984152383344821	34.3941399841238677	23.8463888743363590
9.4206410671386074	33.3456591362249597	25.3093433605495228
34.2005122487809956	4.6782587838056404	33.2271491865103172
7.7503982796874453	34.5407945604474449	21.3609558476720416
30.7243355646448499	4.4012586638311930	33.4075256754510050
34.4358719777599802	5.4180647463188736	34.6769186392228974
37.3488750107310850	0.0400474486193474	31.6923211684301016
34.9581500483867416	6.1891145671727381	32.9085762324575981
31.6881593305445399	42.1293643191783787	30.9522951918842573
35.5667267830435776	7.0404559473615400	35.4708653075535167
35.8509856720133868	2.6861470401109400	32.5482299760191580
32.5465035863196945	0.5962580556505102	32.1537361434627655
34.6489760363003683	1.5349127786539749	33.7566372634195559
31.6192299959477907	1.5617188996114475	31.2926806635261805
12.8970237471534652	32.7443878010056153	20.0765329648987993
28.2528421086545229	3.6151259791084946	30.7994652089691279
27.3944858819910166	0.9459815455400368	33.3311238680861166
23.6002647830097203	3.6935573670829891	36.3502348569679796
15.6620671687388207	34.6390448238363504	18.0233208729687604
13.9259409861322538	33.1933029827318222	18.4171501583503350
15.4381582359389853	36.7207382762899783	17.0431228955281213
12.3011763707796238	32.5494226261765789	23.0319041371937558
15.9910772068404796	31.4795613517180897	22.4014487339841679
14.9385039972821101	33.0056426787615464	20.9534578376514951
18.1634550805916746	31.1446123056807771	18.7751752427564256
4.2939527702742311	34.9579544149804704	21.4864069748607953
14.5026814378168449	32.1279839760506221	22.7322632888811604
16.9019981464076494	33.6937687116411837	20.4535213879738293
14.7217810699116782	34.1175988446486897	19.8267901651774316
17.0192019289396868	32.7386658729851945	17.5515349866510064
15.3651638820444507	31.2862294726161352	24.5688836009101941
24.3339608692542235	1.6848196486591314	32.6914569909598356
27.2153070364598584	2.0639463681405164	31.5521174268196560
26.4789679969299918	3.6399037428199472	34.7933746504370234
25.6169111149210273	0.7005527270053775	32.3863974339601270
6.4568732543562568	35.9278241990877092	22.7090813578029120
40.2852660744125615	27.2172689750114003	17.9944393710312376
36.3406216993271656	4.6140323604165818	32.8434077936539168
32.5872861436178383	4.0488175142355196	32.1422410563710557
37.5620897095995190	4.0679173840864511	31.7591615668495066
35.5315372544834460	3.6850433496125929	34.5256050533758412
33.9411878043464554	3.0818333306122758	33.8117807647893827
42.2029014301709537	28.4073684365851378	22.2365789489696297
37.4055605479710778	26.8605847508559066	22.1207763553168384
40.2816594174748559	29.2852678551695682	18.9337794798527135
42.4197918668781639	24.8968107784790043	21.0907066166016079
40.9019281951596838	27.2655274375219250	22.9424826095953094
35.5397020763138016	0.0279446777587332	36.7640579849591305
39.5263944228016157	26.4912079307123030	23.3878031343567976
38.9994592764398575	26.5251807202875867	21.7696813417437802
37.3852455865971649	26.3648451789598113	20.1849509850647664
39.5771115932321536	27.4803452656635905	24.9879167263948823
38.1774696037320211	25.4586885515729726	23.6398631364586400
40.8889464673183980	3.0548711056329747	35.9621716502601814
39.1850872601502260	2.8223326332876941	34.4035045032508648
40.5846169855797996	5.9411960501396921	34.9986284067336157
41.3578333614740927	4.1386893990821614	34.6303156711511733
40.0833909227990191	5.0036810843919506	33.2491765946604758
3.0666332865692465	36.5230778188350627	21.3508820132171948
1.4834041323788150	33.9044447421876143	19.5492045262244218
5.9689575892059885	32.5067766041310477	23.5454185628949553
4.9836173814667006	36.8356190304158702	21.3849073848419700
5.4080524611932708	34.7865806554546424	20.1978169610614344
1.8603728356262839	32.3788156715422346	18.2045836845184184
0.8515556460193993	32.4103937798178663	25.2787049044330629
5.2855563248450821	34.4385345789033295	23.2884666855972675
1.9080042285591616	35.1822596794544111	21.3346925043141802
4.9013707674288414	36.1762950822395482	19.5047462090398085
1.4245444254565507	33.5298762354777935	21.0674386807564176
41.8800761906792332	12.7698140150580262	16.7290597983106402
0.2441676551972156	34.3040997610832008	22.3469037468038643
4.9775025950247995	36.0604532689990620	23.3361729868651864
3.4961018082826345	35.6440797640510212	23.9010439451858474
3.2227416530879385	32.8956119591017355	19.6401472427997383
0.6101530208580096	32.5160216179487307	22.9116837087360672
6.3364111838316290	35.8177904439979216	24.8094354415162357
0.0893064849803074	31.3332604396691110	24.1804520944716117
1.7419061209658824	36.0329259945755638	22.7606982881454520
36.9763586756719675	6.1363137034448778	31.2803761818580632
33.0589626161773253	5.8145257187341688	31.2858093435144013
27.1077942235682059	24.7487763568569186	38.4926176951912282
6.4901957908338579	36.8902663199305465	2.0612561134228300
0.3045133996493332	38.7796495898664375	3.7782095613759208
1.2584517000714750	41.7567548569757037	0.3453332932019431
1.3095404244080979	36.6183382628315499	4.1567447311896624
1.3246710478297021	39.8260433231459245	2.1106763288952153
0.7078331086124384	39.2288195654895233	0.2561748201826984
30.2275926211714427	20.1802479654829909	36.9137522328027003
27.3257338695253118	20.2755836519195185	42.8249620656095615
27.0700051286732801	23.4414521529521522	39.5446566327571745
25.8485371277402010	23.4175991775472383	38.0902860572718112
31.3972964802055223	20.0151509156171343	42.3797468521089087
33.7344790902834717	23.4431237868517499	40.9960205157673272
38.8365175894697074	33.6446272476680903	6.1302159894897219
39.3161336611300811	34.8501456183857528	5.1808113397965245
41.0381233069526132	38.0803695473025670	4.1623811522849889
42.1820024007954544	32.1450087413165306	1.0751195201441202
40.2348405852021074	36.9062167588620440	1.0530969419104226
38.8190344640082756	31.7473857433718294	5.4079009037272252
41.8677126160694115	35.9555382419599496	0.6880408873135205
40.5065568532137732	31.9165071965838401	2.5854091195070863
37.6234570290382635	33.7260043368310534	4.1742463661781377
7.4457225022349798	38.1866429026181251	1.1247435174130260
11.9458583711930810	40.1948600686759292	1.6459401011898829
16.8367241113025656	38.6878156612760762	3.4875382329168363
12.4188705625808886	40.0826644701714798	3.6088952814439548
8.9001415217004922	1.3979340789000807	2.8582121653798103
5.4885416734103227	40.8079857686198224	4.5925027818137210
7.9882647941242713	38.5053260104543895	3.6384860391682836
6.3105430906441482	39.2427280080539020	3.0301168543706103
9.2460954341560235	37.6888682995861117	5.2371159589986762
6.2486873361138695	39.0793837062527842	4.9829558522509032
11.4277052962838539	41.7069833211668950	3.2149462245650047
38.4393187506026237	32.7345819422151862	2.3234243867420505
27.1730445350432959	21.6606719371568950	40.9626311380253227
30.6273105244189878	20.7708961965928971	41.1211303335335714
30.8912244122544450	24.3722380301464732	40.1353441061807317
25.4146512783611591	19.8180128325534994	39.4846864692291959
27.9744891306752983	22.9774187716756408	38.0370136688436418
28.2043257062025390	19.0932219854847034	36.5906775830841653
26.5778288904492577	21.7624939349474182	38.9821963574178625
30.1672584017596073	23.1710153750904162	37.3390179268098521
24.4037667638240734	21.3886877343047814	36.7014177723454154
28.6088959698899252	31.9280657545346109	3.5615223609122797
33.5519683873566379	34.2844631489361120	1.3813708135954599
30.7838723908297425	31.9103691389676030	3.7100607124326994
31.8094397010680687	36.9877732604644578	4.5525427205879359
36.6255243413588047	33.8341642391744131	2.8715289313116021
28.2983865064448530	35.8237022317538489	4.5347878099017462
29.7209142034654334	34.9926626613517158	4.1079908099000608
28.1029348158442929	32.5195656979489343	42.7829715285271135
30.2136301218378982	35.7133364504522177	0.9179066271052980
24.5687116297454828	36.3986776943657233	0.1479808989344041
28.4460788298494762	35.3072418996168196	6.1573108991924954
35.6047363773765895	31.3307022658064653	3.8739994800748874
29.6440495129453261	36.3569146022886827	2.7240007118564269
30.1310103036669332	34.5734216456882848	5.7400871909448199
28.1636297910844036	30.3364525633517914	3.1696126814761723
25.9132985945730709	30.7588829207868599	3.3674038524503151
27.0620176265185250	31.3733648318437162	2.3462410202333541
30.2714940559383798	33.2203707804924164	2.7815418316905656
29.8664677834133201	32.8495959895063123	4.8364661283973529
31.2927149637209752	34.4686897409853827	1.3474596978623095
25.9415088321415261	30.0913821183544847	0.4887358309316621
30.9801482949891458	22.3296193414534763	42.7097624447516395
40.6598596617260810	36.4329378986140000	2.6425680630353483
31.7952523655256094	22.8000358961208889	40.8827277157202218
34.0791960535681540	21.8480246987186923	37.7029933501472669
37.1391990133005550	21.4869036598963845	38.8952981095002741
33.4654804399070400	23.8627607959410355	42.6370325304242996
34.1743516789984270	19.3744257980600523	41.2890680386744009
30.9307167653268458	22.2597258125173454	39.2645108123923947
35.0227613821271220	19.4668744161101621	42.6520765978743341
35.4935168554401343	21.0255168851507470	37.9819163134189068
35.5080681552198172	20.5575934631645225	41.5574773520751322
15.8954258774413706	37.7329051433115339	1.6338714902208258
33.6002676456986933	21.5082923189138739	40.9151166861126683
31.7351037395672790	21.7933561618743568	37.4846785651159280
34.5904217192511894	35.9857412221406747	0.3649353043149784
35.6410362515728067	34.6914401784100690	0.9987302534869434
32.6450492204810132	35.0068108872854822	4.5350904748404091
35.7672996604200719	34.8403408937963732	4.6633437488175833
31.4268375671138926	33.4253403208589077	4.4983357265708772
32.2934840373101721	35.9795554197440310	0.4467711705516089
31.9620624255081580	33.6839744393404601	2.7723100991932794
24.5877044993989209	39.3635464185505981	5.0586931089012763
31.5837540132997248	35.9135296242883015	2.5993037679069095
30.4105890396279861	38.8669949606505298	1.3950406518305651
36.5424898435479122	41.4819416255113467	4.3896719016108152
17.1906273367780926	22.5610278391708938	38.1629170177913011
13.1950972784970357	22.9397890021671849	40.0396495701596322
23.3589862437473634	38.9143695077146603	5.7608187758137266
29.4323673226815927	37.2207042734070797	0.2091403574819235
26.6721022746015315	37.7306936111875473	2.5478018179639386
28.5397794889684846	38.9690251908725642	2.6442796039822722
28.9904160212373760	42.2811424693719644	2.5964322806212592
37.1639312949502809	42.0133946282933621	2.9209685752374757
30.1281878438820456	0.4996519051652679	5.8565098378253149
25.1301601014678972	37.6118700992812265	1.1022579821995198
27.8525320992216123	42.2612862292606053	4.3150295137486019
28.1949983763021628	36.0191253367882709	2.2424927602960825
28.4608738744924139	41.0574471614573255	5.4299868180481452
15.1765927217004872	23.6876924946097560	38.8351749829800639
16.6215600391813716	20.6975328378491596	0.1646485601149396
13.5113213276673001	23.0772060135784578	38.4565509795694993
12.3927259516944908	23.5917412907730224	41.9216633354992112
11.5583204117081753	22.0182580728462263	38.7222492589217850
7.1926344902384578	20.3504089939457344	38.9275212101205526
9.0175954077265192	23.4573761064155519	40.4855934784562450
7.1620078309170312	18.6951919501571169	38.9930755853028685
6.3734285327095010	22.2136277467276493	37.7723538284003837
9.8474311580797966	22.0590024812566021	37.4953345176486010
10.5465985354195873	18.5992967811570509	40.9973547149394264
6.8109167537102122	19.0382456017010497	0.5991621967915688
11.6641338230063170	20.1153257242969197	42.1880147768272948
10.7803628176033968	20.5402022158834754	40.4408568367845476
5.4485467996724770	20.7483289043679733	42.7435941706328748
18.6635433101404473	24.2938699133512479	40.8021862117990821
33.2159172909720084	40.6148566377269802	5.5588726800923771
32.0462355705289923	38.9290917839801196	4.2017677764990218
32.9562953396415921	40.5102400839697978	3.2098401945711670
35.3029643158682660	42.7968717000968155	3.3285510238365354
35.9977177545411067	38.8137855195089330	3.3792155702359432
35.7131147746270514	42.3945680699337544	1.6104731446213327
31.9935987674269917	39.8482370245894089	2.0293008013691893
36.0072109096942583	38.4691969667739642	5.0171235174870406
34.0200266523493795	39.4761074118888260	4.7750084615936128
17.4881783165546665	37.5162035359650545	2.0335045452553060
22.4791689324595900	21.1382331004541335	37.3707716484666435
21.3188100281539228	18.9528289165367383	40.1980790377725867
20.5727002299078343	21.6591387191220157	42.0161117605512118
24.2121249979205935	22.9525924386574047	42.3114055731517240
20.8035301140098738	21.1949417716520010	40.0909561125860137
21.4956319506810054	22.1449911180569572	38.9276067536883872
19.5394373601644844	20.1516932869574674	0.4084072379941734
20.2472856873349869	24.2224609182081281	37.2954286817281897
18.0735319571522268	40.6365553581567696	3.2125758181569513
14.8463616051898644	38.1096522880016124	42.9333566721733391
19.5276263654994260	22.2947445483817397	40.0103620365107702
15.5091180504605628	37.1442142804782023	5.8838013121460087
13.7986752891998812	40.9220068382139317	5.2275692301409311
16.9986492724387688	37.9571781076559418	42.8975993321671112
19.0808508074877246	41.6091909302033542	5.0133824410884307
12.8066467935420363	38.8748532815850609	42.9435331726734617
13.3986002152282229	0.0127112359806123	0.0992123507691622
15.4823257101184311	41.3152029879963365	6.5871201024433157
13.2839299720395818	41.3850674529647193	6.7794213422596190
16.2718269299095581	39.1733913451739753	6.5978111341801515
19.6125675165108788	37.2635739557188472	2.0500431844372642
18.3793776334647205	21.5981393213214012	37.4458878690706243
14.0677299766926733	25.1264585784350487	42.5285229293695082
24.4939456953819459	24.9671794773217606	37.9641232352695681
19.5675051189201703	22.4808029026540908	38.1808888934554176
22.3532687522283489	22.1381355344917594	41.0624471621829130
21.7039750200069328	37.5842539053504865	4.9428005788369997
20.6284216691757969	40.5679065829799512	42.7292907742131050
23.5655297476098511	37.6215657664869170	4.3325347593557160
19.4992783131099650	41.4361102701503228	1.5012975554091594
18.5188430493495311	39.7192062962850372	4.3695733454620296
42.9360650852134427	22.0790315539105002	37.9533085515641488
20.2529534459504141	38.2582736413606028	4.7671909840783471
21.9799191707154371	41.3172821107550448	3.3913198342964841
22.3678550481013687	40.6135415373603621	5.2762607767836744
19.5955068085266575	42.0948869542596711	2.9714479499592747
23.6020953758238576	40.4774351251030424	3.9419204489239741
21.0263018313532157	42.3974733394912704	4.2613278772806247
22.9071048949015257	39.9379888136413754	2.0218589273167376
23.3928195485504489	37.7565497369415226	1.8393846680416586
24.6594099164952674	38.1150048569415603	3.0755506622974753
42.6376961018241687	28.5704693399767891	4.4216789946485662
6.8603845038842488	24.2574640032062696	38.4460650288020034
7.6308208508290143	28.1682092037094378	37.0672964940130711
6.7771317878309612	25.9953367696142728	41.0661173933173131
8.4021422408518909	27.5842095470128896	0.1691809149310640
41.4146092857480426	25.9561234738502371	1.4452225750832131
37.6083601970264638	30.7171017006153697	3.9970192302886898
40.8707952914689443	29.8874865620894816	2.3688776218770573
41.4038215986020006	27.9898188391637639	2.5621940735231497
39.8423618793102108	26.2131326763426280	1.2611233039129153
0.1405055971020332	26.4458530208345763	4.7310841804433910
7.3571089381133969	29.9471219369791406	38.0145803513374929
39.0734673782753603	30.9894921799839338	3.2318222742762743
37.3064769375642840	25.3931656392971803	0.0336726733857195
39.6803471620051980	28.2179504873731624	5.6664483646620010
40.0100534584327434	29.3050083703442255	3.6178880126804494
42.6456437732563955	27.0131730721863583	2.9822296259498153
39.5937743125861559	28.2930449444517613	1.8100545680928417
38.2033232294779737	27.6678964555306166	1.2862077275419497
38.5494184284484902	27.9338909050402862	4.4772929525007052
7.8544309643681336	25.3576467850938130	37.1385097800119084
5.3370422531712292	33.9638703358926790	2.5534901163142942
3.8705454556323575	36.0136995129055038	42.0031438656870932
4.8746449756962820	37.0234947657512095	2.7318458809307633
3.7352529114951243	33.6381194592418922	5.5028743759889247
1.5036865463596081	33.8825681222077790	5.4253229720705400
0.5330645654823427	37.4754192588453705	42.5574741120161590
3.8398450865889209	33.6403202205342637	1.5081551156706476
4.5085490638338195	34.5894857868378622	4.7027109585681890
4.2439211813120385	32.5598723996231527	3.6086452862286276
4.7875925643794170	35.5668191494501471	1.1262678473992047
4.3780305951967069	31.7157829224137764	2.1948640886525750
10.1894013028928931	26.1311523157931234	37.3467702045313743
10.1068846649921209	29.7109973440971942	40.6983165432905523
6.7431330145004331	24.8909948576372493	42.9477728829127940
11.9678066768665214	25.0954693147539949	42.3707316486995893
11.5564397554227796	28.7852671443770483	39.1155612338243373
5.9526685304096878	24.9682132414832090	36.9980413437222069
5.4487884384460505	28.0693978087577847	36.5437268268184923
9.7840842574454250	24.7102288244988237	37.0030640148267338
6.6381252265524022	25.9396229370370399	39.0649688837465874
11.3711182961988690	30.6340676330424486	40.2945694387333972
27.2508627783095214	29.0765969223875409	2.5748192894699469
14.9962122252540553	29.2913319237820176	0.3950949210334316
13.1677116917040280	27.4902279195991213	38.1290185891325351
12.6993703203723189	26.9529957117935268	39.5660379339345170
17.5466082773087635	29.0605261966134911	41.6542964878775663
18.4330816894489509	26.2901991117648315	39.9634608668197444
14.3709574317968958	25.6598966546344620	38.7118969203516130
13.3208827693574641	31.5750621174330384	41.0655319989228076
28.9590894632475653	28.4698856147707886	3.7987897597348863
29.0486257957391416	29.6198218047520712	1.9607101032786214
27.2180259103068423	27.7764752662249563	4.9223656045634607
16.8290489309566595	26.9745144520988269	41.4954690941385920
29.5611185545538717	30.2564196215831558	4.8185251014557542
28.2724431585592022	25.3981858346201150	3.8045905205399788
27.1332680137270152	28.4923568498204958	0.5757951928833415
22.6924554449570905	28.9157770596993373	39.4367043874458929
19.5988246387805525	26.9085498474686773	0.1965209455684434
18.7895140633005298	27.4474294859302752	37.9899178009073566
19.1919985194256348	24.1741021181217803	39.2450370868979306
24.9415800064550481	24.7974932107496393	41.3394535097001139
19.7888120206534062	28.4213923817204162	41.4702759212824574
37.8446966462089378	29.2444152618039972	2.3381520226137673
6.5593506847955902	29.9335243931204467	42.0246116826281764
8.7981576356656763	25.0133178447031561	38.8608268952428730
10.0097100513146913	28.2984245950915394	42.2796904164965994
7.6065265549832644	28.0536622202222539	38.9967214224634091
35.8820229140084450	25.9279366559364384	5.3199241752876691
36.0050219402122806	28.1643670139314040	4.9988104201100301
33.9680615422602088	30.4132241968070005	2.6009644668002201
36.1274273398683263	30.4334217028089427	5.4918515266019146
30.7918949139636844	28.6351435503464131	4.4992226191190179
29.0136099368554490	30.8628979734300160	0.9072780301089542
0.5660733875591444	35.1273561890503601	4.3832196447486140
31.4454880972915127	27.4061827993541911	2.6724217727453170
32.4047371597881977	25.2064660855015390	0.0070305312416649
31.9092464892496537	25.5306921091982666	1.4567129458178341
34.3782884025190043	24.3250566557319843	1.3158236614725545
36.7751887577377587	27.3308498532732322	2.1928802759997321
32.0228988335505136	29.8833117166402538	5.6080220586008895
15.8611399675420266	25.4747892315286890	0.7999868346865289
16.2178320030601313	30.9591678596368638	38.0894417205983871
16.4155593321761160	24.6146477568138877	38.3601917810150823
20.4535079537379865	31.5605562159554367	3.5360482467044747
24.1380094213444352	33.9700687077508121	5.7157240662179873
19.9040820428735081	36.1765044318602520	5.1826830958926280
19.4270812039392347	31.0872433773465957	5.6940989791444458
19.6060849056548001	34.4348769064284355	6.2193791151901729
25.4913468027296730	32.5058403150200377	3.1649498642913660
22.3709199059914248	32.5098467736642647	5.0137388889172811
24.4234840606392609	30.7158877116426297	0.2404340454162458
23.7405342412473814	31.7674787994360202	3.4931369872187230
21.3543686280921072	33.8892964554535254	3.9675549837977733
19.6912956964048078	35.6473404463282151	0.5895886017680093
23.5625393049592269	35.8171854839848365	1.3802735460678794
23.5922009533145882	33.7365519425686031	3.5641442831174732
37.9383151723580809	18.3927840987494235	42.5437196683487144
38.0226409952719351	22.9190793867439275	37.4116976226068871
34.7489504931732753	22.9375228558924320	0.1542070351442501
35.8280283271972237	22.8415825231285261	39.0360493769340948
42.8445024180112739	18.8324235904830353	37.7673083881041691
41.9118336405474921	20.4728429683796591	36.6288216344833231
0.6514531878188125	22.6102361477174902	40.0558174907414966
12.2925939348211042	31.2622630338836629	3.8613500612933898
37.3006923365110907	24.0573122539453088	41.8214071149849076
40.1172508859432639	23.6325315230193809	36.8214603163010210
36.8341913945466572	22.0488312992711926	40.8938863994102988
40.1620451588754932	20.6385613543671766	39.8308742933945510
42.0662464731723134	22.8636511832478178	39.8009855269918233
41.2411089450015425	19.4568948811041018	41.5434694078246451
37.2716078687794834	21.9226715919297668	42.5742871617733414
42.9430420043311898	23.1239871181347958	41.9528079122441326
37.3936933622450240	20.1190298681146515	41.9938641045783143
41.1137784372803807	21.8168018126751413	1.7285288360830060
39.1912403410913299	21.9521874297642157	38.1778652629290676
12.6995258349050228	33.3294664346664078	1.0088792522548178
36.6682473471273269	23.3970710427812243	0.4868291663904102
24.7904762942991326	31.3023314655028706	1.8167404489652397
19.7568616241243191	35.1213537774063624	3.3841196773362148
19.9143011308241000	32.8333184698767795	4.4572988223624694
22.2668494565028361	30.7315940691166354	0.7985836402542570
21.9537117080685817	32.6533237447818294	3.1295706871374729
21.9812963914618678	34.8702034090008155	2.7234542330388831
23.1416564655215495	36.3781854090181938	3.2588421837781776
20.8889442810796560	31.1865824876234221	1.2909186207147330
7.9179195223966108	32.6289365678072230	5.7218491535749996
5.4739283235959428	24.9856154027000912	41.0157321629173168
4.3628390639289956	26.3364927855846425	40.0695970742521084
0.7743496552941936	28.7816124438709942	39.2198725562279549
4.4453512728626929	27.5496508569501692	38.9912134924482032
8.5473244206729095	36.3634677824466266	1.3303204645940323
12.3229163879312349	35.5290866700244052	0.8443181637249415
8.6283418261590086	34.9969716279301295	3.1737150511729020
7.1963159951780096	33.7259612335871495	2.3532316808149156
8.8494282300733182	33.4488852757036241	4.6685366996947302
10.2121281701598843	34.3727771976157257	4.6244981544754973
4.7190015045310494	25.2372078123382337	38.4601904366203016
9.2402808929761289	34.8955925952522961	1.4831161826815042
12.2793182773829113	35.0122570216546123	5.1421222753376377
6.1168571961403000	37.6175780729123375	4.0760485584961961
6.8287469501660691	35.5033105373680087	3.3813218385983985
7.5820136532033873	34.6851224809093495	5.1296271089029482
11.7154682214441301	31.5452003501817373	1.8571614140375488
9.4003828762616237	33.6315776899433700	2.5714454037813153
6.9483335871685963	32.9653356951991725	3.9525195067251513
8.3321000599397532	28.9666232242095028	41.9380959986482509
13.7424598500933524	37.3094335217762705	1.2968831078758940
18.1003506762914803	30.2210097961835835	2.6969091795784035
14.1060971454260091	30.8148731577543700	3.5934205233142515
13.5406583969704837	36.3420290770737680	6.0769515334798774
12.5337451146526853	33.0613552738573873	2.9151290281054907
18.2805181586336900	34.5319046041562601	1.6639803345725646
16.5443415274872798	33.0598822877727940	2.1889778502771784
18.5880377088171826	36.1523086626803192	3.2135423309301934
16.1315931602718905	31.0168431505857392	2.7868073491190053
15.6234861025394025	31.4054347006655554	4.7211698317351720
11.7361191959148048	33.1036688383787023	4.8762344117671441
11.7207507910464308	21.9059962506722101	40.7072661416278834
14.4802503110977678	33.3096205001567185	1.8534560734945611
16.1392642134086515	34.2410031640513850	1.1923867779848250
3.8771836482187210	24.5634939230079077	41.5168524927674838
3.3397368628875572	28.1453142040986357	42.2094190572572430
42.6917719330329959	27.8744896363093524	36.7897254782693111
3.4572592144240097	26.0734736754856939	41.9005535312748165
4.4539975166206718	28.4755695162628655	40.3944135210391977
1.2852196758863399	27.5494846446012929	37.3398823103510296
5.3464260061604776	29.3473682293328864	38.2647960534722742
7.2202739368615179	7.5471953048439477	8.2505294361746735
14.0159885547692138	14.5188565712704509	39.2269584042970294
13.2833938262141142	13.5153778500393340	37.8987438164711179
17.6964233840315721	14.6806104893565728	41.0431025417459949
10.5167347918478367	6.8876553288015918	7.0989039572786021
12.5534276561676652	8.2149397753335531	11.0171811031190199
6.8234669434244228	10.6941399428299952	11.3678067368124545
11.5156562808114717	4.6742198205703858	6.9541074881641389
10.0938562910549443	10.5020459909471651	6.4993623327005734
6.3198435092692078	9.2207677878332230	9.5278546432576654
7.3908122002258487	11.3677243937037371	9.7429650166568980
13.8060511592959827	17.6556221795472084	39.0282814218783258
6.8422190247625911	10.8655954468904863	8.2949821504614913
6.6734346582925186	11.2788941974922530	6.3042481959465437
10.7365305888416387	8.6331214758697321	6.8578471840729218
20.8021605619560184	16.0229262905198730	41.6330915891923112
21.3400656692451385	14.9249217913257599	40.7035073007822348
24.7223593829133996	15.8318541725761577	39.5121221831639033
23.2305008231165004	14.2311800744600703	40.4378044496373974
22.6734451037912024	15.3053703413532247	39.3322247279827479
24.3369857537470686	12.8928055181215679	41.9154685255124448
13.2069753846886080	6.6895336296057035	10.6090800804862546
12.4372112696714847	15.8484627552853379	38.9972593409465276
14.3884123146837997	11.6100536831232599	11.3259687251902239
16.1746377654339923	11.3104033425900372	10.3616100099032806
11.9569980220241856	11.0267418412223641	8.5405961976225040
13.8089504062551320	11.8667029430916031	9.7113081910263084
12.2858134032662818	7.5391771098204519	8.7309321609492230
15.4191719818666488	9.8702005746504380	11.4897009733399624
14.3917588448988827	7.6418207516720473	7.7293561900316821
15.6413204033677520	6.1233938732691158	7.1505048322783216
16.3078284531752580	7.7389314193012373	7.3620647068330616
22.1322657012882011	17.0427266690962185	36.1541512896359833
15.7901908218525193	9.4875672091793017	7.4780042129942590
12.3233549879886013	8.1314968423758440	7.1777348303102286
11.9544201741573222	9.9860496292412826	5.7869916249741165
17.4171803191736387	10.9279162696631538	6.9839065058988243
17.9245152014672868	12.5973122420705401	11.2975379816845987
12.3184146282907694	11.9853571015811795	10.2489801694072984
17.5568990313237201	10.8190948530731248	11.1488286446613110
15.2014998814021176	12.8114822545811311	9.5969606392018054
13.6653757663664734	8.4732261702172504	12.2782239387266241
39.1825866645256724	4.7315415420218789	8.6599691838330450
18.4584383045933329	12.9149966418156072	41.6058073816067306
18.2718769093195483	14.6705007143791200	36.6776371394001188
25.4119959856994626	17.7153262354440137	40.1554778599709365
27.6777603325249828	17.2870291551001714	40.0043252600812167
28.8876662804489577	15.5674371976513140	37.2528770511367924
40.4106814920270452	42.8915038210524173	12.8134691530362446
41.5603938459778917	1.4604428297061585	11.1873235640882775
39.7986343140172849	6.0048405111288634	11.9940865353270940
40.5252757763755440	3.3645521090626027	7.5798980252965604
39.5906450139527379	1.2853370970754414	12.4347036676126894
20.3507843600003504	15.6904850003757996	36.4016098955273222
38.8818296761383735	5.8144936460010364	10.3236817738422957
37.9512109876938624	5.6264464085343011	12.5593102960786513
42.0970934635239118	2.0017970933658487	7.4657143554425813
38.4584657400731089	2.8628434817593575	7.7828478054934207
37.2783634041962912	6.2057217416032779	11.0547095097947263
40.7266114296789468	5.3379140593998535	8.7886656988024328
37.7747982696133420	1.8818625071192256	9.4341172249113487
36.9411477005649900	4.6082177617317654	8.1642523580666833
26.6115376389190068	15.2303165268109542	0.2091500353358058
3.5730714918483684	7.0056642135678260	9.2382099712524397
19.6894783458385270	14.6170884122744180	41.0214960573249883
21.6051904446882972	16.7513355720567390	39.8488682421842739
24.2230380945158750	16.5891395491018017	41.4245452362407676
24.1669346981295874	13.7224764772706944	35.9557756241851791
20.4598917545204984	13.9841046160199891	42.7218197743590835
5.2508261895313151	8.3014030808136940	8.4312292598577745
4.2812074189228024	8.8348352369143974	9.7651687940243157
4.9190298719918104	12.4580656613500285	9.3801226113271508
3.5217715470322286	13.0284355555401046	7.5112046622019975
5.0576563197918869	10.5641744406707190	10.2034326902711978
11.6875651753144147	15.1563151464405443	42.8979191251332068
3.9097262800319754	11.7810965967220067	8.3548145160659910
3.9928408843545049	10.1767806197061947	8.5697619952517208
2.2542741262031623	9.9997130608467071	9.6723341370966640
5.7113207302064088	9.4692957836006073	11.5693952771861550
5.1020286448873993	10.3331229808796508	7.4172475581510025
1.5058906210883396	10.3571383114035473	7.5099411914500092
22.1200232695870156	16.4483171454982617	37.6692304834804688
22.2947938363434481	17.2009136890308483	41.2528701018609141
20.3961434176453302	15.4386504318196724	0.6615131956199714
10.4248165868244964	16.2887570783162339	41.4240751790155528
37.7251444064996946	6.1356618672097731	8.7648100567361382
33.6794685662462143	10.6500093726700200	9.8168387118766507
32.7891041205798928	11.8319216468019892	7.9983498477334924
35.5140726887407396	10.9582616696031607	10.5662643543150416
36.3052118212483990	7.7338292284555852	8.0687312198825314
34.5843713362039864	7.4481477993708740	8.8681422070249543
32.8950187303124153	7.3882902034739111	7.5437246747533555
34.8327840797920629	9.1074576375447531	9.9558588409159263
32.3656085314861102	6.2494312657385693	11.8888751672408972
7.1760887970055167	14.7936893944679202	42.0208223283306381
0.8964957989873812	17.0859488847684062	42.3462412652787989
5.3854193251723999	12.1028557545016078	42.4947491509078361
6.8795154445601989	16.5519629504365895	38.1491343222321930
7.8727140432590783	12.8593659737439658	42.8217157736712792
11.2867799919255418	14.5222831677938480	40.9927020899792538
8.1322887392163796	15.8011002734273411	41.3286225607449182
10.9220050651952274	17.2894575219607951	38.3699616041499567
4.8390986550396740	12.9889598134140769	37.8805488813382070
6.4718641157338519	14.4323866891285704	38.4540910807357008
27.3326510890717032	9.5569812831457348	9.0494350933660463
42.5632477303854486	6.1263257416089951	7.4637429153919506
2.5034008634843072	13.0078898820159310	37.9109998791356588
2.5107066275654688	12.0869248753685063	40.7677977363044235
1.0164051149107030	13.5115567112758672	38.1695392827616971
41.8581570023557816	13.4614427601680315	40.9648761986482413
0.6922183602796569	16.8032323975285607	40.3871110630227292
2.1485591375101434	18.2365966422810004	41.3374508407018197
0.3606540649450118	14.7382670052403544	39.3045077730614025
37.2698670203353615	9.6060006518897509	7.2770673629313247
38.9012676475107142	11.1270972370290568	6.6899488077203477
42.0936859078900909	8.5666323063119503	11.4779377653543033
28.5266994349039678	9.6078850155521138	12.3340719353804928
39.9202739531974089	11.0824965820147945	11.3240487187376981
42.5149727961493937	10.4220098183669023	8.1665897834841150
42.8230341423047776	10.0844912010423613	6.2270049284458633
41.7280128052044361	6.3558194885050900	5.3509944706679242
42.0967662049131022	10.5430798310143565	11.5783307424147086
2.8117787551574724	14.8928181605551142	37.5402850041620795
0.1653232621212996	15.0387431598882397	41.5955352362266595
3.7643728810465871	17.6812693121947220	39.7639153700512864
3.9589615295468432	12.1083785423391141	38.9657351676881660
23.1521468769999501	7.9134521681962839	11.4985583090035188
23.4699979054723187	9.0026012435237828	10.2360779588288686
23.5647802819219230	11.1819127567431504	9.5769439829644707
24.1762859075256245	11.4137192110363550	8.0929132790254332
24.0143332657958020	11.1279061710244385	5.8441141461565111
19.8486726983268973	7.2886082271281909	10.4870322904358932
22.0431446194015521	11.4718913308983712	5.4972336356954692
21.3265147918359510	6.0612726865412307	11.3993970075996849
24.9385238326932424	8.5660662344175300	11.1284801755377298
19.3773231187113026	10.0067739020586348	6.0949617615344049
20.7614349650260053	8.5327470315115352	9.5687615716162853
20.3119516730923237	10.6782796862897911	13.2361203293166074
23.4107791312632578	10.1535215204147100	11.4131435366693701
11.6579131062764052	17.9024516882373739	41.9378675658010991
13.4847139710783939	16.8699378296171929	42.2928458337171591
15.8861623876971922	16.8344868005811001	39.0684103113593935
17.1630691089316088	15.1235460559199062	38.7828297785778062
15.1040050841246920	16.0960900170303631	41.9323263840570277
14.1665842452390898	16.4681182161284845	40.1629804853069317
11.9583702592266228	13.8216238979460826	39.0707637101550773
15.5256287123861707	18.0261586266359188	34.9272422300338476
14.9399882219307862	14.4445510463160947	41.1858045220031670
30.7197935525823667	5.8878571931450248	5.3385603968729312
27.7705883430395808	10.1727299008365311	7.0695777457180773
25.1449070767647136	9.7613283718089079	9.3551515496986575
28.5359683681636227	11.9438551424506461	6.8228106614984068
29.5672212725902241	8.4512042381907015	11.6068276062102882
25.9406968911093294	11.2206949023359854	9.0609501811877315
25.5118215442366036	7.2544447087483395	11.9097832317301719
27.1740196410279289	12.3714584223542889	7.7346830031804963
27.1416284920795583	8.7846959964974385	11.8621040365571684
18.0480553128960395	20.2218814081874072	42.0228220753796293
29.4472221787438464	13.7333671853538135	38.1905342082523873
22.8088829885515594	11.9987214117895107	11.1601122350652080
22.3297697286001373	10.1641584729797572	9.1700423741771697
22.1528008447114146	7.0242095649110068	6.9785053559478527
19.2763272131822134	9.4979406300016151	10.6640376952301690
24.1376433945713949	7.5002651000334986	10.0320754585960721
21.0693387422698848	11.3494107807690821	11.9898639845017279
18.8513830071997646	6.0812186052126949	8.8856603844529189
19.0852189302105657	11.5050280111683509	11.6724691089157613
22.7245649447853815	11.7854466155873450	7.5893513776667545
8.7326068183182013	2.9778910484020389	10.1168750045233509
8.1069420805946883	4.4131604661732577	5.0558621550284597
10.1044592600189844	5.0108258973261801	8.1392958147903443
6.7019792431835716	2.6118621617973057	7.5258373357033816
10.2436118292922274	1.5042064584334418	6.5135357850184281
8.7604563318906319	3.1565143814272352	6.7052305953510691
9.6827144798658082	5.0028483517710285	6.2431095493684925
10.5581529057052421	2.9508997966579811	7.7310424933772310
9.8716297748043225	1.6817670923032524	9.0676633368392885
8.5017185512615061	4.7977688275864123	9.7259296174046739
7.1793202499296900	3.6121359795897963	11.0869170115186897
11.0024815361419659	2.8037781297832045	10.0493403144366269
8.1440793889943013	0.1490086598011710	8.3800893463937793
5.5791761898141470	3.7262625118563109	11.3692544411678966
6.2110095763455808	0.5879759461416295	8.1197702863139920
6.1380989152703540	5.7895600876879936	5.0801495146494364
11.5816106155965528	1.0204269734205165	8.6216197810948607
7.9043570087792512	1.9567691249218258	8.4310602445586902
5.7116702851486911	4.1663182869432980	6.3531081935072997
8.7229722890882204	5.8625354433164052	7.8237587138295588
6.6318472112778828	2.4001473745094906	9.5513101582663094
10.9099938208081628	0.1915214819266217	4.9340969177573291
37.1721716803933049	13.1571465560826653	36.7309203196195284
16.6578951204832251	6.1448759521763225	8.9851138601768241
13.9947514944522560	4.4562006190075740	11.1398410876589207
16.7832586639844621	4.3126809014513006	6.8772688387545786
12.4632334009993766	42.9041771936110692	10.1541932034109834
14.2205683307132045	0.5599265101841125	9.9104495350025559
14.6003969420899598	2.1861109866470612	10.3424575254234572
17.2571603145092070	5.0094631466000346	10.0231643103606292
16.4449694089954086	2.3506875264442235	8.1056605479302934
13.4493136199907823	5.9521769228517334	7.1938520241965769
13.0316516943498595	3.1728987315694788	11.1748281643410667
16.3853608426180379	0.5261630209398623	9.6438626841817463
15.9536974772375615	4.9464019881244212	10.9508591762643910
14.4281243890481417	42.2614937618233668	8.0944922093253258
15.2769446187520028	1.1967708913144628	8.6840794218451887
14.6784479157821064	2.7437873501005985	7.2077784548912227
39.4064071135961456	13.9585667000331313	39.5133911807568623
42.4316766649489523	17.0117366943879276	38.4581772306873972
40.8711123975168036	16.5221333868758613	39.7815241244403097
42.4596543961725672	13.3415881628185158	39.0742988576646653
40.1342874578128885	38.2962179090904087	2.0814153484230835
4.4773937086498714	0.2195494849997616	11.3427214287287637
1.4112947708845489	6.7703631733767287	8.5171742123842886
37.5224168771211524	37.9921785932753195	42.3956904895892066
37.5544472675008123	40.0180179511603455	0.2816028953599565
42.8147631176400481	37.2252681655224222	3.7149343419895451
38.8854908326921986	40.9008723409565036	1.1656094639710457
41.8360459409838654	37.8684807177376470	0.4840734970976412
37.8373977623782309	39.1965316856661019	2.0721847723343365
39.2003865923301973	37.9410440486996876	3.1403513811213672
39.4169248976310413	39.4804018958438476	3.2548216505795371
1.1860722859380217	4.9122690061676515	8.2637706110181615
40.5527216566747555	40.4778511789874500	1.9385524728102559
42.7664584405616353	40.5755738461544553	2.6071654142671705
38.0677999278693662	42.7747211911248399	4.5037769370894329
36.8630739482729552	40.4709045441028579	2.3677487704114113
39.0581381622478503	41.7128894731652764	2.7291299803447071
0.3989742002066378	42.5973265676274409	3.3559860389450797
41.0448800285562285	40.0521097594953162	6.7035886724572027
39.4403649815910313	42.8289916425730013	6.1107599998271773
9.1719690970239593	19.3998860549762888	39.5998471537581480
2.7696544803188385	21.8964727765429679	40.1591339072593954
1.1338788601703527	18.7492145432162687	36.7339885986929389
3.5752309068842449	21.1701073005364755	41.7340815892085573
5.5888324136866760	20.5522876020378185	38.6495278159801714
5.0978895108828581	19.0042340896194553	38.7328143228232165
3.4079791153709063	20.5380952159881573	38.3592016934300162
3.7848997937180582	19.3395363512633303	42.3100054806321566
3.0267330872951490	23.8690137852324220	37.5928695207650208
2.1298266590017123	20.1677227135383497	42.7353015982235505
4.6649835263143462	22.7786404070732189	40.9294712633229238
6.6253945041505178	22.8021379743501775	0.3854564846985644
41.4838676838845970	14.6901074595706689	38.9292743783849033
1.6367844003302212	21.9451616087248311	41.7451317478749715
1.7261151924964735	20.1133395483419051	37.2293184150042791
2.8879865528731767	1.0897332791904863	6.1937179476349735
2.2531800343612964	3.7167451024580878	5.2274488116051465
42.4692492013613219	5.0147797651045707	9.1659227615828005
2.9160350240335742	3.6094007166955069	9.3202366709310951
3.5965024965195851	4.2568573335531079	11.4212156736394785
1.3502473706607379	1.6947735262367762	7.9801463267835286
1.1923524462148682	3.4450593960765077	8.9414599116140572
32.3047289699065416	16.1847284053011577	38.9455193016494121
35.0576276147872861	0.6348839731137189	7.0547789527965143
32.1960776702741853	2.9280711772408421	10.9236709162113073
36.6030792215330436	42.9577289289739639	6.1079517427456347
36.7894791253294713	3.6671630083775182	6.4203690743760324
31.1205747160351969	6.6496732878727789	10.6081385215078452
33.6139530228141012	4.0168271828382824	11.4132021799038537
33.2495136779910609	16.5688984460857576	0.2454858338303438
36.3804720468999676	18.6258211848967790	41.0339381069215889
35.4553419384545805	17.0497952966565904	36.5042396930548705
36.0544492848942468	13.6282382998640070	41.4157583591852827
35.3752511562857919	4.4757928526143402	6.7676198224122412
36.1086384487660652	14.6978059956221365	37.4662821881991519
30.0103789642533840	1.3404967849770426	8.1236318038112909
25.8508158314789185	0.2956485804707360	8.8994028904910856
30.5408858745287581	4.2733649800769955	4.7417480316052911
26.6132844723109621	4.2004680843710300	11.1889445659650164
25.8652117402821879	4.4793690698785031	7.2508051823107396
28.7647271559754962	0.9182042008674246	6.9927172667441821
30.0747936330799881	2.9613652848358694	10.9451314522083525
28.0764701212652881	2.9610796643508435	11.0158871213606062
34.6952684834361023	5.2325351243356586	8.5114213499296962
25.0751596069609413	12.7081613152210657	37.8588450803160015
28.4397232584438733	17.5757556556010570	38.0547515186595433
26.7834085499908916	17.6138331651212674	36.8066012092510775
25.6347108721058667	15.7270199877282550	37.3048729697849595
29.9771392154728815	16.3024824553446948	38.3391218084530934
30.7146433612256047	18.5853724107169676	42.2298017398781340
24.1832743063833533	17.2906970295000022	37.1183105822020636
36.0846805343651624	6.0607957127787833	7.7883899487360129
35.3416606223701493	42.2613796636550134	10.3910731895975967
31.2827425563606489	41.0068249409804721	10.9910340458272842
30.4167526890709254	5.0624785630746532	11.8868274245765999
34.5324153286734088	0.2529354806147813	8.5766005241724290
32.9316389505836682	4.2753536958712095	9.1675388278922583
30.8969346788044490	1.8392990196785295	9.5599570661697406
33.3178995616051097	5.2827910058140901	7.1643207285903774
36.1776187755830279	7.9919549578559286	10.4706149783181086
32.9563776774886676	5.5264957742917895	10.1819797834876518
32.7482592813213529	6.3088846567264092	8.7460685004680094
33.9021130643917346	5.8646750813002075	12.2635224691123810
31.1390043028022383	3.3280639013721292	8.0266706959991865
24.5443008371056557	4.4896512845338616	11.5772878733802873
21.1731199513274468	0.8908322896478891	9.6789634982633004
21.1697790493179490	4.4535402945960909	11.1291587267642420
20.4370000212728300	1.3219549210905888	11.4662496204758568
21.5387718156260135	2.2370780167881716	6.4832922784614500
20.2642239195815570	3.2973965990497747	13.0549860623516967
23.6233342247518152	5.2759749843899177	7.3850870930615518
23.2136477559564263	2.9414093119631639	7.6213679594109172
21.9639733266945925	4.0356455139095653	7.8593733755884285
22.9552206990797920	3.2488437922681874	11.5019995459739164
22.6456937284436002	4.8484755021369450	10.4133138928812112
19.7982583763927096	3.3677566012396385	10.9925066904648059
24.3632648148768602	4.1356655410165661	8.3270998117126602
19.5995403039057443	0.5604317833683031	9.6454907692516088
41.5747578769924573	13.7781428267500754	42.5691310279403226
39.6271533812763792	15.4670149743173511	38.3941868026941222
39.2376239132316798	17.0274579623000939	41.4354188395819065
40.0880309128188230	12.5763589567168648	41.0839312043984606
39.1271142887105015	14.0073236535172079	37.5855516479339968
39.5823083807497085	14.3335250017708749	41.6325205047150106
39.7656644973847548	15.0736917240140968	0.0729101797775089
34.2874440294814704	15.1762535718851428	38.1205063729837548
29.2383173703467101	3.0206441396354031	7.9259697289521824
25.2906278051554132	2.3993563155731441	7.8868587820821334
30.2223759905923046	4.1036564941288871	6.2509212192903441
29.2608405724710217	1.1823405285237079	10.4176301366812165
27.4742299024783314	4.3877981739295784	8.5759357350165111
29.1783059939734173	4.5915009946150924	7.4465164080856887
27.0655630110405596	1.2961340484942407	7.8018596080058487
25.3935469184779024	3.0514146301787513	9.8295424432478526
33.0764370618518626	17.1122173491970955	41.0090439030756144
32.6481689813776157	13.2934337747147673	42.6512870526267349
18.3702215997124227	27.5914794527002414	41.5809008272766647
35.4957206147601667	16.4003696402787043	38.6185594392649421
35.7410787227886928	15.1522366368432149	39.7279581024669639
31.0827083074889572	14.9818292714473511	37.9602127490299566
31.3039435937708355	13.3928152208969546	39.3317321326680798
32.3504534122919765	18.0895995835719390	39.9645526536763924
24.6547832331629273	2.4498803292989342	11.8751027768406789
17.8997017931660096	42.5408384173106384	10.4276893944854088
20.8244319475573683	4.9877374771903424	9.5231364781516810
21.5401573927537981	2.7227062444515582	10.3161225437204962
23.6200741047249920	8.4542261825867673	3.7304474515323016
6.4016357273717857	40.7678418978553196	38.7017370467020854
7.6470700541624437	42.4250610981053029	37.6584469881605131
6.9897213704419832	41.4489563731280768	41.0496499347262329
6.2083544457599933	38.5752340877747173	38.5601082834061017
6.9962163614115722	37.5830459689470970	40.4862469940205898
7.4685693336064922	39.2203184286963875	37.6071424123675371
21.7915900458499401	7.7091251046522009	5.0693254948076261
20.8145376145795105	12.7303475479105330	3.8457315768342411
20.3729145873185118	7.0671945880897304	5.7054947355585321
20.8280219796176560	5.8391249323841752	4.7472365996167403
12.0418014467868630	38.5118744189626128	39.7677833414231046
21.4898719638695823	11.3165462663303256	0.4881484677178953
20.5251037052030298	9.3477570761376594	42.3795586207001165
22.7246227177921334	8.5088036612887397	1.5517655687665250
21.6782085458843454	8.5162707775024451	0.2449619306041503
22.5811389169301222	7.3342854957794161	3.2505720746111946
21.7938685023595085	6.6378695960319956	0.5597891048838262
18.7894848890920620	6.8740075537014285	3.3399855495225093
18.1087552114335715	10.2741000800439206	2.5335015317329082
20.7373343014898737	6.7830113276307271	3.3325371211496915
28.9155974610190256	6.8334595960581952	1.0334233072604884
34.7306981898310312	10.9538370562473375	1.9087811942796831
36.6194068238574744	10.3561503426786974	2.3097181824530564
8.6986191914217024	38.0357950705915897	42.1240335971183981
7.9578681791050414	38.6041109328912455	39.1923346545973956
9.9668729696693976	42.6959744179529466	37.0023028837309838
27.3636004531396360	7.5646884513358366	4.5743884155017769
27.2030044080364704	9.3326451087433018	2.6033379639869820
29.2776591174540108	7.6870959538340653	5.7816577316043558
30.0951923883907639	12.3325528376116864	3.7227845679786968
27.9441629936132792	8.1356472952785932	0.6581106729274077
19.0498962687754201	9.0150924783273698	3.9363540321673263
30.8548383011651985	10.7985726322437330	4.7998969023664371
28.6426625995450017	9.8438449913151889	1.0333106859150771
25.9370609484332952	8.4450153731306035	3.7077529184676030
28.6997914072042057	9.9107830978521587	42.3534649925203865
28.5131922404660187	11.8310756589419821	42.6763355328939227
27.0948475971133647	7.2422904207092342	2.5029595460010667
27.6600667098454309	8.9578702384869882	5.3627271736566531
29.3404505458396478	10.3604019777016347	6.0464775685930254
7.1191169737862543	38.4022811488911486	41.9546557784750576
5.4097959423565998	10.5212003058216457	3.6987227036631856
14.8538165902790205	40.5382013439044115	38.7725876547937105
19.1248229855892156	41.4466727205202119	36.2310650576443649
16.4807546910085527	39.2614215515848244	41.9871266008351469
17.0926803633789390	42.3256876884694151	40.2541778418356344
8.4088679738989249	6.6001889751408722	0.7880849751456270
9.9902121843288381	6.1692076454066180	42.3110592899740041
10.2028869322582771	9.4041082300281449	3.2194889085641583
7.2833363682035070	7.0791106850202210	2.3450489388905429
6.4479604567453324	7.1499092431710194	4.3070995027749994
11.5685665871460817	11.4081163050314203	4.9318840962816015
14.7060129616214734	41.7971472236218844	37.1477335834389280
9.1195181895671098	8.2460180334097011	3.6817868732686616
9.7623234766017131	7.9919418414730865	5.1656864217363951
9.7060679694535281	9.4729621631304699	0.2826877919762378
6.6718280454459133	7.0949989329879459	0.3915607699809107
9.0802213347590026	8.1732744140963369	1.5761901341376621
8.5015820301511944	11.4386828801988987	0.3992156726777094
7.0525806058787657	11.4850142449271857	4.5431114092408196
22.9914496110833682	39.2609946873121913	41.8256038394630778
18.4300640440397423	38.8489384223121306	41.6984255356238478
16.3241065013416424	9.9639259074537190	4.1956768441363561
23.4326291100113124	12.5211605079774309	0.7257735863616974
20.5996541982995325	7.8941312683144336	1.4762041359742406
19.4055268425202918	11.0822047137018966	3.2272329209204069
17.2271664160174822	40.0606806246608400	40.8363728732094344
15.4537840851196258	40.8033185073286901	40.8532637803252143
16.7149180924856964	36.5650200841440594	38.6236544490133369
18.6132354441064258	40.8751451483469452	40.3871798299643885
17.8118680619202365	38.2394449928701405	37.6020960768881665
13.8242990534805639	38.2013944650194190	41.2202886709096674
13.2821363144034112	38.0585013593168071	38.2154720011719391
32.5480117642654605	9.9781345733750122	3.5337716995153472
17.3479590535462620	11.7002452457546706	5.1361723551012703
16.5469640487776495	8.0232320610835988	5.0952326293886987
12.9254200356377336	8.0457526884848001	42.9212452671050144
14.3988928246275609	9.8363554970156013	2.7981507491458899
16.6558008505266955	6.3220433693204479	0.0831772314429386
17.9289964999762468	9.8433417006676152	5.4471197238341169
13.4642261066290345	11.0923482285569897	4.3366283700276798
16.0110848947134308	9.7928777898320902	1.6790416012457046
15.5344027613083693	39.0365930670728716	40.1592360801701247
1.2586646250227107	13.8300973963064173	2.6853371973923683
39.9070466621097495	31.7846951041016403	39.4432214525739795
39.5340914050716350	37.3947692621571832	41.9499404077885387
42.4401481736593382	34.2946353615502915	38.4742933561593006
38.4598249663136897	33.1563768854832688	40.1651869376583690
39.2584487820927421	34.3410829037288181	38.5970032225609856
0.2913253724024266	13.2259796274865025	1.2195768942643723
0.9987959496956915	15.3304193462485117	2.2300560205275728
5.4675246518014164	12.3782548719002357	4.8480157266979678
2.3974971228490518	12.7209169737116898	1.7095245609401755
5.3767932081965863	18.0727183850479740	4.6210039375485890
36.6345520026917342	34.5658001631723906	40.4337468214440392
42.8237048402432947	16.2200558810505484	0.4387277718573607
1.9174197350283779	17.5339000494295050	4.9315958637271153
0.3377815211435483	18.7583966220888243	3.6311541747302716
1.0292105594082859	17.1607176918565152	0.9336335731376125
2.1615270601911178	12.7243934729507355	0.0346834122372783
3.7491904190622654	13.5067326173104814	5.3837963914812139
2.5247392045605319	14.2554345654777546	3.7611856270648696
2.8218964852305217	18.1592106568077192	0.0324650698246496
3.7236551259540600	42.6600523570890360	38.0500502282737969
11.1412914690023435	13.5841481638826025	4.1112047542838015
18.6664769977816078	15.8822555884540968	6.5838310542888721
12.7911283212583111	11.5480481154949182	42.3125735755135040
35.4909588439877339	34.9082790513239516	38.6098050753145898
31.2914445774941967	35.5171202111313420	40.6099490288675042
7.0482138064209021	13.9752241493661433	2.9437994050591887
7.1551063424675219	17.4746099952905816	4.0149426670490911
8.6875240463795400	16.9069274676234436	5.0722692509958645
7.5315674740587957	15.4041982520022867	3.9142878127010672
6.1758371278208575	13.3360929537047141	6.3874845781094383
8.9195986107111498	13.9096237177087971	3.4115472472639592
3.4713195562214327	39.9199952582135964	1.2646723623326117
9.1691986586952972	15.7157891845082229	2.5835408161090867
6.3775261877499458	13.6893759171629839	0.6515586517366697
7.0487067933292549	17.1976657521354106	5.9031997588297376
7.4056418054202346	16.8739158197706054	0.1047230170510706
7.8175749188581927	13.0045843667307430	1.8986078195724814
11.1619494176214946	16.5217212571881085	1.6830751099369017
5.8318690318709034	14.3187282086082188	4.7968489921916193
41.2694139358270533	32.3772344595127848	37.8023720537537358
38.2239720918792898	34.7670931261178779	40.4135165838645349
2.0010764127096587	38.9057646287380123	41.6636631157620769
39.8139477880795098	10.5632673128102716	4.0973444049077399
38.4538591641901490	7.7719447015576320	1.3019779095577297
40.1429735778857406	7.9242576277269157	2.4017956155349109
41.8468247501773405	11.4449005869388998	2.0356818716915219
40.1367927275877676	12.4929869267186842	3.1882053577627540
42.2614038120625466	9.4281386739877160	2.6347515575480176
40.0392501202495765	7.6690760285481812	0.6375744601658057
41.7319119203003268	7.5110239608312312	3.9404508916479397
1.0208498590492163	0.7497977017770980	42.1186554458022826
41.2457439843302609	42.0369007294169776	39.5415673124191187
39.2758167568192462	9.6380004630760627	1.1715805429742385
2.9124047323548075	40.3585545512942119	42.5069944158708140
2.3368969082479514	40.4696903421004279	37.2212772127418390
5.0968408814923540	40.8358087730182078	42.0599019511075909
33.0635347429496704	8.0905368145511840	2.8336485350231606
35.3377567039816398	5.8918880053098857	0.6733188823707139
35.8822791027418688	9.2904744374908912	1.3107456956686714
34.4921545726301204	9.3867580313969192	2.7684253430457213
35.7640819104811669	10.9320793387274531	3.8616192947219790
33.4059488037963774	11.4866611090051851	42.9197745893236586
41.6233748757903825	7.6616845029761658	1.2423887376535681
3.4149836631055281	40.6678121957020267	40.8574812113162054
4.9869821915445938	42.1319146524627257	38.8758850483291312
4.3429606667323943	40.1880681060981075	38.3767748995294440
2.2276201292599245	37.1758234584029736	39.0967371544130486
0.5095878227640579	42.1126991431395865	37.1626589463495733
6.9443544355577034	42.2258804883797936	39.1544493715355344
5.4834070941997668	40.9704627766019769	40.1330047348468568
0.2726706514057349	38.0272364875052418	38.1136774042726429
2.9957385564778454	42.4444131847621335	40.0558751096698558
41.6135355994568314	9.3293286843704593	1.0937012970927988
23.8631315640842487	39.9729322562265423	38.5493094542548391
40.6917322314180083	10.6495955536417970	5.7343347355757635
41.8063447326725424	10.2971826807778992	4.6007753731208449
40.6685200568413876	8.6619883591025761	4.5157276921366405
39.5319267878174827	11.2025578894716382	42.4856312142842114
36.8272340821679407	12.0876879105440995	5.2366432034827328
37.3597460754907758	7.4225615550421749	6.8580659463561613
37.7658694456406039	6.2512131116159813	5.0235697009843658
37.7629549346758253	10.9902836229009644	4.1513887928178539
0.2672632869325133	6.7072602269790469	3.8758724053336806
17.8461544905285514	5.5629294400453935	1.9606380370124272
21.9042747734172956	4.0199415949743829	4.4265073273632147
21.4278195219193570	1.5917842591329463	5.0843475301881984
23.5886400199698301	2.1497861286069622	5.8034843407525516
22.6675896525197835	1.7695639804669716	0.6278094936159775
21.4296563334794072	5.2739759343561818	3.0818512688387933
19.2858687227142163	5.0016599721496142	3.8560561355414351
21.5026993470761276	0.5345765703725506	3.0427407972342455
24.8869054633055029	3.0529470024972198	6.2411637262744009
33.4357883682091739	42.0980460410718038	37.9217095430187143
35.8767133875874009	38.4378975994327874	39.9707170649992989
20.2536743791059024	4.7209788138065854	5.6197646575202107
14.6597657284957990	2.8192323452019630	4.9134412343867879
12.9435455073081407	4.9472328215978409	2.5312476343884489
10.8899985662142971	4.2335417403607511	4.8488384910530300
14.8836931892255091	1.0640212019864235	1.3056762610037382
15.4417037570693410	2.4815953169388356	3.1126306566490833
12.0657786250781136	0.5793302667601057	1.9822943358307819
17.9616658340675883	3.8288849471080564	1.0106755575395470
17.0570392247797038	4.0343018645511410	2.9967178133284196
14.0071515859101403	1.5655369015336187	2.9729926983061730
32.8499849400315682	40.9662248593573395	41.1561941343442115
33.1299842747463629	37.6306925980268119	40.5039006747509305
30.2298273173368450	39.2532247111268120	42.7156376697967488
31.9366189111361045	42.2156770858374699	37.1854408041877704
31.7258553872621896	39.1352656087993864	40.9002129778062624
35.1932292264852862	40.3891389177117759	40.7067817311692153
29.9188006121096315	36.7820206440151409	41.7389891582579011
32.0464692103507574	42.5023098578839509	40.0330839388357091
33.8092645512522552	37.0207933417563950	42.3312657326884221
32.2719133514363179	40.3415223066646362	39.3967471543398347
33.6171380080806514	39.8391837633741588	37.7429614951614383
11.6557912987765437	5.9509925920072648	3.5459563209528193
30.7628509890457309	40.5094435696503865	41.5080184497956992
33.7243988518100650	41.0998345931448910	39.5838174784912624
33.8396232030872568	39.4271080580552038	40.1415811430332639
20.2284066399996441	0.6576966219966293	1.4830660536219218
19.8204707737332733	2.9848406236623641	4.8909530456780477
20.7746396771173920	2.4157390730819666	0.2683014487204149
20.1830953117136751	1.3379530262729673	3.5987984416288987
24.9643119353345924	3.3681936915544561	2.6848804337360201
22.7018433859735929	3.7462467732078584	2.4281606184311193
4.2082178760620002	0.0371428314232535	5.6224431212377564
8.0259815176308553	6.5096613457975510	4.4896118797404903
8.0007033122425923	2.7784316245953189	3.6520843260489837
6.6487925110647943	2.0488431903192028	1.8665811381168964
10.5670520660256670	0.1619525971632996	3.2894381949899909
11.4532578149769595	3.0042942391148593	0.1083451003951820
7.7958593666592568	3.1937509722102364	1.6005247756980037
40.8204923320914475	39.7536716524104889	39.0908458952335494
39.0127755594910752	40.1212218878695595	38.3933453611191808
41.6312647158922360	37.1923232838372044	37.3942115605275589
36.6663823696013580	42.2211586622100654	40.7732297693138008
11.0994148698792721	4.0542413607272554	3.2433603553116463
1.8068497060197808	0.8521064985104648	4.4197429071551984
1.8341300196179928	5.3117585540746388	4.2029654678694461
2.8528409909313943	2.1179337931299895	2.9401756416362574
5.7443900947508997	5.8571715481108075	1.7057451659767700
3.5085751948835133	3.7695096136885340	3.9048982955238198
2.7459517798911364	4.3810205016746009	2.5842473661076539
3.4209221716879754	6.1318254822018501	1.7720600635863655
4.2257563574244337	2.3910942299755251	5.0840812085962996
4.5798455017618700	1.2137614228193090	1.8532162148796991
10.2502838982835378	2.1905912462576969	4.0245510691647635
41.6524053265444323	38.1836582219442278	39.3744485828571698
37.0793561997607455	36.7323995838783901	40.7215135807563584
39.2638858752689615	38.6379062963170909	39.9698326696578619
40.9162376329934858	40.0954043323168960	40.6426846920752993
38.1562728215605276	39.3998177283081574	41.9150562593323883
39.7806456029457607	40.3299659334242406	42.6832640941803518
42.3894449955681552	39.6920908758111253	1.1732787095310380
37.9102696392276286	40.0769510963356481	40.0283917747610403
40.8177687388099457	41.0936237709965937	38.2791512431308618
39.5531768796230168	38.9274233332134258	41.4879604950455771
28.9866396764043266	0.9748320108226498	0.1393592111292864
10.0292775374605512	0.4732786200969925	1.4259552814735947
11.3092119174217931	0.1716215297195047	42.9044083463391459
11.5713917108211071	3.7986071460460087	1.4431997528945701
9.1456339859084768	4.9089996986380227	1.3754985488945612
7.1248020622528898	4.4799557068207463	0.5446399106649773
9.3483081991795363	5.3386055076423844	3.5493521899901936
11.6730226596261684	4.9046719318636933	42.3527682316797751
10.5905800420954961	1.8128355097397648	0.7438036388482500
6.2704227855461809	3.6140103947410709	4.6666885095116069
42.1757652567696795	2.4633090089217071	2.1181804453825857
38.9810218758198488	0.1061664784089100	0.9643681326733580
39.7965025778458710	1.1407479519362056	4.7293801476461299
42.1502562123671680	3.3412783480539430	3.7935150687102968
0.7019791801691495	1.7668951583258465	3.5351461623037488
38.3136083889552950	4.0227590299238134	2.5308860101305721
39.7825211365718019	5.3843059704909564	5.6045169383905158
37.1046720064853588	1.0404096781170984	2.7535939031359788
37.7403087200105176	6.0417595582026689	2.7839951816944262
38.2148281100745351	6.0024856197150358	1.2592899234282149
37.1114465353645073	0.4785877415340363	0.7059352638865114
38.3267303038008507	1.5961395853501081	0.8542161893005907
40.3983805734593275	2.0875353673283676	0.8721381824088886
42.7986776656267764	4.4257523493671718	1.2879822798974048
41.5221926257184322	4.6468093777893733	4.6031510975303256
40.3694512567418471	1.8098028555337973	6.9161526943562848
40.1604071780361025	1.3715268564628651	2.3830855361019587
42.0452135369356128	5.4727586753952684	2.8116027979403437
41.1130235200326766	2.6965627581379326	5.6512027331665609
28.8381785155754109	41.5271948067223491	36.3260707174095430
26.3309036772019951	37.9317356085918931	40.2674393824470584
5.5315974333395319	8.8824433749692489	5.1606714171969674
24.4917249145229050	38.9756263166242860	41.2681592698043218
22.4961441959014437	40.5506181241541768	36.9895609220723571
22.8611944347909599	38.5721808299778743	37.5717011084630741
21.4188809888151326	42.4090806288475051	41.8706471996556928
20.6058127605686821	41.6105784146282076	40.6884855517290092
19.4292882084918190	37.4886431135752360	40.4573694248094782
21.9449081180306003	37.2430934690431314	39.0504885405451887
19.6492035168850769	39.6244651121619000	40.3200845516108188
4.6504806701197392	7.4428705704851614	4.5252476089576117
4.8091893398309971	9.5684028947795081	1.7282782091281996
30.4112298689522227	39.5565620521285410	39.2115504457241997
3.9610184573509333	8.9996130997859041	4.6780018724406096
3.4342102501196203	8.1321112430539859	2.6329356408938707
0.0491507869382447	8.9442517717048631	4.4658668048860415
3.2289478261995410	9.4616122092794939	42.1460416258875270
2.0005055575283097	6.2983407498918034	2.5616708376413140
3.4372281982958057	9.7907296231175192	0.9697018715387444
42.2684834817724280	7.9108484036608324	5.9060597884089843
5.1779933299312235	8.8325581831178894	3.4588567406724398
3.1846125810404380	11.4992427025385791	6.7076181706982405
27.9134059649172386	2.4921991272582829	3.7184400812497387
33.8941220103485534	4.4917975913948744	0.6430997753818523
35.2757030887094842	1.0123913538461937	0.4601600254643737
37.5048983770415987	2.8204970180416251	4.0458236710272830
34.7242746026157789	6.9954335611743765	3.6154862867056266
34.6563040902982351	4.1413295492819096	2.0693292789552058
31.3723782615238989	5.4813407316675837	0.9952576338698964
35.0786825676505742	2.4402768150153271	1.3234663949251464
31.5447991546250179	40.3281359927408545	0.0602483394265394
28.8218493995769656	39.5965752428209257	38.8791359764919164
30.6208974513031258	5.0776819303681835	3.2057041082850346
37.4625109252629898	2.1249074935072212	6.0702681390935078
26.4032271036440953	1.0428114658251630	4.2268570512763963
28.3483566604516000	1.0065657164714694	4.8022955422526810
29.7693187146989402	2.1996229837949648	4.9664001494052243
26.9443312239885735	42.9677749438234216	2.7151155959187054
26.3084769869365687	1.9441016378819616	2.4724620753034663
27.5943326910557012	5.8298879772493564	0.8015275103493120
29.2203205306396789	5.6860943250129772	5.3603334273774781
24.7507603293017659	42.4549580029615115	4.0620844561507017
25.8791838685559163	0.7460920370299137	0.9678943068425535
30.0604352455650954	0.9669713729005505	3.7039695714216831
29.8714306302448804	41.2985674624369423	37.9528425016994149
27.4482509496199079	40.2914297707768725	37.6817280197501745
29.6700805572238302	41.3248435108507479	0.5085315021077323
29.6769564346359687	39.4733076842888408	40.8149719540516500
29.5377727564489234	41.6012343901812827	40.0034350715452334
27.8560661455352658	36.7496513093001980	41.5327899653228556
26.5075544018546836	38.4164045098786389	37.9062537070773828
26.0376900040454693	39.5316800013531235	39.2397697782285064
34.3765398559385318	1.0514314492296830	2.0644659027555492
31.7553899421019707	3.1401167887409693	3.4632868024645962
13.0448494911138635	15.4233805200647378	0.7846760147967026
33.6207279958407526	2.4714543646830904	0.6121292471921547
35.5650447801421237	42.8865407965452334	4.8399846891000902
33.7145179974511606	0.7360837231461588	4.6314310045417892
35.8603017622994358	3.1649824820909225	4.9947259793353949
38.0932080332780103	4.8110678265569788	4.3326841088224501
30.0431009899279431	0.0906846975244839	1.6293777642301326
36.4890337776150346	7.6334713567716488	4.9555691548269127
31.7188476267558315	1.3549260333414415	4.6936994220773185
35.7156552452202192	2.3106694528814415	3.3347196108263004
41.9985279932356335	27.5322164967514915	38.7413145920062973
42.0013379330872638	28.4240739624805663	40.1223812082893048
36.6117054301308826	27.6952950532005389	36.3971727472646762
40.7946255341777757	29.5912170056816706	39.2214267060640509
42.4762981371355366	26.5234565890850043	40.8126565159163235
42.5525875138794589	30.2045813041787738	40.3605043103122085
40.3191831528382068	25.9870255011571416	36.8354187813532192
36.6323216187098737	30.1591171068579769	40.7203110449329557
40.5888606237605742	29.5557667835439410	40.7427002289965259
41.4762816389905211	26.0959207567338147	42.7841962976556687
41.0814450492243353	27.6092641521894606	41.7848898873740282
40.4253973415102763	20.2575020856751316	3.0310557340839455
38.5627781772643345	29.4686086942671963	39.8383478483225204
35.6631249413252860	22.5153884072794028	4.3803661731936270
31.3965246218449572	22.4755532186853237	5.4539625190228147
31.3477398169217594	20.9385421067928341	4.4878373437778496
32.3195400727069639	22.2182625317983096	3.3189868423673317
35.6015502494895486	19.5831882230047043	2.5943046428624470
35.7303878657323821	21.1851462377237283	0.8495354995838948
34.0977130586944952	18.5297209856452554	6.3778715416865133
33.6987058046478083	22.4997044572445510	1.5246640482157576
37.2022690917759178	19.7716169954187855	1.4891174216044958
1.4916650332915342	29.9210102098099462	42.9016322400164825
30.4660880360027946	30.1380625883806275	38.8251742255526437
36.6727410366930187	24.8005895348437981	38.5997940110760425
36.0661397679382034	26.4852179793108036	39.9185510521269578
31.8046813840513742	26.0424055047061316	39.5617359773399926
29.9923437831950750	28.6424780719094620	37.8075573406729077
33.8852248632317909	25.5283244580600801	40.4711098507843801
29.6856810882572937	25.9142169315217359	39.3329064133231512
37.8787466019009003	19.4807213296061228	5.6370801548852691
42.7267237965009059	20.8024892906982046	1.4999093021537135
34.0648564110379724	23.2369926288241260	3.1930348309842369
42.0968647543686387	18.2675758740846277	0.3265858192141321
39.8656904615136511	22.1484786884083142	3.1688714083131124
40.3795490827755685	23.9681419972063132	1.6135095520972103
38.4701046734470893	19.0200191697652272	2.9296132190306619
35.4714661445244559	23.0244654261394892	1.7146195940118691
41.3466552381459493	19.6532860896648423	0.7489824716212777
38.2323808409429446	21.7953694728532099	1.9356101279417273
42.2207373695328485	23.5209711289192462	0.9592814239114691
38.3695384293464272	20.3407748349458579	0.5013363484271106
22.3669724182805112	24.8851642882860240	3.5418394308826318
26.3144469321741852	20.8093149394319639	1.4859348158976227
30.5068951762282481	24.0961645689684794	0.5593429379458158
25.9841019926387915	20.1098765805351860	3.1858189003899122
5.5147556981958816	37.0296266559682223	41.1050199803668832
5.1772068434787100	32.2770636179194739	38.9349372800869418
42.1722464270900019	33.9082776595046909	42.8375772232494754
6.4083613500369827	30.6058110641862591	39.7192310157654873
6.0944190509463407	31.2705514512009515	38.0312226406961855
0.9686834119255991	35.6709695521103143	39.2526969933037009
2.9618184839312227	30.2039512828985899	42.1214570672864284
26.4151818296617407	23.4270714276428045	1.5972530219311616
18.5569980291023207	19.0955465490747791	6.2416579949717423
18.1830157358499065	19.7590002901433905	1.1502857747706206
21.3077999452692524	20.1181004385360716	3.0477952731186626
19.1889253285629984	23.1995851785444778	1.5647045837942903
21.7352603185269189	21.8820725689491979	5.6552425044767043
20.9964085082474661	24.3605951038059025	1.9499702527524467
19.4725278105649657	20.9568922290593775	2.3269408655023414
20.7172025400711455	21.8962707611324738	3.6700809057349106
22.8251696556318286	22.1846362343649126	42.6592727650609689
25.5990343883609768	22.6574882616258364	5.4705792281164811
35.5525547552634222	24.1579287619371357	3.9548901252815005
4.6169797339419265	33.7011887338863474	41.7775126424596621
42.9834045898780275	35.9368160366326421	42.4816638509197162
1.7179123516170962	36.0974502216741300	41.0976607861891452
3.4384288186357339	36.4409753009024371	40.3847470920939244
4.8557857869165630	36.4242104224922585	37.2576726493408756
4.4573750353490391	37.4376626640823176	38.7125487826018144
6.1028174271765199	36.4090277184224504	39.1885477848212531
4.3156866773880997	31.8613886128701296	0.0430280471733298
29.7052861436086069	22.7563358667178193	1.5857705540546736
2.9470793714269505	25.0063573356369417	0.9552730794633355
25.1962480758249825	21.2777169572570983	4.7228063477154443
24.7898601270784091	22.2549680836459629	1.1526125253695363
24.4782634945649988	20.4422788172608065	0.6205249275960379
26.9949280967662304	19.0142106659140495	1.6950554157245186
25.8224205681821246	22.1689642493009025	3.0584070849592160
28.4405016979564920	24.4037655242925666	1.6940650430722648
29.5832594733121077	21.7269559108663906	3.6578813455602019
30.4144994155785007	19.8225765496828004	3.6549761806704533
28.8837917891897895	18.4621350737653707	2.4686943469970748
28.7093144213838691	30.4841469783350227	37.8481057586495879
13.8765010267660056	30.6879802955850920	5.5814824093079167
18.7312825334116333	25.8808179106137111	5.1128652722162737
13.5550572387030286	27.6782286876144319	1.4425798704747277
14.3886430598646502	26.1463956985642270	2.8237362414908027
14.3667789606255578	29.7026592455379266	1.8206463793384760
16.2849298065386670	27.2549563310391711	2.1898614520340294
29.2003735868800689	27.8082187039792679	39.9681891292898541
27.8217612945233483	29.3397833717498955	42.3215193486844470
28.2590688600712419	24.9046417797679069	37.2314808982048149
28.1902375194788100	27.1342092174422014	42.1896059694817751
15.3841863534627983	27.2233155972465148	3.6546891636497656
27.9933409118420613	26.5320480180520661	38.5992303264371586
29.1868705365598018	25.4002245195597212	0.1393229827221253
25.8495890300644682	25.2701503960960956	39.3689508315227172
26.2696768726199785	26.6396713767358619	38.4982502122712376
25.8720946456033616	32.0827958473467731	42.5471982553764647
29.3741252269987925	29.6968638446630528	40.6113844983454442
6.5737394964607887	28.5567044403089625	2.1449911606537899
7.5744620227879400	29.7914080713354927	0.8151674151219059
9.8349140270577227	27.0212700961460541	4.0157572893098736
24.4390208163770559	25.3026838195843276	4.7139794231125878
21.5200249639247438	28.1818299241490564	40.8110052237045267
20.5441009887359485	26.6052061520826122	41.8525002640910770
23.5127176434133673	30.2843344686181410	41.0806443921151683
23.6987597667027430	27.2090850660589822	4.6485118974403372
18.4981446661384545	28.2550196572349108	1.6974209797582911
20.9424682189970568	28.3825947764097748	3.6498717231200088
21.6891977813551371	30.0734148585440515	2.5676626525546036
22.1930164187880017	29.8475269936030969	4.5362206424275593
22.3846912483900091	25.8314464188286408	4.8154161111208875
20.3847636639726382	26.1090919383328561	3.9139772073798182
6.1560541012884666	26.4740876103256717	1.1541038040078717
21.0821428349583755	29.6812303798437895	42.4548892586619502
23.8118070142203777	30.0303610277738926	1.9313752680445067
21.5429050320027891	26.9113660665803067	39.7186212951785791
18.0701090023598674	25.2333057925726649	3.7888814710986534
16.8031788829038433	28.8585119264526178	2.6261032395540220
16.4035120310076259	25.4987427848940413	2.3534473691940034
15.8508407843378549	31.2520698296068851	0.9900991983086902
13.1641172130816440	26.8134646992044168	3.6673914440098487
17.6117327831390575	26.9729647456344459	1.1658844388084788
0.0804972648407947	25.0537272239377451	42.9728849596184830
4.7374923982213071	28.0712871852418075	1.4971631101657235
1.8890790031628097	24.7618447943722622	42.8030708407806060
7.3156655041947820	29.9926638668230332	2.5039777853329444
6.0988824453689547	31.7382342242015554	2.5190247714545406
5.5506563721090680	26.8044916705985230	2.6001631981323166
4.1799707471238348	30.3970173745121741	4.1247412341428760
3.6412218621143948	30.0159287694227572	6.4246585422347628
42.6180638539682164	30.8359502828055021	5.0083114987334207
3.3493894383828833	28.9816248313496132	0.9379955077423905
4.9395763677559552	28.7120484182097329	42.6691292718452218
4.6255451251544430	25.6714498655784027	6.3796612382034237
6.1356795709341956	29.7131985623180199	3.6177588270652228
1.8111343284079802	26.3743066712850194	42.7943402718500963
3.4436120877019740	25.4943333621333572	2.2800863556260977
6.6130573320371449	24.9284349993081982	1.6062811560910035
1.5553129744789662	26.1066137906899804	3.0573053242274084
3.5474206077814054	28.8301111837015540	5.2343009741107052
5.4490127474234686	30.0481596702274416	1.0740337329875473
3.5979531096602493	27.0089110662252239	0.5970212020916911
3.3064206494539450	27.2312343309485989	2.3458511412892777
11.0153751456753835	29.8973593826748356	2.6086441877631747
7.6438417217591494	26.0894103301233429	3.9088930983532770
6.9522202702950260	28.1080996248148374	5.9683235063699147
7.4831277574922908	28.0071392105885835	3.9980794674250193
6.5594141621367701	26.2398018456215389	5.1181267215437245
9.2908207078417462	31.1952773658276357	5.1612791521105947
10.5338357999981103	28.9228636209988217	4.0906050885123344
10.5302719076591735	28.6065730509494465	0.7479687827342156
9.4570224603164625	29.6140632404096067	2.1788878700583547
10.2648652213828928	25.2922073043409981	3.0029349585572063
11.9522227851843983	27.2649985837648678	42.7785632649704937
18.8469139374844552	18.0705083137254761	4.2728360363568560
11.2828584609775131	25.3976410019028371	4.5563802962929438
31.5356076550116811	28.3460902844070333	39.3002501937647821
33.0500437452232774	29.5601264303450648	40.3643392000917913
36.7283775189840966	26.9870382933428985	38.5235185929698147
35.1512584487149979	24.6923476339953183	39.8331661763191818
32.7966910269323577	27.3547742362523927	39.7402487156385149
36.4087394807981184	28.7342309036024375	39.9669928269602863
0.0584664360942259	29.8080605378045753	1.6990952358933893
1.9087199174857241	29.4180288233376501	6.4029614764710763
25.2780218600048592	17.2580998208655139	5.0867703391544072
35.4811064004596091	15.0698896682657359	4.1104121702951950
31.3951217868455785	15.2977148273256169	2.9364710149434954
37.2699155458490097	17.8156306657260970	2.8449359355242367
28.3977243851665584	33.6028111904466797	40.9835849242442620
29.9110487597836041	33.7217567986426801	42.5691667664397428
29.5013282868875173	14.2763423079078962	2.5960139991083486
29.3297506982216873	14.1799497535011980	4.3128697165164116
29.2239625075485421	15.8379954905229443	2.5042253498558731
27.9537110587489543	16.9382491260291381	1.6973521723316440
25.7899977497343649	14.3670812999094046	3.4496239758970382
32.9160185905205083	18.4079670002475808	42.1832805747263251
30.4631885048961024	12.9062759169611780	5.5336836649586294
25.7207311821168929	14.1546579249855036	1.1420164848894259
27.7524969614347263	15.1250298531150325	1.3636439286933775
27.7172311599550696	15.1504843405022438	3.2590620393836160
27.1371151406359381	15.7027629017029415	4.9460482864970645
27.9350161879700316	13.4879000867400336	1.1388637920710816
29.6614231713500978	17.1038194207913392	0.6943955515972167
25.3455811264044684	15.8206569474223286	4.3150504842059663
28.1953675676987991	31.8876083278805247	39.3379924598774764
21.8419360733437422	32.4751827549507084	42.8119194022525846
37.6880035889545013	17.7361977012125180	4.4971764240482610
41.3880701357690839	18.1377057761019067	2.5047824362266167
22.7002274308190657	36.0747609595343519	39.9546794484732501
23.6992928285296252	32.3805230585208221	41.3430260566102916
22.7781022435448790	35.0427014030596382	38.6483971011976095
24.7288269983391551	31.1541217062632150	41.7383723114589102
20.1344241761906169	34.5348958094096901	38.0354335782680479
24.4949765959022550	31.7442554690417396	36.2181932792876395
20.0637412788337208	33.8013052502310671	39.6405577080804576
23.9263074688298829	32.5644745457420086	42.9958151964058146
30.1072995191854318	31.2117422341026014	36.9102547981220184
22.2959615967183176	37.9935689423457461	41.0307863684112419
21.1718489910856213	32.4832185949167709	38.9520804478512019
21.9545792539966165	33.3416452983842362	37.8980863970700668
37.4870342378414492	15.8317366059435773	1.8254438375271675
35.4537365187850142	18.3731110685289494	4.3416978933294930
33.1253073651257495	16.4259232688743886	4.0718115528535881
33.4863720308163835	14.8255888340787880	1.1753222679751627
33.1179913403130897	16.4421224579347580	2.4332748012849836
33.8419049963269032	18.4156514632418968	3.2647832049050405
17.3383045727135716	18.2214105067268761	2.0786842955505986
33.7706668971346957	31.5492478759359898	40.8644319406386813
30.9111037567929507	35.2124323101498291	42.4249011227719777
16.5951007679779536	13.3655965627254254	4.4667329779933178
17.2138364419303542	16.2690500243733034	1.9466808949893935
14.5825831213043227	16.8778762748845743	0.9576503679292129
12.2957559231743421	17.1999568617455303	0.7335196389674475
12.9765902088545939	13.8152004738474048	1.2870864051324051
15.8453364185555241	18.6677111846687360	0.9011628079280980
12.7466804115380139	17.8869704850177520	6.2521092394253142
14.4396611827244321	12.8244416639327827	4.9930377819077680
33.4785703465063520	33.5946934374386927	40.7859945208054313
13.9607537260143477	9.9508749549584490	0.8226506851435266
16.7454178679885217	16.9800037034286930	0.3058980807896017
16.4553213028863716	15.3862396529823986	42.7132474178152748
12.8184691512755080	14.3331301844287555	2.8016948328995213
18.4490623675646432	12.3499419342680987	3.5824043944580719
12.3717315723787049	16.4470655388491842	4.8568708401888809
18.2757716304414295	14.2292182359299577	42.9302196419662963
12.7684929430013909	12.9083338965890615	3.5996434564783706
15.5687357624888723	14.5467099632123062	5.1012327759565537
23.3927416385677631	16.2951446038447720	4.6763037549959918
29.6283454325037425	32.1673312554581514	42.1880289407179632
25.9106570012622193	37.6437392316523685	41.8867454161172219
33.3556051975603864	35.9464654755567565	39.8121593783751635
34.8483054144802864	30.2282738563791717	39.7341831263957772
24.8605879608631852	18.9412657097941519	2.1180741147806894
22.7686270950559191	12.4267499108649169	4.5043274525440680
21.2132698210745438	14.5875152822057945	2.4199953462986912
19.6278345555254887	17.1591553357027848	5.4315736401022878
20.3713247074480321	16.4444530278927452	3.5554801475000999
22.0262263761666190	15.5889440093187925	0.4466645353533052
37.5935795657895611	14.9300348034050483	42.7012288627495948
21.8094914634561263	14.7678469783813000	3.8642969344409552
33.0453091472590614	35.5521488793616527	41.6040668328128049
36.1253103501671333	36.4268605841398099	42.4715219521623268
31.2636121480317435	33.5028165021407602	41.3309884177137477
37.2955616555130973	34.1789248427120214	37.4096453696192199
32.5908479300816794	34.2469282799656654	39.7003305494557210
34.4810256223727407	34.5959835520540224	39.9000182522691631
34.2479577674010045	36.6929661476203535	38.6524385032069944
29.6980485725005359	35.1654105599954363	40.7887918700735455
8.2279898202842823	18.1939224186662827	0.3957425446690185
17.3598139212579241	19.2407813449148115	4.8834176174389157
15.1593867195536909	22.1407822060253316	4.7814610006944758
18.0923925935426908	19.8265099295174920	3.1155884883660243
14.1095173352394276	33.3706476892066917	37.4047166734332279
11.2696739661497247	23.2002196217995795	3.6281321122966044
7.0448926933272089	21.9220842913742899	5.1534221267275910
8.5645867541140941	22.6197755446581326	1.2111223318271187
8.6884863754247394	22.5351826206269159	42.5783878046901876
8.2571640557907671	24.1597671928328666	2.5294668816229677
11.5814076163783763	19.5414858442561687	6.1947099880131269
16.6269999214974895	20.3315217238093098	1.7903573504788404
7.8340402073735467	18.0228199921987517	1.9360882926471272
10.3481415302838400	18.5003032643875756	4.6296830170811409
6.1043977224403552	18.4516463202892247	2.6128161710333484
10.4070826783208901	23.5136898300098451	42.9735282211011480
9.0402115370629161	22.2247940880127040	4.0239253565075437
7.0062828416222560	21.1836759232632836	0.1769215106450213
9.8960481672908980	23.9893160623857753	3.6552584511677177
12.3310216768007717	24.2504127189868441	4.3842424535983913
15.6895399319555793	32.9689215016577535	38.6645090067416035
8.5148537941263847	33.3742808948587566	36.9215761394097157
18.7251423474552787	22.1320959657342904	3.2274943868174377
19.5157837956154374	23.5735123291779090	3.3201935138235319
12.1382788094278951	34.3616399552238647	37.8167369789889136
11.0976241291366140	33.6910188382842435	1.1465373824752068
9.6950789462798372	35.5928681400506122	42.4769910192614901
7.4370068163285676	32.5392491141372133	38.8201866815557395
9.6012624559972028	31.9672577227544430	40.2753831763936319
5.7822945926097438	32.6519929771954338	41.6329013810075352
8.7746190988787518	31.2361575490414509	36.8012602080991655
10.1820198297040374	30.4051582278456678	36.7082101156406040
15.0832846763461745	30.9292015057442988	42.2151011896223238
10.7625559308255028	33.8011244645577591	41.3396415024752102
8.9134466699520587	31.3338922855466322	38.4471117733834333
12.4008036763368157	18.7582508013915934	4.9232719284928264
17.9706622372756719	22.1215172603269536	1.2994189955307403
15.0778768875841340	23.7785869246903268	2.1137506505229418
15.8162111122850355	19.2587976900270839	6.1539286029810452
14.9456003798249260	21.0956560382669061	3.1723206638943764
13.6163186895984296	22.7913280269178955	3.6080534079682862
17.7439335756457019	23.9900592377716180	2.2881596636920039
39.2711828401268193	13.8594358558994895	4.5417221471600273
0.7379422960809948	21.0174803315797369	3.2987759710619513
1.7409377548896068	21.0107543136384578	5.0164007648525830
2.3225611483969471	23.4158018365526495	1.7178717617782187
4.9826397674913823	18.3681694909182092	0.8069447026810161
16.8427358802149598	35.6339803236214578	40.7615876133231438
16.0450953690896192	37.7828690571074191	41.1515152884504190
12.8765763296163591	33.8285939113481149	42.0660709113204589
41.6304964213844357	12.9373560447755729	1.5643425921828631
40.6420683160437761	12.7789568513731204	5.8778489437732508
39.8216196076110762	14.0200534670117403	6.5547840558674553
0.9040037056945092	23.1364587682673282	0.4710578435758759
38.4547062910092450	16.0229864827046455	4.6170514015655746
40.7483192430645076	16.3162202095458824	1.3192872237978495
36.5077808332592184	16.6867467115589712	3.8479064840539174
39.2081189340646077	12.0748794403565238	5.0874224349974471
42.6112290525297297	16.1448319695337155	6.4473531222057643
38.6546666326032025	16.4444947704512145	0.2421105326704768
38.8173081617097822	14.4856778070449490	3.1497395569939082
39.5444329857499000	17.4190950938090445	3.6289316080936369
42.3951828920880729	14.7793565279328583	1.3564223011401111
18.7304731111636258	34.4361878523041369	41.2699271780510841
14.3884256362803651	34.0127292156091698	42.7284195639251294
11.5086987876870079	32.4150861826508816	40.8670409673171378
14.6421435720734792	36.1960555753995692	37.9488465736481118
13.0945932006825796	32.3265581439549265	35.9337937118596074
15.2034063386739220	31.1281706476414577	40.2853235870504278
16.3565654057490768	34.9880215525495473	38.8685697042855764
18.5704616386111319	35.5345620480296631	39.3810587869054771
15.9907998601625625	32.8748494650300600	42.7384755697716230
14.6681628445591219	31.4555242391590681	38.2317832127078674
18.0068310278083743	36.8765067723757838	40.9176409957167664
31.6028870788741862	38.9198714217391810	7.6653075658454748
20.4618939191565836	33.0233731804627695	41.1481411778139829
3.5682155083502711	20.7944605134440117	4.7019416116780386
1.8857307205702813	19.3180698742754515	3.9625083973193935
2.3541413875727124	22.1836612899235455	3.5640263941103951
3.4498725976615465	22.0613978501784587	5.7371976762964394
5.1171073140436496	21.7452237081671491	6.2287950103879703
2.2107177327142353	19.5359294986349035	5.7433846070493484
1.7305784834605884	21.4150223240165829	1.6833507524618612
6.5175143259434183	24.6184393358181559	3.6121706719306457
0.8597769345359539	38.8975725617549983	6.8098367934446431
8.4524586312565280	26.5950653246597462	11.1028108869812705
12.7596347701161221	23.1449207325525315	9.4570393381901230
7.3619191873947907	28.4404153955834715	11.8758280514901955
6.4423039909050406	26.6542730220348290	6.7630196669715943
8.9014127790093962	29.5352281488427515	8.4077039784070227
1.3281535302871661	42.9158204174826281	10.6673076694469362
4.2098064256770522	42.4486131232679540	7.6688789933405204
5.1803392882278390	41.3749951137449372	10.9179772382833242
1.9912163800856890	39.4777197315170341	8.6700205529558225
1.4727541796300552	37.6464833493102020	9.9886478963665901
1.0738890216366936	41.4089458578333236	9.0728384497275201
4.5908329596824826	42.4893984233210631	9.2736256839276212
4.5988150979103715	40.4025212717604774	6.0439130571852742
5.3217184295094482	18.6017563639575769	8.4630997335593783
4.7413356388262846	38.3131617964568534	5.7777849713079883
2.5209158811970003	42.4217686630631476	6.2195337698072590
1.6445325881564339	40.3571671710319393	6.9260024227627666
6.0802923404442906	40.6286780053761305	6.6216497006740429
1.6906564564752309	38.0574844747323056	7.8993634767601746
2.6356907224779196	41.6581926079723743	9.1518021967571208
5.1350917499371764	39.3861093973037484	10.4745491320627249
4.0305595183969185	37.7344199874621253	11.9896161763539446
8.8689355020964591	27.9985010963768772	12.5147353672771811
10.6434246444091087	30.7199944266368732	7.8086840527251482
6.8620091054692081	28.9138224065392393	7.9996479868827501
8.6180381579477210	29.0564169659222706	5.6149044124371157
4.7134503511885679	40.2511907640104454	8.2327960276385550
15.0880191027968138	32.1084682712573084	6.6386518556578435
0.4771757040789907	21.6628634809942184	8.5201200449789578
4.1828517863734653	17.5972177941002066	10.1565557603211136
1.2368620273255027	18.8955941425714506	9.8269873251306379
1.8258116083473885	19.8570876967764995	8.2441431925659412
4.9199222388511297	19.5603792734539503	10.1046757820918458
5.0080906114718147	23.5205562996096411	7.1337264766489570
3.0174337063161007	19.8934531809281552	10.0131018286716404
16.5401470616711528	34.0991531353148005	11.6838467253797749
14.9342495478264663	35.0979325228012158	6.3200822411338438
24.6454997649884611	1.1658602467471983	0.0355489940058078
16.2740240995134009	34.4752476719846186	7.9324716885515576
11.6314796929159776	33.8751172591417955	6.6631184661481244
12.6211057560269388	32.1068605215486542	11.4720446726405658
12.0553429278127187	31.0338799389602791	8.5457017408062637
12.3055011819047682	35.3234747161795326	7.1171093045729918
14.7324813733307440	33.2229877475994400	8.4297264717766787
16.6294988691398480	33.5337561757127958	6.7713867819949449
8.3825273925449366	27.3648463182168449	5.4426484147170120
8.7778546740781351	24.5401454436239526	11.9411015819948982
1.4850997864129667	21.4659155920612221	6.9213011644143334
11.9627404667847408	26.3251104811074939	12.0050401742838773
5.2384800669086617	17.6243679728065246	6.4498788792148218
2.0933578476563626	21.8659594171259748	8.8213989116359866
5.6756826399512148	22.9286046155556527	8.8946318828202919
3.7821035046913858	23.0863437468810737	12.3967198250793071
4.1984251124049852	21.4535345255649652	9.2584456400025221
7.6239806683616616	9.8764211853310524	40.2285933605869133
10.0864265742153698	19.4882104598289452	10.2805565697513117
9.8771692456833868	17.8595994583866187	8.8899881745586491
12.4688806261223029	21.1238189341685434	7.7108136022553113
7.5407275013630803	19.5578248059479023	8.0542557329712174
10.6834534086626700	21.2543155198671769	6.9958126903816860
11.0962916287208575	19.9261113050958727	8.4091654024751623
6.8737942434932160	22.5609768057832802	7.0375494287105758
9.3259079339480984	22.4856572545950186	7.2519709558897585
10.9250924333088655	22.2767964902010149	8.4751412039505105
11.2274446484055606	24.0647741732953726	9.7500504726760191
10.7425302096921911	11.0858266995516104	41.5713412097385131
10.3284773757787587	10.7287729322398668	37.4647048075608637
8.7663923576581020	10.2495842761036275	39.0575264475428199
8.2127779220407557	19.5939230000188616	9.7082459464681445
11.4706002189241794	12.5406011587949848	37.2971592474531803
10.2087000652430842	6.5304920707627483	37.5443335947743364
8.6565746165324082	10.6868828636263622	41.8714682822838142
5.0879271311987120	10.0750357599797500	42.4571558227802655
7.4645672394566089	7.5848470155042325	36.3526207299622186
5.2988548676628815	10.8357171812304358	37.7259014159899451
11.1129020385927539	8.7255529238862160	42.2349950968226011
9.7548801184163842	9.5650650524068830	40.6888821063075383
31.4106602463498845	2.0098633628431406	39.4344283948850673
1.2376587746927719	23.9058612296978517	10.7426306484446314
2.2282793539800068	28.0854709252954855	7.0607971045507760
2.2452005552618486	30.6627890528641558	7.9737843841053540
38.2517746361586433	38.3055558410289620	33.5591643637800559
10.3351334502421803	29.9119837871153322	5.9413485321674422
41.4824745528979975	38.7531026507832834	35.6890640604654479
39.5202557295514865	0.6605357311493761	33.8732861329990200
40.2308074363149970	38.5911583256441304	33.9269380249758896
40.5131736310982120	33.4037151632739793	8.8162527268123529
42.7365983360855353	37.1198001971332516	7.0826655592126064
38.8433973358690849	33.8410900623682309	10.3586555339870792
40.5928100234602169	35.1121823209170429	6.6839083350007362
41.6521701681438969	31.8179333529611128	7.6758825452331783
36.2761049312348050	36.3756344644103180	8.5973234864567658
41.9540496737300401	30.0797202466926770	8.7232885687451045
40.6928316068075162	31.1742219871973845	8.7912057774941470
40.8298587324646434	40.2330799916439972	32.9465050854502053
42.7410899841090810	23.3225464886072977	7.8651471053219089
9.3396366843082657	20.8302601378428953	8.6939743905263214
39.3698953289139837	38.9156683957590843	32.0870514997076128
37.8045627925478627	38.9908007079139409	31.5775067798599309
39.4363371559087170	38.1148184500080589	35.5027687816441073
41.0681627511077707	37.2837331272966139	35.5634361279407401
40.5610751969609282	39.9877623833145321	37.1049241177049609
32.8332554916055983	0.8662961443374031	38.3623652790786451
35.0346920448992663	1.0366074246605526	39.0339067212953452
10.9165810111212593	23.7203708764371441	6.0298245277974676
8.4287032238109880	22.4036849927613915	12.5684102196234218
8.6588520387030776	21.8869194803001470	5.9572375639857391
5.9214995596126174	21.1308741945994747	10.1042005517211599
11.7898697180746108	40.8598564861566445	6.0933502603093528
32.4018577238882770	42.1983775859679398	35.1759922057205330
33.3860397440384062	37.2217713372241263	33.1187629937438786
6.3448323487770262	39.4672083712723492	9.4022836535225789
22.2341225889411334	9.9299665955952765	42.6428463961847655
14.0940849061760840	0.2555580038641297	37.1653558356405327
15.1608374849930208	3.1267985156602958	41.1084341004945060
10.8648666723373353	0.3780828683749256	10.4732065787362192
12.0696987791940344	41.9669037148724087	8.3724188188195185
7.4445385601241689	41.9693016830570542	11.5282418127156419
11.6600810973747446	42.9438818281896388	6.7495777544657658
9.8076501264178138	36.7500892754344051	7.1471138720454608
7.5608669041979253	41.8461631289103977	7.6032546305760134
8.1493823069470199	41.9986063632745541	9.6137739581195643
32.6620002639909259	40.5664728678915338	36.2082552505985475
23.4629035804442303	10.2802499003908476	37.9841799814487402
19.1614621720301521	8.1710422010564567	40.6563303060705010
22.5130353505473941	9.2269187100273520	41.2008420931218708
22.0658392630990861	10.4247409521930496	38.7866683796789715
39.7844109913082207	14.1889372869255901	8.6256634609328451
40.8783582003833246	12.3598971589148601	11.5167819846680395
37.1042209761970838	15.7003035701121227	11.9788583054544375
41.4775409963466402	16.6011739622277119	7.9166363584471950
41.7847787166037676	14.7188097166834950	6.4743941186773792
7.8992419274387276	37.4501816045356293	11.1004042621011703
6.8657670302681559	38.6940735605157968	11.5358513017226869
9.5200857986700100	36.1377921548214829	10.0015816000920719
23.9375036346646191	7.7643312298875689	38.1236161347775990
35.1158897491599120	13.5808034486043159	9.2433038815560646
8.4247629995566236	34.9883495196333669	8.0380851285451307
8.5756751054165203	35.8841677890642998	6.4162026198636228
10.6919410240817214	32.0757170306631494	6.5916943152360998
11.1796662680079564	36.4881099790342418	8.7931873696220180
15.5633526806281708	27.8831614625523123	6.8080013932995715
32.0773741489804891	15.0897554509049243	8.5306293138529643
15.9170181434459472	26.0379832952710295	7.6522623748702898
14.4805387206349501	28.2552147340437827	8.1276216565125683
23.1946301965981085	5.1000495659976757	42.3714275236604507
23.5971187151072925	11.1392646693561428	41.2482646535492350
23.9783236117659513	7.9897639322608809	41.8638763009401558
22.8347598791323350	9.0013551052439134	37.0710966837053846
13.6406432886261193	3.5796424598011560	36.8145041731862008
21.5290523720395086	5.9995163313992288	42.0767411090878127
20.0729650822675652	9.6001269568064842	39.3092049085789199
21.3638310777422724	7.0133569036865975	38.3779426463622855
20.1823424851771343	7.7565516011213980	42.4799684517267337
19.2114423741850437	7.7346039429627940	39.0393320055375028
23.9145874325834704	7.4999433932138819	40.3476134073372563
14.2188615474922653	29.5175563793023557	6.8533951709855483
14.3852234906022112	2.1333209712317096	37.9785376351413504
34.9962124798799437	41.4386363080946580	37.8280001566763602
36.0827175685965500	0.1818802740349931	32.5461471751703542
37.9275929263316698	42.2173151425689284	33.6088402216822928
33.0857453534281518	38.7240164228548096	35.8672619539636273
9.2978258894640629	1.9724778596543153	39.8792176182511469
13.0053436665638529	8.5381506989427596	38.9276472877645503
12.6145981458902074	9.4344712897707268	36.7954181836442658
14.0074096059114552	9.3062433479195441	37.6087390238741364
17.8324714954200374	7.2576488805128099	37.2372703578336228
12.0736632845144776	10.4967058275312422	37.8810583624233317
15.2916124599684746	25.9224390914202871	11.6907009825163453
16.4321908336583533	29.5396544228992184	7.2962771206544863
14.8809299829109545	26.6243639849953659	8.7397248937514949
31.4938056279698877	2.2317325800167684	37.5209240281007652
29.9371056950399606	0.1168605970585858	39.4671207774782928
24.2500791244746523	4.1998369941166160	37.8108584248285169
9.2284433767005485	42.7446452853776506	39.0124380115269673
8.3656538663298505	3.1144114559953486	36.4158886993460200
36.0649970104816830	41.9163914029089426	30.8531914773130218
14.6078728519975751	7.5771432625792832	38.2648015456559989
13.3588181355157047	9.7793606186435920	42.3232676841617419
11.5720154677770424	8.5440589620588998	40.3635186085193212
13.5096483986111195	10.6761664214557275	40.6221714547093455
11.3624191255524511	8.4740985167096934	38.1555108819757507
13.0973097308674689	7.3777224191319153	37.1828813446310278
11.6214642454799666	6.9602543785456676	41.4808667853200390
24.8500089995841655	42.2925093742692795	42.4029011255686257
29.1090019652820757	2.8765468942579004	41.7698438271151957
10.5259880636420213	0.7711288529207649	38.9059875063404377
42.3203355300225255	23.9511738530488785	9.9288954003440892
3.3870435660174478	22.2889847434719179	7.4419651471834660
33.2439659664084601	39.2876709362930470	33.6131915558370338
38.5423580343277337	15.4029547529954076	7.2237602736332676
41.1823305742321750	11.9256916126102759	9.0533939467090612
39.0075503767174752	12.8758860999946716	10.2448789619887783
38.0746605601393782	18.9596512792978338	9.7797618670227404
36.7850016169525986	16.1968713494232119	5.8813869839673059
38.9943529744068513	17.5261863958337969	5.7760524342808033
41.8854440759087581	14.0245447825666094	9.8903739742227881
39.9441466862865866	14.8894268113661798	10.7603968137830748
10.6366281732900010	40.6026716742098444	7.7647132522242801
8.6610758369371865	0.8731486787870308	9.7926044906439831
36.0739529115698829	38.1704573655003472	30.3572086906423948
34.0166414546978828	41.3131252873221229	36.4169425315924400
32.9174259203363988	41.1421221945930213	34.0500417287790995
40.8737938769782758	42.5041832278181673	33.1902411558831147
30.8004411561469915	41.6649440197403038	33.8175141810000142
13.2456069625762414	31.5978555065863240	10.0458351229221865
31.6210281638913813	36.6999344569663819	31.4967540961323778
32.8344868698355796	38.5557198396678729	31.7217481250781752
14.2989578180604529	27.5934432534275622	10.3869265245036182
15.4442120942559278	24.2288428567346585	5.5266496518019661
14.5604585085762999	28.4352949844680580	5.2268627474370906
18.1442023189614048	30.9004319542383286	7.2704624549088619
15.4226633979703109	24.3094727199524065	8.8374685726477686
9.0603110756896434	6.6470698970919608	40.4844422151768271
34.5839441064577713	42.6757364752354320	32.5876883327772617
32.5824937534026589	37.7052199553362115	34.7238923379996010
3.9783795080589730	3.5156907976038951	38.1417265524246574
29.1407063244031299	31.9852637985669048	6.9679205341532517
29.5091455062846322	32.1400364289057165	9.7546447735021999
23.8332141527488766	32.0176300573775947	6.3668979488903217
17.4956674382654889	36.9572192872513909	12.8774752937419663
20.8209883274319800	33.5254896626423076	5.9240394214270200
19.9547242497286170	31.6092238825295233	10.5435986022212624
21.0705587784252195	33.4430946473574267	10.3725756360342292
18.7043731121542862	33.6919218866863517	11.8758406240000678
30.1268588529962678	34.7618722748850928	7.6739937590453335
25.6014253525303914	33.0910678723904255	8.9793107157672907
25.5285241794988416	32.6756983977582820	6.8801969132417957
25.0543790039960896	30.4489055348151645	11.1975021605158265
3.0536532934799179	4.9787434725448154	39.4747323484252846
28.0205400918951639	34.0783223295623046	10.0466996354224829
5.7798821318424576	4.3765676352382528	40.1930416453598696
3.8671873570716557	3.7477242998589322	40.3776489582964970
40.1306816895332190	21.3019337237515600	12.6619671325419691
42.9847505028970929	22.3010809732708388	9.8808529279798627
37.9034896667499765	20.5834429079851340	7.9143726415847100
42.4217623097993410	0.3557494194088269	40.6222313951564331
25.6437086150549689	21.4587663363072458	9.6228715092474033
25.4932331890359372	22.6349841310923843	7.4640272768950355
30.6405459914183069	20.8906448560833766	6.7859139411910103
26.0755089580916604	24.4851539513563807	6.2407535840431620
28.1082496649215656	17.4223812598286116	10.0956264645775331
25.0717824085998089	18.3114388518821904	11.5211489966128919
30.6764318978821642	19.9634239060360308	8.4007391773803519
5.7027376104446468	0.6189778464928086	38.4628420867064165
33.1357372280685709	2.0217392982126015	39.3593345957094911
39.4371802510457385	21.1679856798258861	8.0347338723834820
39.4874769545097095	20.3526293875530797	9.7918184555966441
42.7704232111771390	20.0482615053647493	9.7803641918169859
41.5336931929867887	21.5705904377298694	9.8877682496342487
38.4897850729623912	17.8324407167761869	7.8543633202021059
42.3313853474198041	18.1767143543583849	9.3887991483346394
39.1905257808338945	23.2433220560183216	11.6724591776489461
4.2760821883034668	5.7470990690010089	40.0518147690910382
2.5296166924088679	2.3823587181324015	41.1938270140375309
1.0874404660157406	42.8667601526824100	39.2103730539309367
42.0130523275123622	6.0362120555415695	38.4242657838576775
5.8992280872469243	2.2885230867144650	0.4012202256206186
30.0933893065358262	24.3200448432084215	6.1640570931397995
30.2959958939643386	36.6037802986815350	8.9898612668688322
28.6982583404340623	35.0808058430589185	8.3237207745151895
26.8624352953448842	31.9258228115463361	7.3113641449480387
18.5531146535710540	23.3380789117577940	10.6827254219179686
2.2550545843880072	10.8118223737751862	39.7177443893474234
9.7292156165906043	1.3510943969922691	42.4786911400840381
11.8881555980422160	3.7729088364086927	40.5852683081814192
26.5564015586039481	35.0835732410484340	8.7434769018500820
20.7305013248118755	35.0774137507119477	10.5469553918078933
20.5614143790018957	33.2068475121268563	11.9503205675072532
22.4573479730925385	33.9998098542640150	9.5994872432609313
31.0854472436229905	33.2456777433918944	9.0750588011180522
33.1993382606231648	21.7330619961976446	8.8141453357546453
24.5133765075742041	34.7634151589424505	8.9591615184103972
21.1381171157772414	34.7539036397021164	8.4316173107405490
23.7269900707990793	32.9888143445111979	9.9180904089530646
19.5585314270761970	36.8756688331920870	11.7110335729006252
23.5592087216591644	35.3868006875731140	5.1157554047175777
23.3117292788546919	34.7852159364424409	7.3932960877910627
20.6123777644263484	37.1975169518210791	10.3715454960234013
22.4258266971177100	36.1476125232704675	7.7954096699217246
19.3870706183336559	32.6089321706483730	7.2622245857696708
19.0565752313711556	35.4113862898042413	10.3608483322824085
22.3170063992420076	32.2055309915658938	13.0412618062951218
21.9851781525483254	32.1970610749911188	11.0705763338701555
36.1492231624891147	23.6441087502292788	10.5115864042554961
31.0920692444624081	22.6069292973461344	9.1208285653742198
35.8548374319010037	22.7356966984177404	11.8553327404643785
38.9023915188805134	2.5419583898212958	39.1225723071012013
38.2195211186746917	0.2643405652255218	41.8022149994723762
38.3176827736291656	6.3876768437887241	42.4851917273971651
32.2633221564562263	21.0844434789402833	7.0469959013449817
36.7778678279916207	18.7746458700472800	8.3630279953300377
31.9360298564577469	18.7271772586901299	9.4236834695930902
34.6055655693899311	21.9899947031009084	10.4200989824343395
36.0318389875118328	25.2661206088023640	9.1281041764067474
35.8065752586858892	20.1243190485936694	8.9241029531482159
36.2721333888168402	19.7315137515077446	7.0473184448857333
36.1286785778377464	21.3654448641214856	10.8713088852833941
40.9825481837179026	1.9936621323041428	37.9416599821948992
28.1607713311004133	25.1311084645907670	6.0796643731024043
26.3499208132426119	20.4973282644195045	7.1940557659110755
30.2814823239724014	21.2500647587764888	11.0910516593009429
25.8663054274647344	22.5517399673568661	10.8430739182847073
30.3745078105808837	18.0895115459981177	9.6985636113966898
26.5553955232241528	24.0091503312917034	11.3963423461951461
27.1337969065777465	21.6412964677514630	11.5164721203831917
24.8796133510325994	23.3457910692468360	9.5349717228162429
24.9152058998212063	21.0223743567029544	6.9294812746752266
29.3204571544350650	21.9286121415014357	8.1878979057557402
38.8887273970066474	2.9586012701044209	42.6622781749439426
40.4286783219945747	42.8809385496997848	41.1909295184558175
41.9794069077222218	4.2041380362098417	39.8366019265867308
17.1822715550019716	23.7110427197663647	9.8177434484963211
40.9609615689921398	4.8905420952553014	41.8261681742590383
42.8746228717191471	0.6912339817482026	38.4659094176606118
41.6807632417555851	42.9677438251677088	37.4986273709460392
36.7198681932302335	2.7891559199794189	0.0638638671261216
41.4444418060511097	5.6933220445095474	40.4550644762807536
32.8465558890603333	19.7483780664865414	7.8623894066864040
36.1493120023637857	19.2315994943770860	10.2874771514951444
36.0458229738971454	20.8195152841767062	5.8473078771348330
35.0073201367447027	18.6445628525488161	8.2216406177610235
30.9374044235581138	21.9677390121600844	12.3132168966003377
34.2706882919621734	20.3718247821207825	7.3346708293374974
33.8074364667063634	20.1594131213504042	9.3191326760086319
36.9009868161751058	5.4737529439764101	42.3613908330516296
16.3171088735209757	21.0946277099194432	11.5202588977680218
14.4129077738763520	21.2534922962342598	10.6675680845713661
16.7201815930201718	25.3854206053123548	5.7462523269055543
12.8147438520069699	20.9985149396054389	9.5634804014539725
15.7474776683598776	18.5583902542367909	9.0225515053493499
5.5032441707829687	29.2371435845594192	7.2109897876275539
32.4927971787701608	3.1346719071606608	40.2907705929860498
35.2096131620068817	4.4357231449204884	42.3246608466037415
31.8797907855912328	1.1985670628233467	41.2271039038227585
13.6961560333878474	19.8820527192703622	6.4656978121593527
16.7778461348025303	24.3256939985555931	7.2420913460239715
18.0042481282441678	21.7858334811563950	7.0018385621202857
16.8352993376068234	20.6752911073945036	5.3500406635665607
12.8010013601818500	22.1252216458902176	11.1785562185851006
37.2679367753906021	0.9720164299893858	39.8508505689793751
35.9021290519294638	2.9773025552259718	36.6626946460918433
32.2718589901293242	34.7079058883177680	6.6428755915057858
34.1037916825632834	3.8850448519669749	38.9111186009264429
30.4065278746483472	1.6010537024343852	42.7962288406788005
32.9967399568641113	5.6673437055976699	38.5387651394989774
32.9014716863928243	34.2184380307812290	8.8005054385354118
16.6097112258361150	20.2479027382345400	10.1662979349488865
34.8943663514588565	33.3291132775840353	10.4277724307012303
14.7265731142520000	19.9755266648211105	9.7977505004284691
16.0934383528697111	22.6421973116800075	7.9247867509285106
15.5381822262223999	24.4478470520757156	12.3883720943075826
8.6757411404260498	2.9457202899360424	38.2511949845272596
13.7327025460403700	31.4367005604956447	7.8152740193768260
13.4131217528594746	36.7855141650893458	8.2813346433487780
16.7713550203945232	31.4370960046675307	6.1455705538214724
6.8466797423616379	9.8304386400060775	38.7535239817113677
8.0496757770663123	8.3929230875105336	39.7388613270063118
8.8510288496482090	7.5402166296953190	42.5562806109522356
11.4460885417567084	10.5966964595663722	0.3595616993086194
11.6726692588017631	7.2084046783404663	39.0789496152060565
6.9688840100722498	11.0151453964280215	41.8928564469446769
12.2461534174561422	33.6251252832486927	10.5404359206295393
10.0879577799530029	0.4926618031002827	40.9795887385698663
7.2247144845024307	1.8264978468764745	39.3787574074926852
9.1520568319733737	5.0867558708005545	39.0042087672465954
14.3004177043865681	22.4911341875194495	8.5857765531875927
7.6616178777066759	4.8730375926461660	41.2883629856856231
9.4471237640328560	4.8421010565329166	37.3834362829301412
2.6686553850943069	24.7311407939503809	9.4842682940332814
2.4433967100044969	29.7795610631093481	11.0889434999258896
5.4021401254173940	25.0663564705280422	9.4328023849137494
3.0244902819410222	28.4369023306786026	9.2859394329857068
4.2060095008950968	30.6017431934018660	12.1976394038105873
3.5066068458505639	25.1799305412248806	7.4162246502059777
4.6315721893400656	27.1336932398078368	9.6513788991501244
3.9470379345093431	28.4854127744957957	7.9444799367196115
14.6411356146054992	21.0678215365240895	7.1276387804713632
17.2479661590751974	18.2200231217966149	9.6179183864486859
24.6733733166843194	24.1574121128043302	11.0142469753019707
0.7090938270890613	9.4268342890767425	39.7332843100541808
3.9629267678220410	8.6372273482350828	40.9097428435622277
2.3901866300562093	8.6309439655304452	37.7089141363269746
2.4951551288630567	8.6592960703173176	40.1900573460921535
2.9420728923186030	11.3830583468204800	42.8411930922463640
3.1606816176491828	7.2690236860094828	39.1150082923301952
0.8873231581079472	12.2841631855605335	39.2949509488940194
22.9589377180043783	18.7238431823849290	12.2558344169295363
23.7314905179183633	22.0651581732542432	8.3742161308940890
22.1542089087426604	19.0101180971256909	9.2129788816760936
22.0565292491893530	21.2764369067757606	9.8098202355033060
19.7724147451187342	22.2999652213671169	5.5737896048360103
20.0549594938011317	22.1774967932555569	7.2666020189498601
11.0603906677348771	4.0285093489289938	37.2334283728303603
10.4260914599452974	2.5342198548601567	41.3625316170482265
8.4651058626783460	6.7919726655921080	38.5362637000955957
22.3603378156973882	20.4889518996318820	4.7981569982645533
23.6429900440443603	22.5525695297844990	10.1803090800606473
23.2039674763936858	20.5840250991605274	6.7247256787934546
22.8709800198478597	18.5124967203791435	7.1485828603995376
10.9060625071690502	2.9376364947557061	39.2071364508331257
38.2716760787292003	4.5844396741783457	40.3562764871743624
32.8117953397247746	4.3267495998263055	42.1215265732415105
20.1488140391498760	22.0341352706466758	9.6092758133557776
24.0305207662934173	18.5792038689381513	10.3333343042512062
20.4272526230156863	22.1122389830224080	11.3812344929892930
4.9591070090808573	0.8060761640490848	35.8632910500957891
18.1887297546041218	21.7169452964156200	10.6198573850441651
16.4139595312648439	22.6598720983540716	6.0740952172122640
12.8238258767946061	19.9815014014905366	11.3677208363895481
35.4705945149257005	32.0118202521695991	9.6105603714562626
31.4226956457845183	33.4912613266721237	7.2488523216008911
31.7623806585018684	33.9710816502723603	10.6718210197766314
34.1166529310843529	31.9517741504003503	8.6569802628201629
35.3778574642303667	37.5450498494021971	11.1716357344709021
36.7309889848521109	33.3417423481780588	11.0486815606056314
34.3340461246585278	35.5012008427964432	8.4058057050307848
35.5567481120358693	35.5091118171309290	6.7820718297345834
30.7241697970620429	31.8900367220987278	5.9693847974679413
34.7857610521145375	35.2966715687036512	10.0209529388345704
40.4044538057715243	13.2712021395494428	10.0680392714873310
31.2616157699048358	4.3878744357023942	39.2670617637502986
31.1469864865563757	3.0096242354564966	41.4610033631729351
4.9002507179853367	5.1147556666586906	0.5824424077469533
3.4221380429767341	4.7813053325013204	41.8223721284867267
1.7965300987955251	1.2220635720951927	40.3316542492675651
2.7993907237898803	2.7070822168550008	38.9710129332926911
2.9780140992837745	1.8066753977893220	37.0150290145564185
2.0639704630063136	41.9668840121799107	41.9199665619257118
4.6275133578777714	3.0126651869671162	41.6851979998034707
5.1942209680747728	5.0487643031371645	38.2960331007576471
6.3327901226694072	2.4579395398724828	41.3496989262140602
9.0034679337720878	1.3849965414511862	38.0540036497301983
25.3767294845491875	31.1586982375100270	5.5783070345212229
18.2380467527265218	3.6234597359935652	40.2284705237916285
31.4166301784552360	6.4446562048616780	38.7484314234557630
23.8781460938199430	3.9705464509408470	41.4566136838891452
21.8424893092437102	3.4885262261421834	42.5897470395530036
21.9590241729897500	0.6106116358343510	40.8477160497647063
28.4687806574444124	26.8516472337793388	5.1994407114801291
25.0904513652127008	26.5178491339616507	12.4142769574274414
26.6074306480289131	29.1849785000164914	11.7764007151627705
26.7943300485755564	25.9148422594112553	7.4036201826673693
13.9597449610107898	17.8463429845930399	9.8373114303934983
16.2892026197444650	16.2546570716630541	9.0528569659651978
11.9917367046097585	15.1598857350392251	10.8175599638458646
12.0572537495768799	13.6760989071313528	7.2847143404570422
2.9050821563263067	36.4458906327290038	12.8681256528422470
27.8386134844612414	26.8538938116379740	9.3059127739165852
26.5956257349361564	27.4443731915872675	6.4053430144921650
15.3520722595207317	13.8789133330508498	6.6023890075452529
13.3771914909102332	16.1433188091807551	8.2814937877063866
16.2855678405853261	14.1102253866356619	9.2792285321712598
14.8689233143271426	15.8200514882115453	6.9708084270759656
31.1709894585344678	28.3625123841637397	6.5192825633024123
28.7529888969425329	26.1878830887928515	8.1264080011744504
29.9620751521394304	26.5685478731452562	10.0162726457129558
25.6658720512217577	28.1977460250410417	11.0550340814984676
28.7675471797367059	32.3269179869661301	11.1798490774087504
30.8132373222554037	31.4974575827444028	8.2755464129812051
15.9701438612473385	0.5927619208212732	37.9970437275811861
20.9402411136850830	38.4412323204327961	32.3364836500711945
19.0159129136949119	37.5258300161328719	35.9034485629211204
33.0907706120469030	7.8435840265262904	37.8492993791231243
32.2043380719285963	11.9050207311591212	41.1212506304007945
33.2549245032042791	28.6102995820269435	10.7271136730969339
33.1313038840607561	30.2808319886484796	7.6408496001832162
31.5461057409862420	26.2886274132531454	11.7386968450231386
22.5047185026877798	5.1117006595566998	38.2776604133608629
21.3271567568084244	5.6463997741219831	39.8330887468259363
32.6620392939049680	8.2320846581515745	0.6832308525709925
32.5900987477371089	8.6406203100327730	41.4173018023695576
19.7648472965681670	1.8119456671632823	37.3880028396397748
23.4363755384340813	0.4574573556521901	41.4983347444270763
30.1527940663293101	30.2541581112084046	6.7527736839301227
24.0726170032534803	3.8694345593527708	39.4311234162486954
20.0162466756398700	0.0051393006349821	37.2643084933663786
31.8215340941301186	9.2520709673501358	37.8844126856158283
34.8231200053744558	11.4586454809495510	41.2474352371370543
34.9882010262913141	13.1323520672367824	40.1873538932494299
35.0972016591695493	8.4143271119964851	38.9195786860039306
32.2871311501966858	9.7044456710752609	40.1784684523314652
33.9536504983364722	11.4379940992035500	39.5310900341641940
34.8673584171309230	10.8145438914281087	0.3177176536014746
33.0647921979282771	8.4031903901340836	39.3691131046730192
32.3809363425851160	11.7384920030634170	37.3541163067629043
34.3928971233018075	9.5434812696093729	40.4548544672416526
25.6667938045774626	42.9412252445843947	37.4022433252263795
18.5966899982907812	41.9536954206995034	7.2032010006378160
20.3380838205895351	0.4236554917809340	7.5788088729170768
18.9663443962946836	39.2184481377052379	11.7080192718473697
1.6093874736895333	33.4120008243106028	9.6283038135003647
5.6651901934859161	34.4910391698277152	10.8394240205745742
4.5158536514681158	35.3519218246924751	9.7555076087650257
1.1093588595476305	32.0468976742780072	10.9707343905281860
2.7243546098211628	35.2525204276409809	5.1066936959203968
27.4173585595257379	7.5801960655467173	39.5986429889212133
29.0996909929955123	6.6328047628458959	38.7779654946704753
28.3631390821758451	7.3365643142283723	36.1751269518503804
30.6304712518556279	12.0795913548493736	38.0195202636930958
0.7928755458631659	31.8033085250876546	8.2225298487468113
21.2375359534823360	37.8724586437981969	6.9075617219495875
22.3314091411135500	28.9224077672852182	6.5234001239773081
21.7390088855650738	27.1988012492160394	7.8916119586097677
6.3249472582615747	34.6226549698024257	8.7228093545560679
2.7627572341657545	36.2987009137119756	10.7790543512197221
4.7284146312129973	33.7664692114046829	11.9729932602914779
6.6994753666680369	31.4659202399224540	9.6027565326603881
28.3178201014312663	8.7607080654685809	40.9921599612305698
25.4602182544276765	7.6707591731051528	38.7698382657997200
26.6563295817051866	9.3218305762955893	38.5255473309640806
30.3890808267002797	9.1129561985741283	41.1615895586245486
26.9777317597043798	6.7631007626909740	40.9662389489333947
25.0153652417421348	5.9982025200792686	41.6303783994418950
22.9730384556290481	41.9521384890674796	12.1885065477352850
17.3239395087230257	14.2309541633750722	6.2299913556320385
13.4809760107184058	13.0938928235987184	6.7784875812411691
16.5393484588432749	15.1959296921930331	7.8149896774105603
15.6240669623953305	17.1612676676140232	10.3375436290217948
13.2457897488930705	15.2648650305272593	6.4123965182257550
17.4049651268692429	12.6523787592456660	9.5399227932007271
14.1479549316240227	14.1026144882298130	9.2507094752163983
17.7930690647833423	14.5353352222319341	10.7217053652017356
11.4803156550700738	13.8287884261869554	10.0709185828486198
17.5169047239686329	17.8339023186265671	7.0009298461708598
15.2938279462388440	15.0890165517997197	10.6659373014167649
14.6992822449010561	16.0826638017479446	8.9196630686463898
11.0634000760540179	12.6952646918693244	8.6073678455498648
20.5530380869348228	36.0563552625253152	7.2197867398090638
32.6053866572293671	12.7385472060734699	5.9368741414373476
20.6987843000622966	39.6501602660946162	10.4729869294398288
19.4495980263951367	39.7872534019871154	9.5039458010214553
23.4073149500285531	40.7367878051933587	6.8393617032710274
21.4770632235160512	38.2308051133861753	11.3882383052196197
17.4162439349715399	40.6330111047728266	7.0005364900754286
21.4313134643335879	39.9871160415449225	7.0985090418851255
22.4465267872305958	38.6824288614424248	10.2363665629832745
21.5172079140643895	39.0107755605063531	8.7461236596805687
21.4378830685757187	1.9282783855558645	8.1550887114627262
22.8297368351665781	39.8942011239477736	11.4237131871592172
34.9698100007952561	31.2352865289558217	7.3813368784760591
42.1828638554831272	25.0544674304263530	6.3474487710401322
25.4763791552321806	3.0323084319768370	40.4745531652529777
20.3999763663304243	2.8462684218677441	35.6585753063709490
19.4430144820633544	3.5307506572733325	42.2432759912947660
23.7924863991250142	2.1485689554874576	40.9910007683596618
32.6850225640308025	28.0426585907208938	7.7506206315035957
36.1235990939619427	25.5376657236649400	10.7500311526117471
34.4548670045132965	23.9843197610694432	5.2627204541012143
35.6669083737379253	24.5531756532753214	6.2188687121760760
30.0856861187508891	25.5962146286405314	11.9116419966232883
31.7164670470681003	29.7743436865749196	7.7387957665624505
32.3865311405073157	31.5115490963019198	7.1624616518994495
34.6473088914637373	26.8745104972538478	10.0839670918463469
0.7235766477832217	29.3843737725706298	8.0665940304520909
38.7059909463323351	25.8559577515610926	7.9499929142352412
40.1676366040518360	27.7602732804194403	7.8025766101169776
38.2116728413560764	26.7541364198592575	6.3822585378560701
40.3964386248993890	30.3571711360612149	10.6081037867192229
3.3877369361188570	17.5488840029058402	5.5515095156244092
0.3440761242982044	17.1857200039305660	8.3525054514564481
5.8074690396969952	16.8861704274670146	7.7775342305952995
20.4077521081646829	38.9072421671455047	34.1890897606566497
22.0265300836593774	38.6746086609072464	34.3704360314018089
20.5049797620513701	37.4416084928205706	35.0320080301960104
19.2966006933215226	40.3744517724872907	30.6545521818555997
40.3868962779567084	8.6190255523796750	37.7623935849042169
1.5683671969300867	15.1494481235608038	8.6244997475616483
31.7885782583455772	36.7132780355007782	10.0078664494736778
33.0046183260464190	42.2400313111722099	7.1943635312562995
38.3858011756388180	39.5966272608452527	9.4115616176347920
37.5807738416943451	38.5318816799898016	4.5902361932834719
34.0956211470951658	35.1490577089050902	6.1096881512755363
36.8189768717153072	26.0773646758814799	7.3459205927974978
40.4820396043794304	29.2774894568567525	9.5220038411315340
38.4937151507391135	29.5158039849015026	9.3921884179954933
39.0370527209190215	10.9818712425421552	40.4131405578517828
1.3534463249134920	16.3360337351825642	7.2180741679791804
2.7028271205803862	16.0435103749527848	10.8982025762162191
5.5546816965373900	11.9630765695537686	11.5070398850240920
2.5537627538036807	15.4511009284807503	5.5489236722633732
39.3420644775067458	9.6485873448039872	39.1477251339290859
1.8549073492215078	11.7731480385146803	8.6405718615760652
3.6889884458082585	17.3504233026637280	12.0952930861299457
41.3409957042125882	27.9383989587177197	9.0533405208861399
40.6679073406053320	28.4261971514425369	11.2686913691777288
40.8024277026638131	29.3825145907019909	7.3723432622367842
37.6726005519411586	25.2311087760137660	9.4002727095782586
42.8777627101234557	27.1110405469013465	6.1799237762256451
38.0962483889137786	27.7137949089306908	8.0234548982954639
39.8937829658264604	26.2099447784336625	8.7257001644637988
41.1112004285094343	24.8381211910950164	7.5404760063028817
39.8086645353734738	25.3690365344218485	6.6960852269160611
37.2316077552069729	27.4196685600358343	11.5895306399398876
15.3747475190703202	5.3796021956749769	41.4802578743870356
29.9549849424517411	41.5731543254751585	5.2599089734515134
25.5284623414580523	37.2043682925883061	8.4879395411308636
8.7292256090228317	17.7366789351307759	7.0464363355558763
8.4316074739368840	18.0635875815922304	10.2446154157487115
9.7338104266772554	15.9511368968272205	12.0835259911567707
7.0519800649214561	16.0044313834767884	8.8796066377458640
9.3532455794160665	16.1101769406925932	9.9159516503190996
11.6733675538692321	18.5985822990978633	11.6816416568527330
6.6079381398457002	14.8787464924950203	6.9925860939582858
11.1942333534605325	14.9615217510170151	8.5419708477264535
10.9639568283079782	17.8882758593995028	7.6850560860225139
6.7701694202176972	12.9947364257698936	8.5232520479045970
9.9529793906333897	16.2179017154852545	7.8360859988530809
26.6986215715909836	39.6777406104188017	8.3637487512681226
32.0040554098344217	39.8505094576074370	9.6768240965443919
25.3938169762195507	40.3919903514569469	10.6440862986400866
13.1029012249248566	3.2689526045623341	41.9397724363536000
22.6542769722333794	36.8976598460856309	37.5528742490238798
21.1236856862807549	42.0008605456213076	35.9494548754124494
21.0417874463236210	40.5165023371132875	35.4136886259667847
23.9590505363114588	39.0676118585205714	33.8738335976642944
5.6964304057614692	13.5621357567974918	10.4887685246251188
11.5027014180470228	11.7955970894917996	6.8363723651982626
11.6401694040740278	18.7324317088034427	9.8074579257546226
7.1820085966234926	18.1710535229182639	8.3649303330215066
5.8198048490323213	14.2672425608857658	8.3804370650331848
29.8312223397498073	37.5793409238070595	10.7149096893703515
41.4241049447003320	9.3206358597280818	39.9087617714698553
39.6823268867962611	8.2947858572434612	39.6647620887333190
41.3829572007719122	7.2039848608663855	36.5536707114558297
39.6881837077254787	10.8883601914693067	38.2013355800409471
22.8755182709470155	37.6154636050552753	31.6220856459490456
24.5022637323873944	41.3602162152949049	34.0351397605252899
24.7564004781841724	37.7197404918112227	36.9327086180471227
19.7364436604456905	39.8938494913805641	32.1752614918010806
25.8301074785905165	37.8147240800778448	10.7716632085169159
27.2893525226507414	42.5467573494426077	6.4682107433914879
26.7056778549907179	38.1280675472219599	8.9062018008472297
30.2386282075918835	39.8050535037062190	6.3184963510514702
23.7269086471123671	39.6496816719634495	9.5525236429811553
30.5484476141795724	38.5717612155205956	9.1859454825174502
25.1179669083611934	38.3839819755864511	7.1137685772056809
27.8521438447396541	37.7396074505079184	11.5056176873071347
11.7322553272546575	16.3221649699442253	6.8007771200151987
8.8715042968854210	15.0211984032813941	11.0403221336710295
29.3669094228618803	39.6448458881439407	10.7656101472032617
24.9392634613018984	36.0865422407652687	7.5737641878715714
27.6878358524913146	40.0759357831304897	9.7077087670569444
26.5083982545451029	42.3939962903376895	10.8764532831452865
26.4697025432813362	41.7327641242258167	9.3372148370084069
24.7978309293294537	41.1595220001215409	8.6523548541830735
27.0467193436853357	39.5233551816990030	11.4549663626332130
24.6470198371878091	19.0323236557449960	6.4300091943096449
13.0376909243142567	41.6092846821548079	10.5993727964577538
11.7845692641774065	37.7221768704317029	7.9400726176341312
13.6885616439582947	2.9554677569519101	39.9737365497036450
26.1417159913652632	13.3476345336805213	9.2068329662027359
29.1493782113826079	15.9192689774865634	6.2532708894937308
30.2465001422608353	15.5663508367786658	7.5419456384124173
28.9158450298903773	13.9651749437818715	6.4715664194833211
14.6294287228850273	3.7543227762819140	38.2131289196505364
18.1811873584963450	0.3764332368405061	37.0726899880817911
30.6266729307814423	11.5605382424804368	7.2849087525624157
27.1536477454918384	15.8493919979621243	9.2091564086382292
16.5573961344338798	41.1792554771361168	10.0739422025129954
28.0339863406479388	13.7337153156615770	10.4493393359044315
26.0888546788314066	17.6147443477150425	9.7673846059184637
28.9515090493430485	17.1715133716103985	11.7974995445662909
29.5443368283686283	13.7235721630086633	11.0315653416170480
15.6777790357220255	2.8283586573615933	39.1595587448726903
18.2351599134959095	29.0676868125424512	8.0373823650181215
18.7536856454525491	30.4287149847620064	12.0158916433496774
26.0043381899799471	1.5848139657779654	38.9898591321638222
28.1746448641863232	4.4935350918027730	38.0123606819062161
31.2117749672066012	5.4303224627743552	42.3155842332912826
25.5634166643755734	2.2720033112815892	42.3015731419937993
19.4757318725733413	14.3406458041310927	5.9000814078480017
23.4850258545747579	30.0844053484271150	6.3849949996002309
25.5234034756559076	26.4152290929951512	5.4590946159062081
19.3616954000846384	30.4518919384313769	9.0577757976854212
20.2382397312830200	29.7173227793427976	10.7255021454196200
18.8253335462475277	26.8221165858092796	12.1684375710256099
20.6638249955943216	26.6564356174080856	9.8066780780041878
22.5467744810892512	26.3707754268623233	8.6453398328068882
15.4341639563845643	35.9375102410141736	11.0480986901983851
17.4854114114878350	41.1983124318324982	5.3914838569685184
14.8900812846644239	38.7650726382547859	8.2297100108510470
12.8731381504629017	40.8578566946856654	8.8121833974085959
27.2767168091422505	41.8350076920986780	36.2309176256511734
29.6282737554193041	8.7921595600550315	42.9351147890125873
28.2898364655098113	10.9655834184480057	40.6259764100426821
27.8992541425966536	12.0875045976227256	38.4875684538305478
26.3982502853122938	10.9324050393696339	38.0414461648909850
31.8019647334216238	11.6669627867400880	39.5682036282443406
28.2982976136648716	8.4190416708088947	38.0187877251119062
15.2261228448596793	37.4503484535970728	9.2653008213125361
12.0949574798786799	39.7929226161129179	7.3205446053286707
13.3454310113109464	38.7216468741567112	8.6267412442774773
15.1150503798596674	37.3237179108881847	13.3650915034753979
12.8327278438070280	24.3006108446370526	11.1792526737747497
33.1710569022087469	16.3663778193441836	6.3170638583300809
31.9249466681150906	13.0732504419638254	7.4049505750725473
10.8039490137619829	32.9544498726387189	11.4367795946083977
30.0079947891258989	4.5144687414199804	40.7265425619324972
26.5068368309428948	3.8481278670184755	1.4088297078676610
11.7410212850083493	24.5964987004206250	12.7399902911076488
17.4096044737078763	25.2598161824577758	11.3167120816233719
10.8917814170812939	23.8440097277244263	7.6331955829953939
12.4553342873143702	22.9041013084015148	7.3532469501380504
14.8472989606542853	26.4313566038127981	5.2508784275910312
13.5068277241600718	25.7014070695880577	12.6459113495960658
34.0604189719968673	13.4287418326180212	7.1933666531731300
18.8185480491081023	26.3602457273730195	7.2932618770821742
12.5076723454601364	29.3579970657208378	7.5256148919413191
31.3188076930118378	16.7568294256101034	7.1759592150743803
35.4562108959720490	17.5853707240950321	6.7238963582227909
36.5096116529713370	12.1011087494063840	12.0795544916282562
33.5283063359228066	14.6247422152449431	9.7565635288061134
33.6030994028962482	16.4141119167113914	9.9827582513644266
34.8089491326572968	15.3707732337723044	6.7171622866699465
33.5508356543306760	17.0572969015531370	7.7938290868447062
32.1521675797423327	16.6659581495867641	9.1554545806401606
35.2366410933665790	15.3486540013885584	10.5821281391305853
10.8777122803996331	32.5383554014090421	9.2548340267474831
26.1361473865701051	3.7434946234120492	38.8596599516160168
16.5480120097881098	39.1992576036116063	8.2388546527885289
15.1714532030848233	40.4329941230545344	8.3412446512771670
18.2554332137665121	40.9148600804194444	11.4429416174814982
16.9657348856431263	40.4605233085690372	12.2711676487811587
29.6744798171842099	5.0949465059134393	38.5005071893527884
28.6265485424134525	42.9843233179905440	41.3692355980201683
29.7880070620788899	3.4341795895817215	36.8976866245616719
29.6507277636726272	5.8436341714894819	42.5680531840684182
16.8244820022626556	4.5513505734573121	38.9417765286911788
12.5356625694452379	3.8067444191246156	38.5552116835046661
12.6165390430397277	40.1214090363747076	12.1734064664183865
9.4150027000133356	33.7784648512618588	6.6859594248108829
6.8615636487116110	34.7494335128835203	7.1385519660883778
8.6814704052940250	32.7046641544153402	7.5904727773823515
8.6578490810259776	33.6115079213057086	11.6597488152847735
27.4578598401063694	5.4109622485050091	39.1746425857207541
6.8045749424287152	32.7882162794328593	7.7385172705331389
10.2220131460294361	35.1467174305610044	8.0646621261391296
16.5450548883823849	41.6558526754392275	8.3749444876121153
34.3897917627177847	13.7023111994695181	5.2779840856818998
34.8232072194521933	16.7401126870658494	5.2381053214086357
20.7531542933613444	15.5211778703451113	6.5915328608626522
21.9845117844835443	14.5113159433601719	8.0946850740120837
21.4219164671540696	18.6774957956716960	10.7543818434736878
25.1070530666023970	42.2370649022681732	36.0484752461003808
24.1012060975237716	15.1354812195827897	12.0253328250406568
23.7020713198790887	14.4753061017499824	4.3182341478846000
30.1916449663173410	41.1490754067220763	31.6980237928519735
26.3461381629301883	38.8421723318301417	36.2146854161361560
26.3894893967091697	37.5681774437143332	34.7616042309584046
23.0178046685783322	17.7184010312508278	8.5431602789057823
28.0408556878327602	37.6234542337054876	35.3034682850322383
24.0657513986082705	13.7317218183880723	8.3178175341966707
16.0574831131445954	1.3548568617953178	39.8325891681148505
22.9538097129554828	12.9823886913532203	9.0755079623733490
21.6716143810883324	13.3517765866169942	12.1937976775779333
19.2070866360923098	13.3172978851378829	10.0540739378482122
17.4623234433828749	16.7653207513937481	11.0205762982450732
17.9835805843778758	6.5873682435024570	39.2980715744664550
25.6250431565518468	11.1959719072591231	39.4941392535948879
25.0289176289618531	40.2474810609558205	35.1033951694258661
28.7881778247096527	42.1625583428817023	34.3491235172341121
22.4801634768282774	26.9076707911430582	6.4507781996149198
26.4832956205347472	37.7223737353293629	31.4532549620306199
23.0721298624310514	28.6271290359646997	8.2693551242150587
19.1177166712893261	26.2455787224446446	9.5198772183888476
20.3334792428075062	25.5745315527281925	8.6744045289840539
27.7472194579642455	10.2293464985584670	39.3174021063599923
22.1256422219771665	29.1464081367191028	12.0222478956959140
21.9100961860537247	17.3694497419593397	12.4965176817077239
23.2221593305627110	16.2387125156056449	13.4817813091116747
19.6303252308902394	29.1350271727000596	6.8889832539474911
19.6501038756146826	28.4035092049423632	9.0485473781719570
21.5243955751895797	13.6510431743955181	6.2836776186042096
30.4572693189720312	42.1362897777486580	35.7731843901337072
19.0434672227058606	17.4699683380766082	7.6629571306005539
20.9408023444975520	17.9347526300832598	8.5322776065814985
20.4631880782741256	15.9475001928562161	8.5364216306545870
24.0087695447663449	17.1934648210831575	6.4882709768107958
26.3643610925862895	30.1475749846537582	34.6155239595645909
16.3974178170475327	30.1516854360655202	35.5104790939399493
14.1058524497267719	32.3450523900044971	36.5948527036030526
4.9355595565134900	32.7579862906120169	42.4832627684857655
4.8465554170160985	31.5626771021207979	38.0295868268306094
15.3881658456705193	4.1560236915995938	41.3876991579533069
16.0556338629463120	42.3290295286159832	30.3313513047325856
13.4556411310335626	36.4191924445137545	33.8252101814310677
13.4756513750584208	4.1405763137420584	37.8988987034390945
26.3947787669587264	30.7632459901547222	32.0142003782005631
2.8519028260979540	35.7994552423082908	41.3506410660244015
26.3070001728522804	31.9509550160009752	34.0162217708181416
41.4336283259810756	35.3204942413610468	30.6315623392964937
29.2417883614814045	35.1871588197483902	34.2916897726263912
23.6005876970441300	37.1100052958499091	32.4373146591699850
25.8216092259690804	36.8105300800956172	31.8403336024064032
24.3501328144104789	32.7589182834977279	33.7090209292846481
13.1234962310928349	36.2612288019981150	29.8154738125481309
18.4361726333604068	36.4426039459325892	35.9001122853081469
9.0678895644882562	5.5144659770073678	40.1007766618728212
14.6543397185060300	34.0244158855254852	36.4128894797654539
28.8151397392915740	30.2272887859847899	31.5790072040264711
11.3987918863698479	3.4934979626732496	38.2497116744957282
29.6869976906091395	30.3557059390018509	33.3618046976182896
13.0419760181193904	35.4775505786815017	35.8072442833720856
18.5156185264452446	34.5711211081863752	32.2658395156868210
19.3920320308266341	32.2311602959786754	36.0672456885093737
20.3102252149756239	36.4918258580612900	35.7143253417605209
10.6587091173810666	5.1617655550359114	37.2848463148166118
25.4544406835435773	0.4845460203396196	30.0432280893073731
14.6692897716417576	3.0211721222926338	37.1594204142428808
39.6773904689912627	39.2927561601984507	39.0481618279073928
29.8570372947850586	35.5821391571548489	32.5816850924154622
7.5014805722811504	4.7267830525717018	42.4404498491593358
6.3930133776937756	1.5723218846215044	38.5627482744203292
1.8423228585583149	1.4421177857323768	41.5269442354817784
12.7524082599364590	33.4735557710270868	35.8311852225220662
5.3197344059567548	33.4111010123025096	40.8504869982405765
0.9414736896064779	38.9423089185015172	29.9897559916445715
24.1812941375018831	31.7592449077073233	0.8555857336617413
38.1881050315064883	42.6257055241139255	26.8878881373121068
14.5282695553060677	32.6630631950334376	38.3533927518608166
13.4595270823493944	33.2669453099480918	0.0597898336210605
17.6883325553397022	34.9638168474528257	41.2182828343493952
11.3917896870133166	34.7658874315134696	37.0130331774818302
15.7036934782946389	35.9112945569804083	38.3864158220872795
17.3275314898829933	35.6596454095108371	39.2020398013122104
10.3111834855223172	37.4262150639988320	25.3207825916109250
8.1394258642974116	38.1075955217814339	25.1777191851791819
5.3819192223994836	41.7583049623462017	27.5562975437382001
6.6321185074380269	38.9636199627087194	24.5822286177214444
16.2104994589264280	32.2188414901959490	37.8749363388663767
13.8127147870752705	34.5370811951693710	41.8416261673838008
41.2924535730351536	38.0629535696362282	27.2050147414569672
19.6765958855879646	33.9176534612577356	40.8178546782978984
41.0302080641788720	41.9495744225386531	25.3860483943638862
7.6566178212288643	40.1323597212173979	26.0656567286300849
8.7156431808659409	39.0499029731163603	28.8586780273607033
7.4074726171073166	42.4160900669543679	25.1377399988308667
3.3596414790883800	2.5157752654795109	37.9144577445610409
15.3342399166327947	31.0142581408789830	39.1393300291004422
16.0494353983921485	33.9246166597228296	39.2490029605440256
14.4788038374136736	31.3267188132166048	41.2080570867281466
42.9097822416843755	25.5236600590742029	36.0939067992493534
24.0063598749508174	31.3520189612945472	40.7742579002254431
20.8451239334207123	33.6046095339831155	38.4318715737381353
20.6741407640698043	32.6527001457512114	40.0120733616893887
20.8364594711008060	32.6943330809808401	42.2242857284152677
20.1075600842117872	35.1870903326907438	37.0180228391084896
13.9676170538872526	37.1678970319827826	37.7951839905938627
24.5559564891830355	42.7234239385227355	26.4735381357247945
27.0174283696787896	39.1050409680359934	26.3834763605280571
17.6280187617463575	3.7002868961075159	39.2280217505264588
24.5264838791729289	0.2015196734916274	23.0515808758924798
18.8115815977463114	36.0666891834524748	30.9146615175086019
15.1280386756273675	40.2938448505329490	30.4036546773708984
28.0618828558959841	40.3467937961636522	27.7592212893518280
30.8963071736610146	42.9779687000627817	27.2947047915406564
14.7862359230054405	36.4773490639966198	31.2263883354169955
16.7727707508080535	36.5572333440620909	34.4845035395348702
15.4511329135464610	33.3943713852451651	34.6094274469785574
17.5172849548310587	33.2034434912825063	35.3891339915115424
13.6688635922818076	34.1578602202210320	33.5081184737542230
26.7668929097568942	37.4040253271775214	24.9463378989485562
29.6791609264433305	31.8220001234745844	31.5398502808071051
13.2660612682414616	34.2255577636197330	37.5902480603981388
17.9485302459588176	30.5899426265100622	33.8346421230125785
19.9663840657704483	35.9164290864464917	32.7081061843124701
27.0087920440965519	31.6070003715247694	36.1262013255087524
24.9659871847076538	31.3827033335365186	35.1934907644786037
23.0933652085397512	31.7809202907022446	32.0878275763143250
21.9174107034964791	30.0318259948835760	33.6308209039226114
22.5380985840509105	34.3683477949060077	37.6799838969190475
22.1115587314002866	37.0988833810114826	40.2350878983995557
22.9394547077077640	32.4955026748976508	42.2987353101643748
22.0303756805734423	32.1485197288650895	38.1593645132758752
22.8593038321416913	34.9093739702258929	39.8276482484461809
21.5997764249766604	34.6854803720874401	35.7805053714558312
22.6694364279081952	36.2872078191922824	38.6633443742992213
21.8271403803516790	41.7692800270964284	26.6361586438888800
15.7967857611295894	32.1274348585189671	35.8812567752021607
20.3402539113119438	41.1275845210983562	25.4323013775097486
31.7880339252777908	39.4191081401102750	25.5485702674217876
33.5580694105940438	38.8707055523392526	24.5804126212065341
12.5324200990734429	37.8006512123818652	28.3713924560731527
33.8859057187625154	42.2858548724936227	28.8487836573143994
16.5855990347816089	34.8638324404175464	31.2204801625507251
15.1597739300348078	35.2192531144292573	33.6548531175431407
32.8885316958338478	0.0408813331709359	27.1884524504568041
7.6138790966580991	33.1188115764576381	37.7712146141878691
19.1888579145849718	40.9091108650249851	29.5350428543741543
20.3342247659132198	42.5490546910686902	29.5821359032972602
23.8765784941135237	39.2300806835075520	26.1340168905106438
19.3641434772091756	39.1789236495144308	25.5510574793913605
12.4972038740501379	31.3711779215947573	35.4507144925844813
21.2766005728480891	38.0041115109179444	25.9105207276432417
20.8648871713605146	40.8388393039559432	28.4030485332384366
22.7098371718291219	41.7386193387223017	28.3600531380183973
20.5597286807129329	34.6421955959642247	33.9370303392691710
12.2078253756467152	31.4289528527291573	40.6649289849186033
30.9276889516104383	38.4430429930233259	26.8725457748359524
35.5450406482073831	41.8195784776597677	29.7573012227900620
32.5278282760631043	37.4511775771322561	25.6454489285600538
14.3403912226884493	40.2313469646267237	26.9868123984301853
11.3155236985616270	40.8433794930680349	30.6083923990567115
17.7472150378587976	40.5215157008722997	25.8076466380970437
14.4028324117662851	36.8827681729815566	25.5023604649595015
16.5586072082210514	37.6964085053158442	27.6384374372386006
31.0366954916657320	40.8632908844519775	26.9334920588432922
30.4609861430170596	34.5178213321736962	0.3543559081227853
28.5759274457541181	36.2787544569282545	36.0781950649583152
10.2689402017924074	34.7047222956745358	41.9289935625028747
10.3945500577693242	32.8240605457940617	40.6475267732086110
9.3376292861765027	34.0390482059339092	36.3643464363333209
30.3025940132915927	36.2313399576133222	40.7531189843823469
27.9729957932664348	31.3767541458528498	38.2695819431273847
24.7563704040851853	32.3934755021366243	42.0928441972135801
28.8571786049781984	33.2355917946704977	42.0983169326613549
28.3134271189532036	32.7580223830415775	40.1299440327641292
26.9342610941559464	32.4589040230614643	42.8771605936729685
29.0046498227725600	31.7737142298060675	0.1423056062654146
14.5045673409151963	38.1823735012355456	26.9944281670032424
26.7799127683774429	38.7058523954968692	28.3302850095074241
16.2192422139064512	37.4479430998798222	25.8510472594889897
24.8848103660676081	38.4249327913184828	27.3871451327432283
28.8611425333213170	39.1815865398864460	30.4455599799336660
28.8166395747544861	41.9396822547288579	29.4089202816532946
8.6898501186159631	31.9284922314129709	39.4524738739654666
6.2699296755656171	30.1450756603223056	38.5652299677063155
11.9348439486489823	33.3395305428223949	41.5056105940107258
13.9044035371757335	37.3366066913004886	35.6713195561776502
16.9364775578339035	35.9605688931352034	32.7946144559304926
25.6520007088136062	41.2739184111071253	30.4030573528627066
24.6595651526184412	41.1610961056686335	25.4977177423549364
29.2441788004257113	40.1441793217109364	25.8991314371726844
29.2888980114754531	41.6440872844321390	27.4848469564505642
19.4109694149503831	34.7093077970985249	39.0017656794978151
15.9442041812670343	1.6508501302341618	38.6219015128958958
25.9123381893178646	39.1699970574042737	24.6005839194953566
10.2136384670214326	30.9161403917748459	40.5440700546592581
6.3536965806300918	31.9614429363284316	39.0539353278263022
12.3414937158307456	42.6268985825145421	42.7980236619304080
17.9488030055952841	37.3130360705584607	29.3779372626188362
7.0518542986626818	2.0292079153456779	40.5405569873424909
9.0965750902579252	4.0617262020862270	38.3655078767030844
22.3162541316573382	40.4306920424356946	25.0394156502452461
15.5877925204756522	40.6372791707953240	25.0926930281471456
20.7488192971404928	38.7149010223466732	27.9492712272613772
18.0247740032000152	41.4297797291035863	27.9619326151728771
19.3738094274442432	40.3025066707364203	27.2797822534068537
14.3968458949332110	2.7963399361192507	39.0098577963996860
15.7834248376832154	2.4258479648108611	40.3335275797989610
30.1817324420461368	42.2432600748124898	23.7220038529133745
13.9989217622137279	39.2105360140124262	28.8298355173554910
14.9562417269475532	41.6453951052554530	28.7705979623172823
28.6010422309310677	34.7986601332711842	40.9163746482741502
12.4553173698496895	37.3952607722558241	26.3362499348029786
15.9572981563785845	39.2600965550744334	26.2064826649537608
13.8348202226141126	42.4568798077863079	27.4501957306347784
15.1120407392359262	42.7876775063674160	37.6998321740835891
18.9560409824554128	3.6053063523520676	41.1484767366868383
15.7779337932169437	3.9620165499566680	38.6026272019163486
12.3187382955988802	4.1886456979511539	41.6100604674795989
13.9486123778544986	2.9198808864474755	41.1427930794315699
9.6511701728474755	1.6506677459769883	40.9978117990162403
10.2356827184551786	1.9230145744954099	39.0450028123256203
33.7119240977572261	40.4120212946440205	29.5079694901034095
30.6696504910677241	34.6094990874480715	41.3342125371276694
32.2506215805652587	35.4115509444522019	39.8940544732710123
30.6247786663481421	32.8400452309751856	42.0970935821234846
24.1359948338765555	39.5290995092334398	24.3435281504774359
21.1017875066347607	39.9134450249929387	26.6259770182155009
30.2830335375506827	36.2936171695603065	42.8096284977757620
12.5428555924097722	32.9824964726343453	32.0891438276780718
23.6130317229617610	32.0269486059687907	36.9077542224176725
12.6377801227105735	3.4805673524930700	39.7038137017002342
31.2588966989345778	37.2341483494009253	28.7330045549175175
35.4254984990027424	38.9786098785450079	23.5282069940231118
34.8636050459333831	37.8815044151897240	30.3574114375500876
33.1077912459144059	38.1692881233993901	29.2475318158722644
19.9544793808917156	33.3610388348586540	32.3923663937196196
28.1309240718748867	37.2829282065227261	29.3541714102665878
28.8802509449094558	0.6133411065056994	24.4154282324568470
27.8739924872488807	39.3275232256435174	24.1717088167475112
11.2133580442142193	36.5258550992357058	36.1495133791178134
24.3854194200114804	40.7202829486802926	27.5397514660145966
5.8901170589335328	42.7967865073312623	39.3483861436082023
24.3185602996729848	29.6321985800853795	34.1021154245452323
21.7745491281829864	36.4442816511633154	32.9469977437090620
10.5522387436895517	2.3025266709179797	42.5465670694091571
10.8655164571299814	3.1428428904630308	40.4225246766586253
8.4204793216520262	1.9846309754822808	39.0129534487530307
11.1646992761043116	5.9731881832279594	42.0254720346367350
12.5463585218427607	2.6477677986309436	42.7848787965077122
27.3621831054554292	40.3974470714921523	31.7226996246072979
26.8449882231833925	37.2335559287190989	41.1673922364111888
22.1092225891695797	38.4970939381510533	31.9645588861752543
22.5473665894456694	40.2807692332633849	30.9016659561621339
25.9293336914885977	42.7650066053632756	31.6227537466218536
28.1854557427226879	41.9996377845136664	35.4167319089072024
25.3394598160028970	39.2350474858420455	35.6188319102465840
40.4894742135588714	25.7682247395297033	29.1192888737970250
0.1586007489732741	29.7207245112355736	26.3561376729339685
41.8755991440130728	24.3561763243229095	29.2614353184295979
41.4725280598575878	25.2931241801033799	27.4434146786967013
42.8773367904831133	28.8131488399529800	28.4133363460436925
39.4824871462557425	28.5295498856529726	25.6796570964406925
39.9648261408120646	29.9638024136163033	26.8364151807801434
42.4869671772455888	28.0365240056880332	30.4729285526112115
26.9099139092781918	36.5177850336517054	35.2145877568483101
27.9320133341429475	41.1708384487659416	37.0289252236245758
27.3419964524167156	38.3443696929501670	30.9566254642240217
24.3960521242496320	40.1587223012127623	34.0098808887325177
29.9457319752121442	41.6591061378668925	36.7759184043588618
26.2054572516641286	42.2514673987501652	36.5480168016620581
2.4485221307156908	40.5160360427412414	35.9875674075260150
7.1041498337811069	36.0573768138863713	31.1480259090054084
3.8039627671060745	33.7971700449255081	30.8697276474213851
6.6080731760455294	31.8804609870476732	24.2755752705209140
6.0072815241298807	32.2589705701036848	28.7012296383113217
2.2695868403915975	35.8565535963385571	26.2908616265765467
6.3507618595567887	31.5584851520947218	26.7951960140400907
42.8293183258390613	32.5183748382873574	29.5379147345692097
5.5822698992172528	32.6487109189920943	30.9738224201987045
4.6489398980908803	32.9392003547515841	27.3843090502336182
31.3242733233113775	30.6118318709897075	24.6441685938837907
35.3912099526751902	24.5967205219814211	26.8914591732287178
34.3536365275522328	29.7808273529063321	28.5046804240838298
31.6761103213603690	26.0233811010153602	31.3033531454642358
33.6900749039925316	26.3855139138270935	30.3470684916154028
37.9621857032669041	28.7422217791878438	26.9060140752072314
35.6580784811896052	28.6444892768763566	27.3047997491061025
30.2089937016996650	27.8878915468336466	26.6531504167798943
35.1318743313452870	26.6251051378831285	27.1982191008833212
34.0396914674842535	28.5840347015206184	26.5195221676338520
38.6277497956128499	26.9127788190499508	25.5810861999073751
30.1786651059450008	29.7176082933863270	28.4948096077389010
33.4718171657123804	24.8358361198165625	25.6551942547008807
31.4650127976456666	29.5113567330379176	26.6334392454169233
33.2738389816771942	27.8536859175539568	24.6913514079765655
0.1653854273530262	31.4005380628814628	25.5552013641808280
29.8236399193392501	40.6925434193135800	40.7465650300390578
25.9839549773928162	0.7069323510387570	38.2348311005620118
29.8122210990782648	40.1511463010787111	38.3475997946191569
25.2388914309598569	0.0213148041935292	0.2500386646659755
25.4072359853531040	37.2690974254959428	42.9336372923132004
24.0212857397534520	39.8523201804788130	41.9412410555329416
30.6238915768203483	39.2003605008222777	41.5551064828427030
29.2239775014687524	42.7139216576708236	40.3985582527153824
28.8212749218362987	37.1198419724930346	42.1235925402122504
25.9197529467520411	37.8208796219198646	37.0129417281591202
25.5597681509335395	38.4759747358720503	41.0539747845203919
27.7155234250529610	40.0094816996474165	38.8179836946121668
26.8496016102310939	39.3647241006128539	37.2144418496573621
29.4600783941623909	39.0293331274627064	39.7419398872676481
8.3991040665961414	30.4333300843911658	27.1562640769177541
20.8744133126961025	41.3291142871120059	41.8621443517932335
23.6103730595023436	37.7022937316911140	37.1831630140685334
19.7946971194861767	40.8451696450750390	40.2155613056490395
22.0112313279302434	37.8988578679116443	38.0537983293862183
18.9808402384072821	42.4802703300508213	36.9070095126963196
19.8120799850293210	38.5085119148822557	39.9943634054334112
18.8257272557824145	36.4777054268157173	40.1068370297421879
21.1374137703619915	42.7079102657911776	40.6900222554396862
20.0546804452335010	36.5359889116269869	1.2550509414166058
24.9641503965638698	39.8780065040606644	38.8977157045636801
9.6813447367698764	29.6744738838000117	29.4127476805685184
8.2796790512823240	33.2134683148981793	25.0748372089714664
11.0858043300456721	32.8125056518833347	30.5354290751966460
10.6144413468338019	36.4318161902334694	27.0504833337982227
22.1555608944463600	36.1233631645527140	36.7647242092136892
11.9222113097156086	32.7473040615420459	28.5657036600132983
9.9262630533552869	30.9718141467783177	25.7998798887894516
6.7564433942890352	36.2749399656987848	28.0718836641437299
8.3285664199107554	35.9826927417436693	27.0420883077048764
11.6124223617584761	31.5288705844801562	26.7319669414715229
10.4839965315020045	32.9242850923796411	25.7290806750008585
12.0385061666910325	34.3283839777396054	25.0593463319022867
21.8601893147940487	38.8895152365456198	41.7318618605471841
18.4873345470308195	38.3145126342461566	36.6419606274499685
23.4679712069994224	38.3457748137703902	41.0874320829388466
29.0382150922863715	41.1946903326955720	31.3666573221329941
29.9901156284944186	41.9819980161866440	34.6733180266215868
27.0979428223809364	38.3464968029477475	35.3573968142863109
28.5105969233909669	41.8979335783008437	33.1518165611672018
5.0552923756174959	39.3021730014538662	33.5014797538004743
1.6143591855292831	35.6961352149378826	28.3386019428826543
3.2202782929348919	34.6059509939206222	27.3201267795933838
23.0631077125835375	39.7717903367618604	37.6807404055011688
22.3636612737612666	0.1255265731417537	41.9578183585974216
5.3834683661787670	38.7214508733250184	35.6338011886632486
2.6070158051529644	38.3272195853433075	30.9726475636655643
1.4877009965044661	31.6102209661786482	28.6947921331309246
3.1476472252947345	33.1494705062362911	28.7838017917745397
0.6213706989222553	33.4561264857047433	25.7711158791746264
0.3705399101628852	34.4840393136890100	29.1674302807427317
3.2985170465784481	35.0924380496652546	24.9891750763235052
5.9287462708949112	39.9969284654432684	31.5929067230792633
7.3927432929364132	42.5446551487857221	34.6775439427657020
3.5101461878014972	38.7796360773856890	35.0695368602608397
26.3731306663580938	38.3819498747813341	39.1261292277312904
4.6638725741416707	37.3322688999068006	36.5428916700018220
1.3043804773491816	42.6221252431872841	36.1706396072036895
6.5523907243510733	40.6825591368931327	33.4655871302587542
1.2491497596569305	39.2434728502253876	32.1021823886017827
2.2238399246968434	39.8542947254980575	34.0368249788670170
4.7008429674955794	37.6428704360956417	34.2510287583116266
31.6135014539793779	42.3822943978467777	36.0468352085364074
28.5059882157850240	37.0233070900744892	34.3744750147682083
6.8119333468111796	35.6045747515028310	25.8946483567114107
11.2070319756422414	31.0212211784412091	29.1312351991856566
8.6895490476675228	36.2142414451256087	24.9920521013141048
11.3091573892545085	31.3055143828516371	24.6374215671282961
9.5991545169876744	33.7731611438396371	32.0513744841743957
16.4093565365675111	0.2327642258216643	40.0278459706567489
18.3192957546015549	29.3604194242697503	29.5847305385501329
41.3834361324933795	42.1524952189806328	38.3434333700998806
36.4500058715943140	0.2926921171496049	37.4146295854319249
37.9405904232511304	40.2379758949021706	38.8843696547341935
0.1060126385043498	0.4404233009198733	39.6296083429017543
37.3274310066758161	0.2120350168885500	40.8828389430336898
40.0417175722225664	36.8160412895929241	42.8576782908859286
38.5632524897573745	39.3805482149032287	40.7393447308481953
39.7871047287627491	37.9315845081814231	40.8223039016389464
13.9455885321869424	42.3332593312809138	36.3642384536727903
13.0937135840069772	37.1713226559148140	31.6325845926509821
14.7506707746464922	38.2600660501134016	30.5809445436825449
16.5188423527100170	40.5010193033359087	31.9574494904289992
14.0042121776674868	38.3147524166163080	32.6343284335122519
16.8956979340685969	24.3672150000332337	24.7236762750551193
40.8117516134449048	40.8892143741827709	39.6552755523196296
34.6357033551658375	42.2709780726445814	36.9120185382386836
36.0769342889558260	41.1987492357679130	40.7244884377827177
30.0414694741496540	41.9865186724780983	38.9495019815895915
23.3955600496946374	28.6118302448552591	28.1575686118075090
20.2733996060231902	26.5172623045756843	28.6054859113834610
19.7707996845525251	26.9043473931245778	23.8539413176877027
23.4107542390927250	25.5135413227855885	30.3952503713034758
31.3777717023044822	39.7435170561446895	39.8897411987652433
36.7022738867311773	37.6288998348537547	40.0302109752824578
32.8721755098427550	41.3912201434764953	37.0868050205868514
33.3564299723937054	40.0176381858039036	38.9670630642111746
35.0679252809041344	39.2734504278747707	40.1747431052880088
10.8434522777023385	42.0140878061862466	36.5863418669240943
24.0535058232568524	27.7419515230683835	30.0726292059371865
16.9040218547125534	30.7985238635269951	30.2469310263845230
13.8794042078463153	40.4595970825503315	32.6904158185253166
13.4584061361287812	38.8658975472327839	37.2594075114840706
13.9718423476343379	42.1644261709853510	34.2704892979498581
12.3393018491649098	39.1208943482906122	31.9008075250902046
17.8587632420906637	41.6362821366093172	30.9214499247480425
41.3595385356969913	39.9917899249501119	38.0317571111485506
38.7254628917580419	38.3059186041463917	42.2312734784075587
41.3813222284212330	42.7258989373464857	40.5127624096971743
13.9544579514196112	26.5782456466393775	24.3867431579682119
12.9257482002729578	28.3996568871163575	26.7655766716864427
13.7523102433480702	28.6614413200870608	28.5472239159551826
14.3397186515245156	29.5356430175483737	26.5221314201613261
15.1025742083253416	25.7556668495638057	29.2112033030410529
14.7984062711743061	25.3947603877847143	27.4497949255058522
24.4955288444436761	27.7286940595092908	25.3110184226368915
13.2140578379147691	25.0681878226513497	28.3228110725982063
13.2635772018136500	26.2328900024449432	26.4016118103497064
16.3852176554060982	29.0010076891093540	25.7728578431006028
18.0466305976217676	29.9871569618446365	24.9592047773975878
18.1574631297991225	27.8930299018775898	23.9448747276207072
14.2440699560951920	28.5939553148821730	30.6379656032631686
12.6592032554740381	30.0492020693070465	27.8679855683819682
18.0765906614693499	22.7654440247258663	28.8308664783736681
17.5588830975693249	28.2212762883655799	27.8520120790156547
16.2138427896063000	26.5576861177735637	27.3337529594520419
41.3824798970041172	39.1507454192829343	39.9955477697476738
38.5544946637962695	40.3140971697189912	42.6222842662905350
40.2708540995547963	39.8868903618194111	41.6538994410931309
39.3315194793468450	42.9156127820614444	41.5624302671902726
8.0597943683234359	42.9281092043544064	36.6588939151616557
27.1472698475894560	27.0757902535183774	29.0049544780467556
28.4319892091631630	28.3253415054502149	29.1188079793535906
25.3974585639181889	29.3332143350312720	30.8713089264245681
26.7671979460543099	23.7499470136025117	26.1774322653313156
20.8190134175834558	36.0204551189557662	30.9745983801734148
21.3194229586127335	39.5593342291755334	34.7773982471480139
10.5591538027909060	39.2152166259278729	31.5582317390872902
10.2514043492018363	41.6225511207420027	34.6059675690351156
8.2035190930442479	40.7456572351932280	34.2345614379656880
12.4033851273794138	40.3868248513378347	37.1615959796578963
8.4945474185629273	39.3762085378396733	30.8341473946441340
9.7142627563656934	42.1567937704203217	31.2475122543630270
6.8485371103780972	38.9954414018170397	34.5941189129965139
7.8824645048690964	41.3767391315559721	30.2892100221744194
28.2821085235599234	28.3342568636635406	25.4307606362587038
8.9180542851276527	42.4185618132588047	33.3851132705139548
7.8213325519959520	0.1087953171751327	30.7075846799996981
12.2709353536158687	41.6578147775417520	35.4801649620562358
9.6233371804318679	37.3848459016281396	34.9381688197378466
11.0136045580489856	38.1684317972570497	33.3282417582298365
25.2890026718731420	25.1239143496703683	29.7851283211930067
26.2483773733664840	28.3597024992570077	24.8294979862713312
29.8236033945134871	29.5387610127473401	25.7073563057647192
24.9118595913926200	29.8690030262836714	25.5890979642291079
20.2981903386601914	39.2383294955112092	33.0065775765380920
23.0689455322884065	38.2918742474111085	33.9251020358698696
21.1570499555986800	37.8729660786685969	34.1440419787345633
18.6621755807463536	40.0354719980893918	31.6333475769214623
22.1718076568312163	1.4122480869447211	32.0725406444188366
34.2473360858450135	41.7612489743021342	38.7295399773029274
19.0772599926605757	30.9371628802309289	29.9863781387851560
20.8558807813417388	28.2076930725948287	30.5675174304428339
23.9089788561667014	26.4517785093811426	28.7491651437046336
19.4919088324066792	28.8866092633689249	28.0069421539951797
22.7295909528475555	27.2499351048322929	23.9359760599574471
22.2246354380690683	30.0414815883955981	27.6023553035779763
24.5339406112731098	24.8640979575248586	28.0081397478620424
21.3812416364878253	25.7365068505549353	24.4280131899399642
20.3162995900721057	30.8969589034168344	28.3615079715580549
21.3035949507916449	28.1748987542725153	28.3400052089168000
24.1486965754766629	30.5327607092564044	27.2085245121861519
23.3751883993346681	38.2006899706102914	30.6625493907392652
20.3330440365992686	37.5957113451569427	31.7236497966278250
32.9535214927820306	39.5262038994533356	36.7293477670220625
18.6916350101662410	37.7184137863540130	41.4353294578910152
32.5209568961429554	41.4004150808641285	39.9582753702830402
33.4890374637103108	37.1393951136535136	39.4792202289977610
32.8886518122741194	38.8121134351661681	40.6528698800754285
22.0514918320582751	29.4008327326470429	29.4651508876190995
34.5116678795568248	40.4992524649686914	37.2381980388608866
34.3926725833322990	36.9182420857983757	37.5096739655392284
31.9442841106472990	40.5277236941963750	41.8652520910740549
33.9511338073106685	40.6047616851315283	40.7009321513185043
19.6469679710017289	38.3358861632615913	35.1981100155904798
18.6649072418038884	40.3348168611422011	36.2222571136715459
20.3774154816387600	40.4232774076632992	31.2271238832125100
24.9045010974804661	41.4719498945603320	35.1504327531249743
21.9017124872743878	41.0526694010665523	36.1160826848878287
25.6695493944909323	25.7379174969733455	25.6047953708476399
31.0039488275218247	35.5418333985783619	34.5461098775089894
32.2472170000851719	35.7004201245667332	31.7221127452524243
39.1245429234615827	38.3872258403859874	34.3852928840900773
38.5814140962355836	36.7985886511569049	29.5893282790239027
38.1915491114214163	32.2658604741825172	28.4355962077828082
41.9604720783323586	32.9369459663951787	24.7172003116524444
37.5797595839956173	33.9215343394540767	28.1235613797375663
37.0847347163284908	31.1722406995504961	29.3642440210094442
40.3735917405386715	34.3324691012902647	24.1964916939128933
38.5887546905285319	36.5685001889637036	27.3491993746518958
41.8363464701552914	31.1065710657839638	24.1783847624581725
36.2270950784007155	32.5489965511605703	28.1103969236046822
41.1526870372219662	35.1463737414408754	26.3408525013017751
41.7661432669553676	36.8724555848532844	25.2652061758373669
32.7031057678983501	33.1365101094149352	34.6079392881273833
36.5377973015436623	34.6187646255396047	34.9723407692881878
37.0213819964180146	33.6275463307773776	31.8803754839301661
36.8288326462911968	31.6002495866620059	31.2479897683448158
35.3196862109942842	34.9633348394691765	31.9044826391754306
41.7156435190968651	33.3818069172766698	38.2322604225228488
0.7347789635375667	34.7955541278452856	37.1711163587611892
42.0667236238308320	34.7822451819042016	24.8506437692463713
41.9584298528545929	30.4034296898234757	27.6750214726353754
39.6183690960507704	35.4091089843410032	30.7013265056237721
39.9890481362689769	37.3157877371171836	26.1982612266318249
41.7924749481083992	34.0789270828782875	28.3186852568742253
41.8202422388962560	31.7934683194831678	31.1286750663510148
36.7432576327952845	32.0792860505239261	24.2584004965268818
38.0264776153882664	32.8471515455051062	30.2054712706433115
40.3779832304162127	31.7132998943764157	38.3704783999165144
35.9781972048859728	32.8309590110249374	30.1807167197910644
38.9990267132876482	42.6033469904352557	33.8307143008814322
37.1635940067092605	42.6467665561927589	32.8147729476981596
39.7904817503030870	40.7271389777375035	37.7045007035923447
3.8159919573888854	42.3137239625341053	39.1983617650213745
6.1873136347717708	41.2684683262906375	41.8699166259084379
31.0717895493923990	34.7712350149186875	28.0674746524307324
32.5961782645581479	34.0377294461052884	29.5985613888627732
35.0829493066486862	31.3945917909015755	29.6486505647639795
36.1042844140222385	36.6850034705021031	27.4988412780707741
31.3514291992459242	35.5340000996720775	29.9389207250045182
36.0799759035014063	36.2992642014643891	25.1986902648411046
34.0433443748933513	36.6652542293591708	24.9180820593340933
35.4341909416849745	36.3862998162848399	29.1577246304687456
32.8858033463390456	34.1411896693865202	27.6976233614997014
40.9601401762671244	36.2367611775701519	37.1331594854313281
34.3423659309052027	33.0452838566943115	29.0507256081918399
4.3893536760472553	36.6514947064863392	41.0705961304377212
2.8318411060636541	39.7785390016039102	41.4500126302591099
4.9208334015324340	42.8474725916975814	37.8029855524217879
5.2074714248394960	36.4750942838721457	38.3970907619392392
3.8668496578418234	40.3303641845285483	0.2123815246131587
4.6202542545312291	40.7463320866316039	40.9449467117695391
1.2875573659581137	41.1565615278323449	37.2435648076889976
36.8606856300495167	38.3344751627572720	31.2666186669336490
39.9097372562828099	37.0637931262864413	35.7909093388127246
40.2772587409231804	39.1893012539811139	32.8600208952061266
40.5465866843566900	39.3596344054210121	36.0967982502867244
32.2562907988099141	33.9340060635312994	31.4642993432829670
36.3136432297915448	32.6669597882976248	35.1724203518226162
9.9070542927685050	38.1070800247994086	30.0473242037858199
2.0571449489187477	0.1591764304598164	39.8379698941024856
3.7585988052507182	1.3625587693595209	36.1151799042396036
1.8508234345903207	1.3967747957874104	37.1078964289114310
6.8876718810470035	4.6594939889596407	40.4347202053752710
3.5143765349911447	4.9459198022574862	40.6411610816708873
26.4555006785395364	37.2033667895384212	33.6008710314720176
33.9414874945261360	32.6118355473703261	41.2777207556116821
35.4227417713826895	30.6249144099721704	38.7633323539793935
37.0194267926273923	37.0175394852200057	41.9125097340622901
36.0382184796305722	35.5205682030643288	0.2436703287495448
10.7076443612718712	39.1121299500847002	28.6372175903951280
8.9600268974510282	37.0454484251365628	28.3658521960902661
6.2145616970128197	37.0143348779371522	24.6353848516782499
7.5404523704914954	41.0148302648475251	28.1469978337689248
3.3840816288629907	3.8240569553950405	39.1935080272047358
12.0230523819764166	38.1300148397708440	30.1243586987884555
6.9936510277400528	39.8454178397380474	29.9197493538254946
34.3355779447366842	35.5607157009437529	39.0888829353002478
36.2231997546100857	34.6005705814551163	37.7032960463073152
32.0958825193211723	35.4314270725601830	42.3665736970921785
37.5302011534621585	33.7651247316693315	40.6184746597274753
30.6670480853847778	30.7961612759011629	37.8353921662647963
35.6856125804156079	34.4954200378654292	39.7297494245862026
29.6566132086294481	30.4055417901666978	39.6615680171237557
33.7705516171720888	34.8693242996748012	40.9160241353232053
33.1874107714528179	36.7537238708009895	41.3312655124625721
32.2256766502633809	33.5979401008252125	40.6516444252647773
30.6482627077679979	33.9129970215744976	33.9571596497301371
27.6108798245314553	35.8605961865651253	33.0446282409836982
6.3664654738532347	38.1012460193167399	30.5366840154516730
41.3874982469938715	30.2507149637476118	40.1280149009039917
39.0594870317368148	34.1830085325843527	39.7462938232589877
33.8131022024862702	32.6925719909069485	30.8959665660953569
32.5050691567597028	34.6607643616107595	33.6020989282820892
34.4065753495048057	34.3895573160349741	34.8570722616773168
34.0319308281759092	36.4779796448883005	32.4525526449366595
37.6488517640552942	32.5713299530583953	26.3713568596076051
41.3874885498385936	31.1735894234180755	26.1339371778586980
42.4117287962539180	35.7296847760815268	27.9480965398047552
40.3854920673801630	33.4016095392060279	31.0217581305237040
35.6456312956293573	29.5923248049482410	40.3967611579526675
38.9348050023002443	32.0803320926294830	40.0069176515514116
38.4649649946530729	33.9709609879839007	37.8019987980507892
42.2731062640300692	32.7847435763535984	0.1055362388070122
38.2984215810813140	39.1248686445597258	32.6576270985544070
42.8670351050301903	40.3229381126279947	28.4802029416105320
3.1594419341209474	41.3784218120112826	24.7329903067478405
3.4142346152575547	41.1301340116034453	27.0224688091002356
2.3164923664906745	36.1083043071815695	23.8246576064658981
41.9134464481221656	40.1602526145554393	26.3979714767085483
33.6703702842899588	33.7562364722893946	39.5107101606040132
37.3494905529851309	35.5857746413907989	40.4384762411331735
2.3437067580946667	2.2624170529005982	39.9732630340644874
6.0847856064596018	0.3765981713850554	36.1764374896622414
5.0472792019045754	3.5341259407980115	40.6615269695173467
3.3310306307376338	40.1048865511145252	29.8222517899116752
0.6761673504673287	42.4170097011964273	28.2894907890291769
4.3003971661621492	41.5682877820945720	29.0534290469652525
2.0296731316721237	41.7391193664766362	29.5465869271975734
22.9364244782489948	31.1717472727930982	25.8380053249779955
14.4505219973472716	40.7276008733343389	37.6770017244453399
30.6663500647128338	41.5790623730688296	30.6426475177173003
35.4634681411578043	42.3552711738820378	31.8015981820720839
33.2111166235768636	41.2382174609988894	35.3204819080944574
33.4187743366921026	40.4067916691791140	33.2934708674564703
32.5576233083787230	37.4409449553773257	31.2988352046043161
33.1146147180641464	39.2625518960377278	30.7587099804980468
33.2386991978268682	38.3778769411454235	32.8328210083398702
37.7638166044944867	37.3011150488759569	33.1123696345354830
37.3996723182956856	33.3136709865669118	36.4891809809007981
38.2264507791325414	33.9580394763766122	34.6866072500207281
42.5296917355156836	33.5958319458157177	31.4828085209073798
41.6248453260138831	34.8620424358768091	32.8108682420969231
24.6881193100670906	33.5759659420547578	29.2836450462752680
16.2447270671314214	40.3988611283997869	41.6157229234806749
19.2257736781423176	30.6182035668044570	26.6988874083502239
21.8642256090255245	31.8463780358052908	28.3622501740859754
23.7060757885255526	35.8833925878965374	24.4508969395135551
24.4606113014648585	31.8364659980131997	29.0017661882673430
22.7619739852165459	32.4437073131864437	30.0450236565319848
18.9824687875580658	34.4666564680470415	28.5808137213295836
19.7777514827354466	30.9008008506079221	24.8079793533399844
19.1971745650513661	37.0442134864894115	25.7490937123157515
24.6492437263545483	31.8704666058657047	25.7002300273094484
21.0349127557298452	31.4328108724773614	26.6142601041899844
22.9586578421198588	33.2516576828583297	25.3127042002608036
22.7221825650077918	36.4000910912842173	30.2764504278341100
18.8044660110661006	32.6005836392649684	28.7106950554097828
20.4977693962813809	32.6682004496954406	29.3894662113064911
12.2645193706188955	38.5964646957495745	38.6044534045269003
24.3616205670194219	42.7319550298765520	41.4441820328822459
14.9236346912290951	38.1494357233246717	40.7014554762934608
16.4884755947849513	36.6791230147516529	30.6014507724396516
15.0335798812991221	33.6761098238301315	27.7595652323771063
15.8113409247855436	34.4013525628541643	29.2410489945842507
16.2331459537218130	35.7669451036595518	26.5341841762012329
12.9468134082474133	33.7809436720201006	27.0522624611732105
17.9584877564952841	35.9529863656616868	27.3479174826137097
17.6572630265643156	35.3570401679595250	29.5829517193928382
12.9206236620249353	35.9715822447577480	27.8005535079803288
15.1911323121286923	40.1867940570735200	39.8547674051753376
16.7911352249252026	36.8114225588130566	41.0170858557982498
15.8996131022508873	38.1979150852882796	42.3585969438221497
13.7685240708467340	38.3621854409484300	42.4482681666278978
41.0692724380475340	38.1506554348635305	34.6782865842831924
41.1145320288999940	31.7502223204581000	36.7280455051686872
39.6829498248620851	35.0086431926326114	35.7812195053061259
39.0304450088061756	33.4878794352309654	32.4865156993415454
40.2243136511268418	33.6421988883884140	34.2862604591592017
13.4912605528652545	34.3322110085931556	28.8605622419209773
19.1277983784877961	33.9828780529700936	30.4167656525240240
15.6418742403544435	30.8287681909054889	25.5911650951712843
17.2645408232544284	34.1845825538373944	27.7980221897297319
40.9462425100702987	36.3652421405511390	32.0681365348642800
17.0080889061047458	37.6023518684982321	38.1484541305890872
17.5406326766648988	38.9515335965812142	42.4953679907696369
16.6037906858654551	38.9179837984554737	40.7281302683007738
17.4528957041520734	41.1988749982474047	40.2914045677092858
18.4700680450242523	39.7695453772606484	40.8995640878520206
42.1409558833301503	37.7347862336341038	38.3826643709370359
32.6074899395984374	36.8044703332115475	33.9375980261202557
24.6807640706384284	37.5751627857959605	25.2130674388777543
26.1631307188224831	37.0057571336745639	28.5976524488732444
29.9730899791682184	34.9330928073880500	24.8061961409660512
29.6748177765550025	36.0319573747914603	28.5693895171479397
27.6433643357179371	35.6646623882239737	28.1030634030761668
27.6010155604245533	34.6124215461353941	25.7653409718682589
26.7310144327848640	32.6719463641611867	28.6870864935511527
26.4121831176571362	33.3334642002591153	26.4515238358116562
25.5715637584422488	35.5147408225165293	25.2897755490943972
29.2388011716334546	35.3735659459399869	26.7142770120282300
28.4899046597599508	32.2020663785412182	30.2007848526452811
26.5196826866018966	31.4727761889009052	25.9036403738866561
5.0801792878314345	38.3661762564707587	38.1856292374993842
34.0411252139763363	35.9324353205644158	30.6337964393459536
6.1528754194882316	38.0194027355332977	41.3623545786476114
5.1609839687792434	40.8791633366173457	38.9369374241172110
3.2639227378715825	40.2846194029052782	37.9460456608352814
1.3248321316036409	37.7307093453793385	38.5361613865228634
2.8300001890554509	41.7210520156873130	41.0185889618232196
1.9283377404071584	41.0021831001063646	42.6891171184461911
31.8182821879402269	33.7065821030975670	26.2781062133581891
32.6972814375009762	35.9599930041853071	28.5525401783235502
33.0911159709109128	35.4181266581009169	26.3743578446582809
35.6848899808935727	34.6852357505915734	27.7083984850808385
37.2455886213823320	42.2950316464591509	30.7376704736753794
41.0579032992552015	41.3686843225208207	32.9907768361947333
41.8350452410063198	37.7915322894629142	36.3451212990114598
38.8152776906040842	38.5609191261343867	31.0273309284896506
6.7310737257174029	41.7060813492880129	37.9991509279861219
42.5489686230951705	33.5957650486245143	34.2391018976376458
41.1607299628324412	32.9894136725526721	32.8598398074230218
37.3643389470855638	34.9858896904047896	33.0663306332542319
39.9112687496490892	31.8359590633181710	31.8857402470913911
37.9581916553466812	36.7274447934419328	31.2921664712278833
36.2906963995507681	36.5211221219014348	32.3648533134351339
9.7374035389214306	0.3507690182832435	38.0146001509182554
7.9609028838260540	38.1054650247092894	41.1001616928684470
10.3612231252808460	0.3458302588607520	42.1392987579694491
8.0733248748316360	42.6006802469553847	38.8190468294205075
12.8559855930129370	38.4762025670267178	40.5955238836279406
6.9587801832263549	37.9335072368897173	39.2870999606438716
9.7571547957403304	37.5522669818433954	42.2565567207436743
10.0419685463595343	0.1188208709311875	39.8257883249275366
0.8282897590250887	42.9551551392689177	38.0321535120617540
29.0223582283540367	31.4334175092987387	25.3874044577233384
28.3927838025899071	33.2114945099793815	24.5624628996776799
26.3527488772930027	33.6801398384990236	24.5982606783168585
25.4737365192290817	32.0801046597544541	27.4824792747533238
6.7071053726783383	41.2161928684134651	39.9129234029363289
6.7554534101500261	39.6478679798148050	38.5154524081886080
6.6349751651829916	38.6126921267523144	36.9591190780391656
8.4637792922528607	38.9180150350246663	38.1810021190164406
6.3187272838561537	36.5214536558139642	40.3366313698540679
32.8354397498045429	38.9090694111153113	34.6922067473689069
33.0891810339079626	37.5143470405516055	35.8125199751994998
32.8079658286570108	41.6606264320506199	30.7655758601535290
30.6364770712446983	41.1489449265216791	32.7717016754019568
31.9592919360758536	41.8669398821271841	34.1223217415823967
39.7868118885142863	13.5359627463833085	38.4440583263739128
7.2023240526066816	19.4803579057520757	33.1080107739459422
6.2995075492954671	12.4691006883055575	31.0403714695145290
7.5700914633343261	13.6275866121681002	30.2047810043250209
11.1763923198899668	12.8832016256596749	36.2010044898213437
7.6429801103136592	17.7771196095644797	32.0420756886741529
12.1735450749181044	13.9793311673824494	30.9570972478638353
6.9186666646028403	13.9484066299535563	32.3139569032889042
11.4272739553631251	13.7302962397544253	34.2589608384505482
9.1973890934915747	18.3363338932366773	32.7103009021231017
38.7910205139722706	14.9684256074551634	42.3522659462860531
40.7279893832460047	15.6314123359315253	38.8955887089712746
39.4339536651971727	11.5708396247067569	41.3626716646394996
40.5156023489704893	14.3734126185625204	42.4664593975456981
41.7752414306112598	13.9535119796370832	39.8757344059995802
36.7570306861287435	14.2094416583399958	42.2020597502235546
6.6170552966205616	12.3244738262292781	33.7549823151888333
37.6462181767117343	15.8592526433307270	0.5897701016957688
40.0859323613992444	16.8520546465686287	40.6463862893352825
39.2504526662477957	15.2007368704442190	37.2402737330212474
42.5827186269556961	14.4281020090830623	38.3743805109171205
38.6322779929761140	17.3812292849781898	42.4234874210692823
20.9165406664697677	6.8340426437951027	42.7101586699819862
20.3554322897495368	7.5692417039457318	38.6165969428664226
16.0177883108063135	14.0383920246524934	30.2462761868715795
12.5481816145559613	14.8774299235896468	32.6619229802506865
20.0403565617044315	18.2609852504517782	31.0669617262992439
18.8438368775947325	15.2109053670190111	34.0262044083088213
18.4743828407237558	16.9284294876568282	33.4776334848606822
16.8892586654554115	15.4982460121953789	34.3413391437485558
12.7840298914009995	15.6657069496546750	29.5447190547973406
12.5597238443351795	7.5897899872457071	38.2928949372352037
4.5675476242793458	13.4424517236256289	32.0696926435405985
4.4696344885822743	15.7931712580645076	32.8964789280641128
3.0290963061848388	19.0985789877143723	35.4933272442822059
2.5623477882188470	16.3222146303220654	33.1003599768992274
0.9638705616506810	19.3240278307785864	37.7939088111331358
4.8316379355005061	30.8818917328091871	35.8535892534481420
1.1415685734180208	28.3177805316819189	38.2141742366128767
3.4383602263761266	27.3901289880498062	34.4127171810308425
0.1914594112582292	26.2164875915533884	31.1317150181697642
4.7565044270163064	27.4076165159562528	35.8029007498654579
0.7318550693714717	27.4599989455687989	36.2960477394875483
5.2963639313902222	28.3554318186442522	34.2046053637917780
18.7417646289391335	7.1572252749948619	40.0967041529425714
13.2255714412871548	9.6674070364240912	41.1601376486662502
11.9755283961302297	7.8713340542511609	42.2601578217411671
13.3291809645976915	16.6258962737949716	33.0202929470614777
15.7973073045790162	6.3312570143384166	42.2697533724419685
0.3721487434447109	14.2135364269035112	34.1185638805527702
38.8384909651353141	14.9566195557693256	39.1300886537512156
39.5898363218304397	13.6031377391968604	40.6708862723796400
41.9547611860933216	17.0366355504893150	39.5270888897220374
11.9180595505722220	16.3997554682140247	31.1954354863745174
10.4541422664864232	15.1491122144369701	30.7330439824244799
5.6587764905251277	14.7489614308789942	35.8409865038777085
7.8684541979618734	17.7516051258105136	33.8937284036951567
6.1816865577829025	18.7137273356571292	34.6462527213654710
5.9662452095921443	25.3291586028314306	32.2366423107437541
2.5161122339263144	24.3725061716821507	32.0066057149511423
4.6663123395722792	26.0709806274489786	34.0024299469668492
2.5220477649030557	26.1980363672342875	33.3183736296718962
24.4801978355156464	14.0982843490211067	33.0480529638132481
32.5624479052802585	12.8053581973466812	36.7904007333329233
31.1589764652663916	16.0985483243510643	38.4540467454173296
34.2913967024346462	13.2502020482897667	35.9352744641893551
34.1686163894252175	12.5817560722045023	39.5225336683138266
35.6472987497611342	16.3522488953762171	39.7945726934372175
31.2944593235000035	14.5178891566729487	36.7552358066388649
33.2972612370327781	15.9015624219865952	38.2948533755812903
35.4691064031836021	15.1310122581610926	38.4481788602395582
31.7929285755721587	14.1460837614956034	38.5040060389537331
22.0825668429135362	12.1957644971452766	31.4527236199490368
21.6092930823020879	13.0898077101866317	34.8283586816324799
19.3463200713474457	15.0800666031424253	36.1835487389250474
22.5181668303872904	16.4961747833960430	30.8399049194764245
18.5600311714440487	13.6220536528786429	32.5196182668087843
19.2609173119030963	13.5036787201657233	34.6012388268163136
37.5789368377450756	21.5227180187374039	33.8713289045984922
22.0793771706751691	17.5886400868890895	35.0857486964385714
20.4341950482351926	11.7663485725182770	35.1749707939795613
23.6574592929103815	13.7874461868263349	34.8791792155844931
22.8632211133426466	12.8246119607324172	33.1917910196484343
34.3742468206967331	10.7463730492529201	40.3712438458349610
37.3848393990946235	19.1456735337223165	30.4086932632995079
41.7029500131900548	23.0295186516668728	32.6795934695683314
40.5188990451096629	22.5775022816093767	31.3587350732830394
24.7380052791827403	17.4860459265938140	30.9432243026553984
23.5237916107893348	13.5677726285601885	31.2676958556731144
21.3305039126225253	16.2828606419841719	36.7064200373266942
20.5864763251580669	16.4313176290860206	33.9994958187803178
23.3064262745321891	17.6716098669006101	32.1803850817204804
21.7349115095944185	5.9090193650725515	38.7356318121502383
35.3667629318771617	12.5391781871116486	41.1876352344420908
13.5306799073481905	15.5647018508813098	31.2194515257854022
16.1631403328651899	17.2980068336290174	31.6893995970992179
13.9702579504749504	13.6869521883704426	31.3744131929247523
14.8951404538450163	17.0182382680105491	34.7183913340561787
18.5051138115115705	14.8956754708601462	30.5878593442861728
16.2046922863949909	15.5678063577170231	36.1625028119699650
17.8448765416024919	14.1577890831719202	35.6020664210323403
16.1683300181395104	19.0223511266843168	34.7037782963432662
41.0966486269234252	20.1962696747480521	35.7655626751748912
39.6368508982873635	23.7791439199107302	35.6889795068294973
37.3037204772643989	19.8885229141459270	34.6741228119549305
35.4490686168727507	19.2144075309526734	41.4817488950184767
31.6797792941912526	12.6583648700928393	40.2402342843233640
32.4764332220587448	16.9005610077048622	39.9552536161845993
35.5995032961369091	14.1591305919510173	40.3733737257760694
0.9500888490784785	13.6589156399516511	32.0647816422476879
34.1746965700161454	15.0994034444997869	36.9079592797657625
33.3022962156983837	16.7087098274062633	36.1063892574285958
37.7280586449388835	23.3341366399349113	36.3172950151319327
40.0341470654329541	18.7251292384173276	35.8309539044988909
39.2637082076623898	20.0369148351039712	34.4041255568690900
23.3714500480801668	8.4389434891521624	40.9404229701753550
23.2051076466687611	10.6588260802804715	39.0717947298984996
24.3407810159231452	7.4729909292782493	39.2390464116974726
19.7704923948591933	8.5377029056131413	41.6609688408988177
22.5831215407509163	9.2688739799615085	0.6221796518770493
22.2841310614971029	10.0071343104649113	37.6089551426637811
20.9254074645776349	10.3408937501562512	39.0482062910577667
22.8778138253511294	10.2932014993804586	41.6726224785404256
24.3377506361821681	6.9783035825721438	41.3727082019382877
32.8785758793533702	12.3732587804233347	34.6814341501347343
6.0593994491322398	30.5078343581519995	34.2170803461517181
11.8696516535344578	30.5640988078088824	33.5809344773985217
10.8781067898309676	27.1707113228629105	33.0762956647655457
9.9738166907878103	29.1531430220104326	33.1171665284632155
11.1428946028268498	21.4580092441367185	39.7161602566029615
5.9945139692507459	21.8623289494218653	42.9215242405451747
11.2945656422589291	19.0564160456518685	41.8596044732203438
7.0022568699894423	23.2355340427426533	37.8558184443180963
11.4022569440615911	20.9819795515924419	41.4349397877154644
7.6893963809031218	25.1402710712334994	38.3324973704489622
33.9282247905813392	9.6036294589056208	32.0320254171041086
31.8332995514300734	9.7214256002995505	32.7397492463909003
32.3289267362977455	10.6358908239707226	36.8608792699270893
35.3904152959341971	5.8693602928543633	35.2805437555286332
33.9603522069078494	5.9242939282906280	33.6317283248008039
11.2823783126270509	29.9606831600029331	36.6901662350411968
33.3161114313880589	6.8605744331295897	30.7599734976672075
8.0516752483778919	19.5442441324436871	39.2365993199937719
8.9777112155093359	22.8527664624009184	41.4858009087526867
11.0800718335853521	18.4495843987913481	38.2893754868872591
8.8078302993286819	24.4352670276556303	39.8933023047656832
8.9478203633341362	22.5962904876260424	38.0320999301059146
6.7792350718223222	26.9751752674878809	34.8778834067259140
7.6295310465090607	28.7554617945134119	30.3474500587767118
9.2829500036523989	27.1043666720123824	32.2396621487744568
9.6811614192241144	25.2660152388026624	32.2974020062785527
9.2224345387193711	30.4948004186921686	35.9531397760109286
9.4673521326665675	26.8850553741050078	36.7618070711924219
39.2823006547475089	10.8113066721932576	33.8562686609017476
42.2070740578014991	11.9489349272777403	31.2901848703470868
35.6174503008603054	8.1951204647508042	35.6049668355214237
13.0792160020076391	24.5782612250443115	42.1723212528357507
14.1790552186440468	23.4017249511797978	37.5397624958624689
12.4662162745904848	22.8192828011680184	40.9997437293819900
17.0124127211989489	20.7595697257371476	42.0526691531628600
19.0245366772550639	23.3711036989471594	40.1676470761486684
12.5902853240539851	22.5775314284448214	39.0314268175284766
13.2882574436941070	18.5626375612936840	38.4549056280204837
18.4932719830591843	19.6788384082489145	42.9734481995383462
14.1593433840233764	23.4192903908500085	39.4482622764826161
9.6950237243654680	10.6634761002299676	41.2182327531433899
10.7268427416958154	7.3934400086286818	38.3082760544179166
9.5006095017002750	10.2939198163770325	38.1522699514770949
12.7054170477459643	24.6278283244077230	35.3500831975303953
13.0214756685722932	30.1161149142211038	31.6060288528870430
34.7168275515197777	7.3153286072555836	32.6414928052020699
40.5215992602159147	9.9902855327280591	35.2346356423582350
33.0334099543870678	7.9917769153579403	32.4327968248342486
36.1551272080348198	10.1943844968671513	35.6976918142370678
35.8522231476267379	10.2303590527518882	32.1058679573430581
36.7032294842025095	11.1581585625965367	34.0421017032378757
32.4603820931696703	6.2515370329131255	32.2822067995717532
7.6785449679518498	25.6425223297443559	31.6848896174840498
7.6508277785031611	10.1764320637006342	41.3843649069239987
8.7954123213412903	9.3571885271756869	39.9649882322096843
10.7521543045745638	8.9976327016391284	41.1189866104132165
9.0545457068730908	10.4495865966660908	0.0379569951605205
9.3713593706849974	6.0557383014148884	0.3600698212667385
13.2131021750679665	10.2114908046707669	37.5781469030885518
11.6968970205592733	7.3239015485003813	40.3082015944774597
11.9059378073141477	8.9343220942228516	39.2753277774222269
1.2712211891959317	27.7455010329383001	34.3802604791382080
42.6796196125284482	23.9006535757483860	42.8393784226767380
6.5115892860938214	21.3001239403894047	38.5513087824297287
42.7199912550575363	23.0319014303593761	40.7834728903412440
6.4474967020248490	20.1199865495783108	0.1082280188898971
1.6791202081174184	22.2988857572522221	40.5747345807801949
2.9435122741406010	20.1569867535264287	37.2976578340535880
2.2123055135692695	23.3608337850193131	36.9506744165258567
4.5199995711838046	20.0669056941109893	38.5019081299468340
3.8286490293830098	24.5655518137221485	38.0794900464806432
6.2404151116156079	19.5134610849721959	38.9178636172114949
4.8264193937957405	23.9237926027740677	41.1298988180622942
1.9573105919674818	23.7606303964627124	0.5364981576915562
3.7413452572760573	22.0619875676807204	40.9380496311976430
0.8247550618866629	22.4638396397080804	42.4540071668842387
14.1770787092959907	8.6406937924139893	38.6008242993679644
3.9960848400248992	18.4987676374742556	0.1793524378586947
1.5281556831738849	29.7828854341029654	34.7844410451900572
0.8788162657643211	25.2676139671762776	32.5163259726450562
4.3986436491359244	26.8243838336861025	32.3680889066413613
5.8436121855892713	24.8788524914328484	38.1783372139429673
1.1670623030729093	17.5145861090277712	41.2341026280172755
5.4113576124317255	13.8281653773148587	33.7097969296141784
4.4225793035747971	11.7057605354453269	30.9013304746669917
3.1481790990503624	17.0800364470544004	35.0802274316691225
5.7667178739583251	17.8521181228501540	32.6898204308395535
3.4982474324043698	14.2445100726904936	33.3610910787831330
3.8143340277257796	17.6105905641090601	33.1549630565501943
2.7820703734549728	14.7849697856483679	31.7594608051143545
1.9418393247933037	12.9284386842051298	33.3734147148834879
1.9745478298127683	14.0840051675146753	37.6687239533306553
42.5836491066012783	6.8389150917245853	33.6866031977486671
10.8132262501281886	25.3045662935696996	36.6408636342323746
6.1646533720669341	27.0244408349900525	32.8980868519519660
6.8091604074884531	25.6770249943203126	36.6091430588155475
7.8728501482676645	11.7222215932670419	42.3434221595481475
7.1049558318680281	8.0609869588174572	37.4020866928019231
7.6268279368479668	10.6092921800697990	39.2306264535740894
11.3108289042827455	11.3682163559234723	37.6061128228164065
9.1399695668013550	5.9459481097660767	38.0410737592793424
5.7985513349985993	11.0361174830920170	42.1907197998185026
8.8030089841535109	25.1420482505503280	36.4232755483344235
41.4679192976668318	10.8768867346239233	33.6872789177824004
40.0194483041997486	10.0459936393434450	32.3142827128459089
37.0799648717281087	5.1573708657616466	31.9397769535708278
38.2889695401684733	10.4427504923874146	35.4365876652202871
42.6785559887065844	10.6896169408351263	35.0578560775099177
19.2532112511544611	8.8510633712067825	39.6475429841043763
41.3166608736873116	6.8113302997092706	35.3920586343637709
41.9750230929655501	8.9192480896578559	34.8925811486809394
37.6110227999447773	9.9738318361880864	32.5338914925532237
42.4691325784294236	12.4887447243959677	35.2550378070658610
39.3258751932480735	11.5042288299739468	31.2038116432163086
38.1502830240028743	11.7779415093500202	32.8347322375760413
40.9041321892692835	8.3348927807312396	36.6962117876857974
41.3107556206032029	6.0286161989244054	31.9904950590479373
9.3833134322269593	6.9923295113723114	41.6158306674171854
3.7576107151792808	29.2119634738814788	35.3937532141462370
8.4522686315838360	7.2859522826722198	39.6099526412583884
2.4053152835286600	21.0465598972429895	41.9519083301683935
4.3757315755743704	20.4128963213862669	42.2471161821329062
3.0341329517567277	21.3538320523254264	39.1408037417885666
1.8028138289481990	23.5171410487035253	34.9804711644095434
42.7157246983194341	24.3765533849989211	34.3802494852686991
0.2133359448086984	18.6951634950420669	32.6077953892169319
3.7611159526878177	22.7911408330491483	35.9001785547103438
5.8350042958917516	22.0791013413815236	36.6943760717939185
2.0763987850959449	22.0436231146037613	31.2625637959512339
4.7062474792991607	19.7166800926281489	35.7533545940531496
3.8777108520970796	20.0584988211992652	33.8326249982992096
41.9758032675947419	21.2023406956858871	31.0696578066580322
7.1510010765046284	17.6372100874106366	38.4800475839646552
10.8076058025165764	17.4343665655518585	41.2320208223590612
7.2103273120125371	13.8472458530118239	42.7607123130451399
12.1772901678022460	13.1487401373969082	38.0805093624155262
7.1620792953451664	18.0737731225833009	42.8297559939356915
10.0936616357849989	19.5334841610275340	40.3346398332462215
7.4590519664630319	14.9147439007216267	40.8599598865601550
5.5407015498859522	21.5933002571668453	33.3134433586470351
2.0914341254349176	20.2820427225561382	32.5253973423598097
1.7572958968730004	18.6185887029345203	34.2957319835822148
1.2015828982028331	20.0148545981736987	30.8657288594278825
0.4833198123135087	24.0594720150577075	30.6888088443760800
11.1796543338588172	15.3704346341868732	41.8158464093981621
6.5671296413574973	15.4574617381531709	37.8290971186187903
9.2563168286535014	16.1535010658662337	41.3018788598845248
5.6345763348930742	13.8910820663491279	37.7998942098384703
11.4225632040453267	16.2650623669250258	38.5448066438558072
12.8206761703110548	14.6980618252844639	39.0260454846347713
32.6419173228811914	8.7216061208427025	37.1708113031958618
32.6441357146612035	12.1868286084935811	42.2335232880367286
15.2413850686624848	22.0182347126724594	36.1816674846056401
13.5628392562911415	21.2325275865593071	32.0184176314858959
39.1495391998398574	17.3444320498413624	32.9442688293780748
22.4628524120707809	18.8237061459639605	33.5398487451601071
24.1628130160780685	19.2357163705957781	31.9030003838110474
19.0781988626437489	20.1969576829789013	31.7548693516498908
27.6559865795285162	7.7877290943427431	40.8095075667773557
39.1784360954362469	13.2996747353818634	32.4433157818540820
38.2695471991624245	15.7002206860870075	35.5121759246794255
37.5406421487423287	18.0601514057864847	32.4401730676684110
37.8724404513200881	12.7482129940135973	34.3549599639161087
0.6117793690729731	16.0916333438588097	35.3401787653031860
37.6280837484955413	17.6081012844170601	34.8456936730868918
39.6733283833304995	16.4627607738498654	34.5875028585632052
42.9073262556754855	12.3369633887576793	33.3345564019452709
41.2166641414379384	17.6045541701060451	33.2840024079603083
38.0748166678914473	17.0171181190082415	30.9542249560869074
38.1553893836482487	13.7956528680736987	36.8631675619193260
14.3459229996145137	20.6727381091347766	34.6750320651527204
22.8424536701894780	18.1847957920624737	30.3818010242203620
19.1041709059530156	23.8542873875040087	32.6295446115579395
19.5475192844672705	21.4298439279070969	37.2302065942818814
18.6499096580439989	22.8990677564005871	30.5766670080447618
24.9560302967692671	22.8289722140197107	31.3695708496785741
20.9277641077959942	24.7067499062469658	35.1381159957251015
19.9550634862800962	19.5331374714856238	36.5563681433393057
19.1865562406397672	22.0557194541308768	32.3410569221819273
32.2563745735051910	10.9140325043376833	40.3728587720719432
31.7499980233952748	11.7790421405255117	38.3881908741875861
31.5410914893206709	9.0813017436565762	40.9701440857428949
34.3556357620514135	11.0705096366902822	42.2809297118405141
1.3440329020849844	19.7847000400735702	36.1062748118702430
2.0095897651557544	18.3453503267692781	32.3242121970817067
19.6814592081960420	22.5788551924347445	34.3899167645504562
0.3545938305628600	15.9586294396543895	42.3198096201967857
1.5270543940165053	12.3814930205421874	38.1841699971800281
7.4453689576631312	15.9403064153479797	42.3713972826541792
0.8240764352453170	13.6203290323546362	39.3751452105892028
1.5450835610208737	17.7934587327483023	36.1393590588571527
42.4944594056834433	14.0898899995798512	41.7951271064693017
3.1046268342941250	17.9888039098407191	40.6700228735118472
0.0027567834791184	17.4762908811816438	0.3015334273353155
3.6532679549505840	13.0632858527283648	38.2167162547321198
16.5316446570883855	19.4310134039709865	31.4964765775548550
15.4853123781307804	21.0521133159699971	31.6053282072062736
14.5580061916859602	19.5984736478989028	30.7610925508515898
16.0219340987768177	24.6724333400876006	32.8282250975901846
16.2217692553774562	20.6810988673887692	33.2477639544719636
12.3572275100270250	19.9443289628557849	33.6827042824512972
4.5955165509742342	17.9762925771551210	39.0031807789538050
16.3762540360495805	20.8150678923626167	35.3881298183134376
18.4557291260882828	20.8521872781936111	34.9372474162082156
41.1458984668828762	12.7517972454120265	41.6229460295079150
38.6009017517574549	8.7703826163288170	39.4880049808262754
17.2683078463164463	21.2822475312288013	31.3852135988735945
39.1336183716073194	10.8769370056145540	39.2525878906434968
36.0968259337602433	13.5430313390254451	37.0688758379447236
40.2534379808800793	9.3710703551315575	39.9940601828645796
39.9132164891964933	9.7320096961951386	38.0269206652868661
37.4873618930084547	5.9721701182611042	0.3059542715396020
40.3200307471437256	7.9081250849351790	38.7343939760589109
42.7183946092121616	12.1954074070675134	38.9814488722104784
42.5830812597577975	9.1808645771705297	39.8742207846846668
38.9437863424587007	7.1480832250372028	0.3078488899185825
6.6216277357959514	20.5277072484330496	35.6422924390031142
35.2864935842366663	9.0254480822797429	39.8808014771253738
32.4247309928782244	7.1164302204480858	38.5729758755526930
33.3152836309683167	8.9269605289030682	40.4642691893944502
34.1716567934921542	9.7047799174849150	36.0853657795372129
32.2233928344818210	9.2594521706408734	39.0170243818121989
30.7486963647259479	9.5122954843646870	37.3277509305512041
32.7398949960338825	8.2887650328109412	42.5240822864229813
33.9923819326762384	8.1370141490550640	38.6001910669044932
5.5115729141557797	13.0158351918558921	0.1881606162013441
2.5497184810194549	19.0931101319876362	42.2538330657772718
3.3238189967248606	15.7614695001220113	36.9639619311708429
8.0543739349544179	21.6538232726267630	32.7880079865695748
11.0553415508673361	22.1517224235935650	37.6402014061499202
7.8292828864155997	22.2487137522727565	36.2623988136094582
10.7397293713437296	19.4732215695703097	32.0669404220305339
17.7227487028086017	19.3235824383975228	36.0182896352696602
9.7439254141677321	22.9907204156133105	32.0613151009419326
0.6070703644843826	15.7109324888306592	39.9496623920165632
17.1998854485334398	21.8385853710474294	37.1294253143792190
11.4271635012780433	23.4880936942624139	35.9291674595890882
13.4444476388739513	24.8113400091665532	31.0132045835204444
16.2321360232594429	17.5903775007143288	35.8297520152713886
15.8724144749727678	22.6493329281100699	32.4575829991978182
14.0174744634428343	23.3630174677211571	32.0782034588412870
9.0461158220617026	18.6992642699611693	30.7580837240460028
9.8121041140750069	22.2153780567525168	36.2931200258375952
12.1040065497158835	22.9672489488866738	31.5413055927867951
9.0277328257081155	22.5313285552466382	34.3883095130539402
12.7155707582385773	23.4602295065558550	33.9512508786466753
6.5056307520765415	22.3867197809531113	31.4319683629462858
29.7420314493230755	14.9646738456877912	37.8853937194435844
35.1485910228826199	19.6083747086227902	30.5165432520945714
32.8851658982101824	25.2591822745249281	35.2684354087621657
35.9502583022783710	19.1772056962201560	32.0675983298575176
33.8073604054045020	18.8650254834448319	36.1382362005699846
28.9225222265982644	17.2651502697716381	35.1247129767300876
29.9891544330232165	15.8490058380747580	34.1347020511924271
28.6196924268243826	14.8564112599355802	32.9551642814047625
29.3004895639946064	15.5991361939925142	36.0850995833319956
27.1477396016903008	15.6735821471186103	32.3681242086228593
29.6075230894217114	13.5163517426697428	36.6407133599365196
26.9148689263956200	17.8716948162327789	34.2296084134732439
27.3061986128499896	12.9622586548406868	30.7300585382886204
28.0772115366604744	12.5187482676399870	35.8453183224884100
29.8626510822256535	22.7663850876018046	31.5669666773255635
34.3030006644700833	23.4046152814016430	35.1357084176531060
32.8097699443760860	21.0086216525860507	33.3957967037353427
30.3175368053518639	13.0442361808215974	38.6617220310398721
26.5539149153492566	24.2043116286676607	31.2085073988897506
26.0720401658465661	21.4706468424962615	32.4362797906004587
24.4508639434511821	21.3265044199331015	33.5946579229589091
28.7787246279167945	19.1195699422739693	33.9879810884683167
25.4009788847935596	18.0379851987466928	32.9500390522957929
26.3198576782536939	23.8018527974550800	32.9770951795876783
27.7505266583970673	19.3466374632503388	35.4852748301578487
28.8037628733897542	20.9229325450546781	34.2211591070232330
27.0005163937794279	19.6399771730042829	33.3905434402487913
23.5455157677599907	13.6396796440542616	41.3986739143494447
21.8055981924624405	16.1036793692968203	40.8996998179789770
24.5763733821748147	13.1974452097021295	36.9160782088333832
22.9937894398040648	17.0006463822482807	37.0135139034175680
25.5585696918226617	11.7898166324744977	38.4358522759348986
30.4335683092149587	24.5179385334461983	31.4025259938720396
38.0220666950263535	23.4559376376046735	32.6887666440563507
36.8327997780035687	25.4596170854427477	35.8087815513155121
21.7061154048441765	8.8737452929971585	42.0580158023462403
22.8536701257122417	7.9497251734303056	37.6593317052420105
24.0468787497841134	9.5460451321921695	37.2430537458402355
34.0044546309637212	20.2677359032664413	32.2577134970771908
32.2726230596153911	19.2570891330725651	33.6535679905147518
28.4276145874673318	13.0929184416143869	38.0314782330109651
28.5056470640280892	17.1958089816881774	39.1747766542088272
29.1837017356674409	16.7527451473311473	37.4739255906020574
25.2452408572271239	15.8222527033896920	38.4322224813342004
26.5698120240550324	15.2500014769568253	36.6748978608667215
26.5988820489572575	17.6155361854209502	40.2529303071434867
30.1417437089554454	17.7575564932163346	42.8563891857326951
24.7591045256262952	16.7066940874515844	40.3744897498284914
25.0543566799382091	16.5935235188451209	36.6240971115178482
31.9757769410912758	16.9614266326983909	33.5771726387955098
28.9827644057895277	13.1941864364550092	32.0933513924273299
27.1829143898675838	16.8973426160964664	35.9557845099241220
24.8442190748221137	17.6342226674795910	34.9557664637775716
27.8207892505270493	15.8371652561217182	34.5999212358296262
24.7878569987478343	15.4743801255240854	34.8008898151292456
30.5414075263584586	17.9183604314321663	34.0985779008921739
28.0412713000852776	14.6815135135677028	30.6864931072509464
29.2384712345226028	13.7659757065590007	34.2967745358021432
27.7120328733591315	12.9234177720285714	33.7575792940197132
35.6850928261105267	21.5573843848682074	34.7456591053468884
31.9156407215282094	23.6561773181105046	30.7114557090822551
33.7434623809773129	22.4820034087874063	31.8964093323239801
35.4708877371299849	14.8753625200877657	32.5587151512813904
31.9519737973977840	14.7235154519414682	30.7357978955706059
28.4415170082867661	7.6114418110283877	38.8789757464651444
11.3988414541573597	13.7785337359277396	40.1153949103601093
17.3072818267094064	14.9040904625938762	39.9384501594150194
14.5205374149953936	14.9686745621165969	40.2172192414667578
13.3893582407368701	11.6240568215865654	41.2914796477694992
14.8845193254894639	17.2762928017477932	39.4685457620151681
16.3647831088494549	15.9999129325555671	38.4097622037771629
36.2049375635481496	13.8627243644064446	33.8921453990295234
36.2151181260138699	12.4201155933959217	35.5263751314479066
33.2644624353962683	11.4591909461629342	31.2083560534688580
35.0129765624802189	17.3087655877688249	35.4395701115866046
32.8532444071930030	15.4739966206813762	32.3989272003773721
33.8163554716486559	16.3641075315530067	34.1722085829828330
32.8664271909070109	14.7610888569676622	35.4376140733434113
35.8259791092742148	17.5415821586735383	33.6080573147880699
33.9276221633356343	11.9726721117176549	32.7744308623898348
36.8641182216375753	15.2791526436829805	36.6690827923713201
17.4547425078055944	14.8301564443491447	42.2451420328113940
14.3317744137233962	13.7964956518555208	38.3260936931772775
16.0552960970862806	16.6148829444743740	42.4185510049520857
15.3966247797224938	14.9353344347710379	42.1551043043931983
18.7131575823702292	13.9476035037873913	41.0850999607820739
13.1958578113041263	16.6747904057092917	39.4309962136051197
14.1758719329414813	16.5937926980797634	41.3689998630986224
17.5271383557106120	14.8756379276671531	37.5798021830811351
27.8718150213097040	9.4822092201325159	38.3447583410072355
29.3470394983676748	8.9719634596914037	41.7171374775068031
22.0272750079859954	20.6627759565337357	34.7323223666682281
20.0724026046463457	20.8025381244649310	33.6443528171915176
29.0502570349441775	22.7060570371853814	33.3227166097099854
22.1018027921666729	14.4341679773348250	39.9366872242500150
20.0793947996823441	15.6938971849195124	40.7041463733705129
22.0565966479935938	16.2335089929011147	38.8498365269820312
23.7796396061993960	15.1044202365172158	39.7513713244414646
26.4747371736496717	10.3865023548096858	39.1967374568815501
25.0511017848205562	7.9893297125602896	37.6581357084199055
28.0920394520111785	11.4267337649700433	39.4930396970942184
27.9593545913749182	9.2532856976537445	0.1426180012407425
26.1330746117708053	9.8471836622476161	37.4595347865067225
30.2456291522618095	6.3725256685432408	38.4992208535213223
24.9207216529337927	22.3267664854224854	36.1962894722509887
26.3569249829765724	23.8280445716588751	35.3551684857141382
26.7794147841917720	22.6044179944138826	38.1112911707183883
25.2324975079552125	22.7728852290183994	34.2928107979232024
16.3580455829662768	23.4297465149616642	38.4536644660025857
28.8389019259898660	20.8348697569017105	32.1244841674583199
28.6971886799702531	22.8278107503097125	35.2808503617102289
23.1020130717952838	19.2121426988049429	35.6425145833272623
26.1574249796004850	19.4651787748901626	31.7960229329832060
24.5025378244628058	11.8754581706533848	41.2363387300640767
30.6221365415707716	11.7142384268968733	36.8585917776486909
28.5313294489182674	11.0320845509959380	41.8144722682187648
26.5089628839754141	8.2014911553327732	38.9934979377313553
28.2047433493099824	9.7854040535307245	40.3695449050211295
32.4721523788491311	13.3339819172913785	32.9509042792158340
31.1743805160725209	13.1627866760217920	35.3810216319369530
33.9713080691951106	13.7652000914809207	31.7505098503512286
35.9493106153993409	13.3319366763712566	31.5998591991144764
36.4437469834512200	15.8619405881342939	34.4983953442562026
23.6396157278634007	4.8362039893477338	36.7935847999500822
39.9597135234865419	24.2437034905414208	32.6807976099662483
38.8010336597193088	25.6013811973075569	32.4685027289638555
19.5023415107577982	27.3533875784036482	42.0225400719909530
24.8359086140454934	23.9276674686462627	42.1089462978594185
21.7830146682615720	26.1181181600518961	38.8798627263255057
23.2278675633856189	30.1857237590855618	37.5260561812249449
20.4767757453182497	26.1491446845929971	42.9526203526111203
23.7817593197472306	30.3961991108206995	42.2790183212322646
18.6982112802331137	25.1155628357619989	39.9372714421379200
20.8914289850997115	28.8731710638196333	41.6079811376871618
23.4669196148707400	25.4469138511850907	37.6263334664817748
21.0959940898139173	27.0281788152657789	40.8822447884567453
21.9721053166216826	25.8541915235892290	36.6754199281761899
42.6830471318681930	29.2253257658433547	34.1494713975783739
40.8447694703129471	30.0352227092828556	32.9785175094646519
40.9639478371404238	29.5982029361663379	34.8759360603462198
25.6195486684225138	2.8478547382083081	34.9705504752563243
29.0319752647407334	0.5780978008555234	31.7128460442815232
29.3644768340773048	1.0775836689531633	29.8342424386965632
28.4662072719381847	0.6658795925731733	33.6832546224380351
26.4300357715942198	6.2385059711421453	33.9398337131620735
24.8798052341325331	0.8136888528678403	33.3314250451766938
27.0908953898916067	4.6158506298265802	34.7997523076454556
28.9082172376707049	4.6174644331761483	30.9838440461757649
27.8556772046632446	6.5227970714656722	35.5182452177116943
30.6689376280764101	2.6776821205496777	36.8430342818296523
30.8645390802664821	5.4999235436282472	33.7878170846033683
38.6626825091985040	28.9375266047446935	34.6712793044161884
42.3835070056388332	26.6830855397733515	34.6561778933756273
38.8548725354827269	31.9097557067489639	37.0018908937876532
22.5171303678278498	1.0778903559822726	37.0041624310813191
26.9756000801939742	24.8469840365851589	37.2343607404941110
28.8950934738514995	26.8072589207808605	39.4176550019835190
27.0196101543539697	25.8184094467484897	39.0612752507202643
29.8889953027768698	28.5986764925021966	40.4486367493761776
18.6560027359971947	28.8032414579745861	41.3279210824394099
18.5034469506529113	27.0018791543305205	39.0270189197897253
17.8453806551186993	26.6408834578950930	40.9787567348201875
19.7879255583884230	2.8148827522957816	34.5758653689987696
20.3837029890528427	4.9974690922033824	34.1102648644055719
18.6005228261589046	4.7190336452140027	34.6407862676021168
18.6070740146511753	1.8557651692318431	33.0268847091511546
24.0127096968691269	2.6917754057235759	33.3145212987868575
20.4224225890655227	4.0759945576203691	35.6990167948916763
20.1819726984913501	41.3293476453751509	35.6040864586688457
19.1324346806509347	1.5021218554329305	29.6011344489860200
42.4939783852239401	27.0999961864642636	32.5669044500262430
20.5403571080795508	1.3455401596189296	33.3818746120821501
23.1296027717431727	29.4086110445646902	40.3957768580362782
21.8632094401294168	28.1040747008542908	39.6474477409036155
37.4826458812597778	26.8983318579346999	34.3369587099897871
42.1112637663362008	28.2917277255772532	35.8340203487096360
42.7042647629294763	30.5158370603987166	35.5603823870132487
40.9116110321031812	25.9968171696225383	33.3549605524313009
38.2677734503821796	29.9884691646724377	36.4869930493139236
40.7759146379611721	5.9714664454097210	41.3890236039897488
24.5361295320790234	5.6122594155071264	34.9380774148497792
24.9287411393208558	1.5167160242318090	31.6341383473769113
20.8236739983304489	2.4486524970418500	30.4848169527628485
22.2799788509369883	4.2562455131744743	32.9663235909314309
23.8736296976124969	3.0962416420320560	35.3250220414809704
36.5120662483497540	0.9338845439878586	31.5996234539300147
33.1415305891848462	4.6172337456549473	31.1910698089580514
33.6733212975857938	1.9779348048303822	34.2617357471451172
31.6842695172036457	0.3209789257286937	31.2759660704654721
34.2893013474905075	2.6987871497678428	30.7212689828190157
32.7213386306730669	1.7320728194558319	31.7244068161970425
6.5959242168374885	27.7163709158870759	36.7206084216147559
9.4842540460847271	29.0292891529776362	41.4700960967846370
7.1853414665186195	26.9925191377572418	39.1931005054225921
9.7384806389539378	31.1033798262498031	37.6176515114024355
7.9220464217753106	30.9778135953169631	37.8140289602619788
35.1777775131539414	2.6462671103908622	33.5142833171033132
35.8627543540616003	3.7280424452347560	35.7319899485541299
34.4540281711436194	4.2380968318135892	34.3637110468350286
31.5075241615901369	4.4304421064599318	32.4942289683273771
33.5021510056212790	42.8946007600598236	32.1573034373994631
35.2084183043577923	5.0428143013997779	32.6253290172581742
30.9113278877327637	2.0899030969994272	30.4978421460307842
35.9177079816918479	2.1493710568019013	37.4981375637856189
35.1382624977172711	0.5699832960573860	33.2129542905430668
34.5926396298621484	28.6741674359640442	34.1321620548990268
31.5534430909754384	27.0167222413107453	35.4430545461779900
34.3545686938973631	31.9964679856393666	34.2447443477936773
36.9518360388379179	28.5495695379513208	35.6840513980008396
34.1296287290480507	24.3011890320932586	30.3911971246478068
34.9335586618898049	28.6845769275586413	32.1051285295466045
36.8419924943325512	28.1635810910044384	33.1849830064983919
33.9401681216891973	30.3192151133413930	32.8618825489260118
34.2091522486178050	29.8949414424939732	30.6894056617948436
30.9273972741117831	25.3953352686900367	34.6718083739951624
39.9075557366939790	3.3821173443608941	30.3746163226518213
30.0251218388618071	3.4172838330108775	41.2590957627089168
29.2698553629771645	4.2016925456133407	37.6220960365201051
26.7916144279193418	1.2625190846626371	32.3554111331487988
24.9322705038795966	6.2563671551068589	32.9185060802856171
28.2977644899917138	2.4745661773136862	31.2056410051749218
11.8194345288805724	26.2429346285352736	42.1399670209240824
15.3158313076532391	24.9549795607024549	38.6918374846516073
12.3182351941724626	27.8857473080896554	38.8963769143014133
17.1687843477036424	27.9858052268579378	42.0028810916730464
13.5486894768410480	26.5382081191231975	38.7928092103175075
16.9617788096526745	30.1171183575801820	37.7407127752768758
15.2148907709576093	29.7595091055541268	42.3150458416574864
25.0376696585901861	4.2019307559231427	38.7677277524733981
15.1590824337753105	30.9201990125250887	37.2470449442643314
27.1641613572347751	4.3413203154354818	38.6328561416771947
26.1772674130062732	6.2570857752955273	41.6813555441127406
27.8850217846045432	27.8782655319307224	36.1756516077954373
6.3446949987090830	25.2164366065061145	41.8739285234319922
8.0051022006963386	27.8078267890829345	42.0881580228029080
7.7272937145547260	28.8018770655949083	38.0772696164303142
6.5264447927107883	30.2798957824720638	40.8493699326973569
9.6763574806947137	25.3034531810156800	38.0833235242359578
11.1440225485498665	29.4631965666156290	39.9873732904855501
27.1079943786502788	6.3471811594000647	39.8194271974249716
31.2521191559452376	1.9144912249161039	41.9952503100532297
25.9568471213007790	2.6742639824577679	39.4250609359707482
30.2271230384908449	5.3038291047612978	41.6149028790822584
28.5312454989984907	5.5668729861304289	38.6101649852994555
30.7010351490518900	1.0275286915893302	39.4344614155479150
26.0924937632180516	2.8989191456093617	41.4621958965769934
33.4831019979712892	3.7600538348588963	32.8757704857909800
3.8162385673474950	6.3819397597365155	32.8122629254657454
0.7851590829912746	3.5724070487210788	32.0775320037897913
2.9179863541380806	42.8378034083994237	37.2086516623095349
5.6547125073266749	5.7244923940925538	32.4106703505666971
0.9723562448991675	3.2996085767673899	34.4595932450807254
0.9348681848340293	2.0797963745575054	33.1292832941709960
1.6499958444929308	6.8095519142011405	33.7765417949664126
4.8670758395733076	7.6731033165353990	31.9261634761384698
4.4510862755607530	42.6811024013024394	35.8957346316702299
42.4860336929932316	27.1203672361607282	37.7216470500216090
36.3716651949156287	27.6414873082628567	39.5025799208866175
0.0060002685674334	29.1626505605767896	40.0332297471530225
41.2824304218884208	26.5517554268555145	36.3871124796892289
5.3881867439719251	3.7018914835191006	31.9486874680841773
4.7737628974816353	4.2157473439423550	37.5607127945819457
0.6335516261922806	3.0533442390853023	36.4782854367544118
4.3647695327277569	3.2157230579398588	35.6409289468919326
20.5189209624176669	1.2862484671931773	0.5147117774493342
20.3430861325187848	0.9210780955302739	37.9485294635432169
33.8112526664555588	30.4745794390163525	40.3433764871099569
37.2399842296836923	26.9711342830606640	1.1657677897411178
37.4427236515180653	29.4451490292193903	40.1993687329838565
32.9582776710354182	26.1894056250718492	40.0329496476237168
31.7340268221031963	27.1647465301102820	39.1320560194468285
20.5852417280866646	2.0908592801610566	36.5393555825804057
18.2858633416721794	7.3042002491905178	38.3137242160183362
20.6420097669562246	3.3165039082344796	42.4550260277328633
23.2557165743588214	4.2718691345446729	38.6239656903528967
9.7037152176799832	2.4124285431825281	35.5772189902010254
11.0277801546916905	3.5131619864397092	36.1096032537378520
8.8503120139393445	3.5442005673561154	33.7574899435268136
41.1804715169065645	28.5577337283858128	41.0813762478126776
37.9829707353109498	42.6453312316830662	24.7002847359812030
0.8675731146260743	36.4819563461237806	41.8824020272676663
2.4460239728102851	34.5652242293506546	36.0599013492534084
3.4436568211577421	37.1007947591655736	39.3078204946449503
1.7775762573448946	36.3110820220585921	39.8634911862756738
0.0553999270802521	34.9452809596663627	39.2478548886231522
13.6890342502287687	1.2274681592200234	37.6706033278107952
14.2467276733583397	6.8785695291730722	37.3980846662999795
17.1879514472995076	5.7117000824787567	39.0574187784338562
10.7817255934881224	33.8503510993902381	35.2559145397298934
8.8279104515673747	33.8989757204653657	34.2171945252506688
6.7627532612726000	31.4551413368165633	32.5882161884347994
7.9813819478066472	34.7468021959094600	32.8382878808096805
12.2576870225782049	32.7322808357669643	34.0889326429669097
12.5247860593351934	31.7043874271680188	30.2869746386121932
12.4542868788592553	2.3171929375911073	30.6821310191574774
39.7346442416448227	29.5339339917819466	39.8675703397363606
40.4239097976128789	24.7808910519636925	37.0034698209852237
39.2457772365331934	26.0027603673008301	36.3168395083420918
42.3421599649741509	27.2472142087594484	39.8932743391988893
41.4316656370289280	28.5921389471395564	39.0197935925983046
41.7310095167524935	26.6117938358561297	41.7330560245504785
36.7126475632198463	25.9098895003068215	39.0575502389993616
8.1296289883324864	30.4199269834585984	33.9628353131314213
9.9194397752734691	30.7113735673817487	34.0511640814089986
8.3716901906475432	32.2828431235416602	36.3749509456521523
2.3141918190103508	2.6537645045197236	35.7543149371863365
6.1568866437884244	4.9042967867019405	30.6940276659261748
0.2655341971817108	4.5354599204374111	30.5259282007875861
7.5406133367931298	1.8417445814186488	33.3739976177435409
17.0383119926820328	0.6268065870510058	37.4235762610535829
0.7570559945415305	35.2567678380222418	34.9821528425454105
2.8115318641855689	34.7783575140966903	32.3982386328158185
1.3961168502859900	33.6996176782266161	33.8697143703170056
28.7047679691018480	26.1024240503414049	42.3457062778361646
27.1548372113327545	27.2362899096421209	37.9276325852288068
25.2556852433215546	25.3801892442073438	40.3797674974643428
27.6775882035990684	28.1103506092731301	42.5673239759763575
28.6963344460110577	25.8771833084769405	37.7687832006991187
29.5890599075414720	27.6718251018523276	37.1714902537378791
28.4502041545272633	29.7006474671452381	41.3813293373804783
28.9506326731516346	31.1330934539278203	36.7946100118921748
15.7321766190117511	1.7901524027881752	32.0906502602010661
18.8856877016514879	6.6523596862593193	33.8679553687594961
17.2445865019201641	0.3799416875524869	31.8789907313738325
14.2108260454419693	2.7284938851090028	32.1419065970216948
0.7137518645686114	35.2471206777428421	33.1229052762747358
3.3521230435170626	37.0435711408532384	32.7777183227013538
4.9724115512708078	32.2644615956511984	34.1563182310763906
16.4450317638070267	4.9113460160702171	35.3600449296958033
16.0693605894916161	3.9815040367981309	32.2578889078399911
13.7403731785611853	0.7010344607360077	31.9032190972283267
15.7088545426731088	0.2896375376182142	33.4051933124046272
12.9296019134621218	3.8556558319274248	35.9158314756716877
17.1356975491028649	5.4718555622793215	33.5891285994486282
11.6886075252929515	42.7474774953523351	31.3289205355291713
28.9623739427574627	29.3112126512736388	37.6858645278798647
25.4701062256070863	25.7425073236039559	38.1682499810896658
24.3122049217031062	28.2941240122188304	36.6282997120270721
25.9280521255879712	26.7471648565597313	36.5276815293194659
30.8206360587169641	28.9834156369891112	38.5921978305831885
2.2740537388538478	35.6586234615645452	34.0125674911306390
8.7473263243080606	2.2358279820691069	37.2191897585287848
7.7094097907700876	6.1674242140222759	31.6388114020887343
33.0319929402636916	24.8051291181792841	42.0814521291441821
32.6427945461646445	28.5678978442518314	39.8821782260314706
35.0721540856738301	25.8705818721959844	40.1806153654855365
24.4731608719879183	1.8160449317485403	41.9465717524755988
22.9750142826686385	1.3073051871126746	40.7280976890989947
21.6395517378348217	5.7053628667316740	40.9471484128572882
24.5358405041944927	42.9488723856343455	36.8608102931145183
24.2354954678330010	3.2554788032514579	40.5137377108455965
24.2782340283942375	5.0460629425367181	41.8132199510944318
24.5570306428493090	3.2849494415002831	37.0202950308596712
20.9238293523632599	0.0194944170798105	36.4720177366382430
18.5837694116836474	1.5456673464727171	37.2731142975830494
35.7088534469200809	26.6682121776016814	34.2127121842710977
0.7622349683823150	33.5492091410380837	35.8422348456514115
6.5817485309252826	33.7397058117062087	33.9983657465600473
4.2353168467444142	35.5527699825031362	33.3343738054727297
8.7633886746912317	1.0724025012302709	34.7864999087931892
7.8077145856428984	2.4697396547622703	35.5761196715244523
9.0466156938851157	4.1045534321259982	36.4682339036431955
11.0192282858802315	1.2519484992452325	35.2473246660878772
7.4259026812840201	3.4808740386571433	32.0110118977843001
8.8723699808096050	5.0380740118166614	32.7455245062205620
0.9831115267955532	31.8972973921598104	34.5344015092620182
4.6195542776189464	33.4536160946564394	32.7448363918013783
2.3280878059956809	34.6032081254101769	30.0971028308421289
2.8948663297163599	32.3961631792440343	33.4128135404688749
6.2479415219814003	31.7813746735144527	36.9396485351032169
6.1321227376038214	9.8778162804140024	37.7797104910853747
31.1697020041270392	23.2576603527747530	39.9400373658543941
34.3221686322478803	20.5927668246764490	41.0881838322197765
23.5734368027524681	27.9985537584721484	33.8815032252263109
19.2713306722715956	29.0646396525244093	33.6695947816175334
20.0133506843632887	30.5132047949070753	34.7948385015553612
23.3889192372231314	30.4408979186670159	30.7462368995841864
36.6200376676661250	22.2155887135856709	39.7304804224814703
33.0583575720039562	18.3972662279385801	40.8730810950231813
2.2793508377577583	7.8135345651285197	38.5355457031278519
1.5403665086391616	11.6805568268748399	40.1365126452169321
2.7576695398701174	8.7007559292304126	41.3762863288542206
3.1446342810830736	9.3029599588419245	37.1391907135447426
2.5669908151728329	12.1776065097495678	42.0001564430160244
4.3811257947471063	9.4525446481808046	41.6978226787916242
4.9616889866147291	11.8328605778747118	38.3020136624917029
30.7717433078405875	21.3637532010979143	40.0867235276568650
3.3176120554654696	11.6678375312687237	39.8915113631595730
4.2144012877812811	5.0550767709923008	42.6251005566183494
30.8576469134478586	22.4696536719858955	38.0488247728408808
26.1591892782158979	24.1196550138303429	39.0386036012350885
22.3635671214097442	8.7069114761384725	33.0319264407723239
20.9864555690638639	7.2666738234768911	33.7432048628202139
22.8474730483292561	7.0362897194619070	32.4424579318643751
22.6356614371979497	10.6630052135789750	32.7131098358372299
19.3134516150710276	7.8055673509181815	30.7675819467509761
24.2245014137456600	10.3093082869936783	31.2432737583392530
21.5061229209860798	10.1478858339330618	34.3679079608468285
20.6435482395965941	9.8629275394890215	36.0988005244887731
21.2916144152908906	6.1945840236211476	35.4952728104573438
22.9364077361850924	9.0388903462479302	31.1996989390834543
13.9206995502801441	10.4243570506738372	32.6108939342677431
39.9568452215274519	2.8897950829686199	0.1090303619926937
39.9838427587054497	2.3097758918435849	38.5566456727882212
41.8588782290678836	6.4918643987705833	37.3808673959740361
41.5997243582549387	4.4419917575897072	40.9269173218284976
16.8889436444070888	7.4373377890863113	34.0096118805149885
36.1857912871583167	0.9881286488367467	39.2489934464971668
42.9395332737974158	0.6714497082276976	41.6322591250115934
41.8186335205700956	1.0569259931081576	38.0294068281161515
30.7522704062866268	25.4548631203711118	39.6563526611660819
33.0745537937514982	17.1164361984196027	42.2294018967969507
32.9155444010593214	21.9400256020969735	37.5753261481632563
35.9080160911779345	24.0513520239544185	39.1545935815654147
15.8249605068688552	7.1262218128439754	32.2539421679913545
17.4036483811152465	8.8894015924983325	30.5235888404098361
12.6552607199721159	6.3635228254279204	36.5904726276070988
22.9224594108974138	9.2421528331488414	35.8285876824457645
18.1627782568224845	11.9948820370074341	33.7899085660092027
14.2678820156744184	6.0510701001923612	31.1950425325848286
14.8504154360329483	5.5110920936767567	36.0210511187237756
13.4231034148077697	8.5571820207869944	36.8224636965521483
17.0399162767541412	5.5391064582332579	31.5607348150110205
17.4764476753453941	7.5780613483583492	36.1634707962272017
15.4131106008303664	8.8441075143577041	33.4259209247997404
33.9155706847344831	19.0509844799070009	42.4516979242646570
34.8357668145554555	22.0912872936861788	1.2174750948045594
31.3430980723223236	23.1549512310774261	41.9298040573811406
30.5672697817509942	19.6136378933855227	41.5512772509901893
32.9765247912607578	22.4998903673246566	40.8116427653044624
35.1539834319310316	22.1744959014039758	38.2740419116101549
34.2900752663260633	23.1708216931129023	42.0566207688081306
17.7189786052352325	28.9919657558148067	32.6090946385876492
24.3022633540944604	18.4688929961569173	36.7870441876406176
20.0816824716253102	21.7355190060101755	40.9211586878644127
21.8743761825148333	21.8346615542851481	40.0232365123306977
20.2839136497942967	22.0510283313908886	39.0857881194588970
20.8924119979610978	20.0094785072774179	40.0015395617864300
19.6468041633644077	23.7584941750176810	38.2164678055277349
23.3806914967107247	22.4711065504607568	41.5931863241592978
26.0822576670593094	11.1627919012364334	31.2281509028226267
29.8562905299743271	10.0012465970922584	33.4652459396261719
26.9005087885386374	10.7664145625911782	35.5991364651876410
26.6298979091451322	11.1238972406211758	33.3242292752390199
3.5770420282833553	8.0734436097342286	39.9214912374733757
5.1375734618851023	8.5846273811608427	36.7876318150492025
1.8871343404446410	9.6370296457794229	39.7665357939275879
19.5172674976696285	29.3741739390289993	31.5068998951088375
21.6493621220012429	20.5541633623057756	36.7378460708060715
16.2021247240775743	26.0142143691120502	31.2002880671490850
16.3897007448948884	30.1298549131404876	32.1942179601061227
5.1176624197062610	5.1131947358226508	39.4679148152828958
6.9996854187656572	8.9736639351563809	39.6177087459340811
30.1610397264982666	8.4481721466875364	32.2702080546347361
26.3414689156673170	9.4393641359052101	31.9390831760326748
24.3579877134176250	8.1073776625244705	32.2090982642776638
25.2931408858252027	9.3553025422755596	35.8998752380981259
26.3188884251566755	7.6301061911140131	32.1865196060772263
28.3319528158183189	8.3807354566188419	32.0092438775156793
26.1935521317383930	12.8733805673209609	32.3462209610469600
27.3142096765032534	11.5630718750163428	37.5260804265675674
28.8704080008265791	8.1187104123944884	36.9452867236362152
18.3510250529180858	22.3224344932482843	38.4167954058137084
14.4947742932401660	23.8264791433695606	33.8911825080133013
20.1089392682120618	7.9419735360889616	35.1785916791330564
27.3211301062626681	20.9556089257242348	41.8777261897935702
27.7394299165545029	18.1869942213269020	37.2800266721374669
31.1424634667818694	21.1915050222130681	42.2605519509015153
27.0343901026996569	22.3161852322240790	39.9815129995598113
27.9348509934686291	23.9210129191438696	38.8079727061823974
28.9134097568582256	23.1577328328467829	37.3253866631370741
24.9992563889517392	18.7943656801980730	39.8337717574237402
25.9194359173149849	20.7944995518717306	39.0803062791167761
23.5482972491871045	20.6267648064465305	36.9890711400188934
29.3167293629464467	19.5102956933164648	36.6325758490996591
22.0849751010098139	11.0904728498502116	35.9428523653371244
18.0899635921079209	25.9024945100094115	35.7331976381746586
15.7379547086341471	28.0585840731561511	32.0510981299310203
14.4548560419557752	26.7843444035373324	31.6360315887677501
38.0078832339890553	1.7070061059961374	39.2645346779434021
17.9679659939127880	29.2588785514639582	35.1580928754170117
16.4413713727836388	26.2011590875846849	34.4190945928739467
16.5148448379268729	27.9913416492737603	35.8324096774102117
17.8658665665567753	25.3360503850326282	33.6558028678730494
18.8140294971018953	27.1161510656383840	36.8584372174269745
23.2529002127072459	17.0393717919729895	41.9059867104416597
24.8984152211885963	23.8926213495365154	37.5064152181779704
19.9681567385387133	21.0714386088322492	42.8371296363865923
22.0856207450783195	22.1481074420247168	37.8824216630595458
3.4454632883061223	6.0971522257762940	39.2306896574956312
23.1206689903575366	22.9994730511217931	36.4773318421068993
20.9898893021323936	23.4990647419420497	36.6604512145731931
21.7492855153055196	21.9763254950602196	42.1381825020723753
21.6849510002076400	17.8446110882716731	40.3894620694169930
26.5877185755213148	26.9835746970109653	32.5532720762730108
3.7102720108495428	31.0858024081815927	42.3883629108324840
3.8859668807394758	27.4434236797931312	40.0811241501504441
4.6839106514668707	26.3624812276254872	38.8856824678739272
2.9095545648077672	26.9771428869448826	42.4818535921748293
4.9122675307518637	28.6574936959634599	39.1704207877272808
31.5064284841959079	3.2518655114637487	39.5498584910765913
35.9133844022954563	2.0416062082414967	0.5570897005724548
32.4533002065381524	42.7837803752336256	38.1218494584142888
32.0049350405950719	0.0282724171974739	41.0766383201464151
31.9125334527361915	5.3249680950261249	38.8882676224582369
32.3524631286357831	1.8461435070462542	40.3045219141121223
35.6854876743247260	5.5384295180501315	42.5921434163231538
32.1872929051032344	3.6350364340982182	41.3640660614986473
29.1396605816417775	24.8983101702861909	34.1245615351131235
28.3431842448333526	24.6048565063648397	36.0576033146445241
4.2785787103989454	25.6678838689270279	41.0777218993922517
29.4785112047561242	27.4727727167102032	34.6687010032309928
5.6620433373791572	29.6726747438765166	42.7945630586533241
5.1201423318088191	29.1284899049663544	37.0712094820932734
0.9766811365425213	25.5232364803734804	42.2821946242089552
30.2259930660897460	23.9957320284609139	36.3781571455852983
27.2803103787188661	28.9243055014529595	31.8659911891195300
29.7449503909679258	25.9636379112618698	35.9567698855101057
26.7425695593848474	28.1819437668747881	33.9024518146741656
33.8892411468927648	4.9087632298046913	38.4028149074913827
32.2016500488126383	1.8722895592422450	38.3950372926793975
30.1203981082415666	4.6565813006501733	39.5372138940553342
33.9803155130939984	4.2818918439789027	42.4786703125038017
33.8645749291749780	1.1476567645177131	38.9025334327549288
33.5230463031706023	3.1369628656546205	39.6025396542058701
2.9899342178121509	24.9786144519501931	42.2287751611779356
33.2314422371281850	29.0380982892896782	35.7644894238613702
33.0243165343423186	30.9228577726302767	34.8231768591949375
36.7803200808492790	26.9735343523818365	37.3200807306085522
34.3884023016722722	27.6514710969468460	35.6321981594973636
36.8196395575163393	31.4516611244910287	37.0694142899789369
36.1230133421236772	30.0545761951243939	32.6723636672917053
39.4601300403136150	5.7136689952540314	35.3388711048638697
36.7717177531250314	3.4205080425878998	32.4931988387591346
36.4093057936718765	4.4493893538419709	34.0847871524084027
40.1540176004911018	3.1388160019842566	35.0177870870306123
38.4765267434172458	3.3224330587967605	31.9362137121428695
39.9719500619243746	4.5473252069657883	32.1685695619426895
37.4238031122687218	5.0090160623312237	35.5793850109236232
32.1216715087854752	4.9066639876742730	42.9473253059939779
4.3377972432504883	28.5196424489002389	41.5995601056559039
39.2905288016104706	22.7874262786308144	37.2030884238049637
0.1720400524332723	5.4627731391181698	32.6204892968146254
0.6830244003512009	1.3942340753640168	35.3704526444341667
39.2436221248369463	1.8265195084741446	33.7109761138324089
40.5710566225326303	0.6436550520579762	33.2425744336225932
40.8619001315862036	5.0926857416638702	34.1318995591165049
41.8955754967835858	3.6236479579747507	35.5339027745336509
40.4314053953558528	2.6087992524883470	32.1390751663472187
41.3918011634077985	2.6646822827809089	36.9899232806275862
40.8465350136686425	42.6710259103887850	29.8431861512069396
41.8480315489759676	4.0335418635015579	31.7263120375745906
38.1962019721324495	3.4627950767455373	34.0822763268702005
6.1185273676666503	25.6147489984689614	40.1309944299135850
2.9429345083256058	29.1437946912226522	42.8039326013911960
1.7874092821257386	30.2699794566128162	41.8244850489978504
35.4330179981232263	20.5790582161709068	42.8164507106630410
10.4278706608849419	6.7618068714550743	36.3256685492691958
11.5807329397311172	9.4295502403106930	37.4197240332331020
10.8748455794681433	8.8049261156898631	31.6699838496238932
7.4448715408754813	10.8292508281781803	29.8212724127294067
10.6001989765925000	11.8941621009363470	34.4207802426481635
11.3019048136523494	5.3294658012997163	35.3716277538641677
5.1631468858977758	10.7469526181158290	34.2494383140683354
41.9910411531233478	5.3545895400363506	39.3984024808711055
38.1443881936097782	0.4921612424068900	0.0462771016774746
37.8870877353052933	5.5132856031675157	41.5881837108090977
21.6916317915206776	29.7512366348245827	31.5428095732187472
19.9784483137830122	25.2707686338129989	36.7653759794824850
31.1726485730033183	20.8693296197889389	36.9359708689156392
34.1051051994461076	24.3292906582690200	40.2975141966605293
37.1316459158446008	22.8616772557231727	41.7861184552414429
9.9963591983308131	7.1027012635891005	34.4656570047562454
34.5292003090433752	20.7439484479520040	37.3082394209990866
25.1658447225440476	25.0168042904848882	34.2877776132289185
24.0316946533161335	28.9968896479578859	31.9554398490577576
24.1195238048537135	26.2564127682888540	35.8710128282100840
18.0288421743947431	27.3595348529861226	34.6507680346909765
38.6180989470791260	3.6538663681352013	39.7278530717000393
6.0601806037806423	9.3021874349358207	35.3958213415075988
12.4902359382086328	12.0184831412091082	31.8266087373354338
10.7399528679799747	10.6401818742131411	32.6417928990796824
9.7293931465297696	8.7817678330532445	33.2445300469670357
9.6802610913633256	7.0159784624953936	32.2320353795703838
9.2916105577304169	5.4016996666420987	34.8453777912950713
8.5268188112692123	7.1567205116252115	35.9096244189035119
42.5418086370854240	42.7570349530401330	36.6601978403951065
37.1197542104789946	24.7791480322894273	37.4833536540581846
36.4731041328449450	20.6022652108069266	38.4771766682534846
40.7079109226838796	20.1087260952324556	40.7295835297011024
42.3449555272940756	21.4111649537919888	37.2134477298638302
30.1438326111109944	26.4991203540047060	33.0181525712098320
28.2980733427320601	29.1334572156154650	34.6259255635529328
29.0311604734201438	28.5091549005206311	32.9302656283067208
4.8667454516059614	10.4877832935865083	36.6436611176823135
0.3270051953266504	7.6432972809518542	35.2557696730620549
5.1569699326869589	11.7502951316239521	32.5995480963693112
3.9194880632182554	12.3932102715633636	33.9952175125935483
2.7446553366129725	12.8434448426182595	31.3544484946302688
4.3296079272553785	9.8453125371877199	32.2696845955676181
2.4307981488285915	9.4806389280168890	32.9588074295258835
42.9336348451053951	22.5209375410840842	39.0558999046221871
36.6254890156860284	38.0016376566193301	29.3054682246979716
36.6680240928535142	20.9557243274252052	41.4184254362087216
39.8456609499896288	21.4498583108992165	39.0416716455781554
37.3946525772570695	18.9199240942567890	41.5753856981210319
35.0655880052611977	16.8164725831707749	37.5804624598617423
41.9586977852657839	19.3239417776680540	37.1241356757240126
37.9774923767121848	22.0633088344455537	38.2430831187533187
42.9866668196018935	17.6226703256173209	37.6068928570898677
0.6163475099646870	10.8112872379656988	32.1291490699309179
4.8182106985202457	8.7984339605739450	33.7153863541844814
1.3309770195407487	8.9451003872957617	34.5065556056426033
2.6611484156077005	7.6120462404591924	32.1828576742431522
3.2603533739721113	10.3338475990442014	34.2939947903714142
6.4858685401395011	7.2579483370814533	35.7345748992299050
41.6346641142349085	19.2052405784943296	42.6394979077010134
11.0073195438110663	18.4157597231222354	8.7852508229575843
6.2904357777038227	22.0303179000165628	6.0501421424362256
8.5343818213958578	23.3988266405204044	12.0033011170022448
10.1766618989413065	20.0968063899293803	9.2253588929512809
10.0351730961794257	23.4438972700092627	6.8888925014990701
12.4485182819183464	22.0897062801808062	9.9989617742516685
10.8096398074807674	18.5897462458200806	10.7486148833706938
5.9730061998648853	20.0079386628446727	10.4441399663341095
9.7287112435148710	21.5933076541164866	6.3614280114802222
11.0177623074427338	23.4491531141453642	8.7607911161554703
8.0803209066553965	22.4049061721207501	6.8790036272212882
11.8208212869902649	23.7988634071930889	6.8642897463671426
8.2473387665457629	20.3131425443627478	8.7452786747208258
8.5302845331765926	25.4501946332556521	11.2296884336253004
11.7893120120396144	18.5261797995285171	14.0274903259970714
6.3909203544703397	19.1403039207623635	8.2660591061376252
5.3398569206654312	21.8524254393982353	9.3648794656730541
1.5397897992424894	20.4891048424454034	6.1176518465483882
1.5228957172809128	20.9958653389595753	8.1195825052390145
0.3839784025449893	22.3420993636862022	7.5203062168506563
5.4679475630507106	23.9104226186866065	9.5223781149654858
1.0042846528503908	23.2883195364219375	11.7359617614036758
0.1107325949184921	24.4627802014624365	10.6374780292942344
4.0613411756005924	20.4183332384605301	9.8925202239768772
2.2553217256013709	24.4903041524934686	10.5523263793183677
4.3463745338529094	22.5608203353352046	6.7330490182924532
13.1461485408418461	22.8142815358330893	8.3393813173329505
15.3658279502046007	25.5061733158348645	8.6131941202256570
14.8577577735257371	23.3328940539443508	9.2331321594322890
16.6227443010902576	19.2739151172100769	9.4857026967770217
14.0425827557780654	20.9409497602771388	9.5331846005160585
13.3907884456876314	21.0454569213723843	11.2865683019985461
12.7969970873348515	19.1438896473423803	6.0781999683038457
16.9137769054514955	22.2335948388907951	7.1205018914372964
16.5378525664553884	18.3986929164671835	6.6111026527656378
13.0292484152568626	23.2062048880844642	11.5865119314098344
13.4062707614772041	20.9261312498695418	7.0055708435606530
15.4930470435514902	20.6173139484177845	10.6442238837218959
14.7177913825495672	18.7908419581733668	9.6063046450728375
4.5192620651868776	24.5992627998747864	6.9723403505620256
15.0624041543084566	21.9961800661109663	7.7770388008518712
12.1170542579299632	20.5268318021938292	8.6905439692966873
17.3287481435652921	20.9100572767870609	10.8705175432030874
16.4257678559319196	23.7999030072255806	8.2844946311210741
7.9748528826145328	18.5679688940488745	7.4548529035031086
11.6129999027003450	21.9696077579471556	7.4789162869157897
8.1490156547671884	18.5187711890340019	13.0540317116917191
12.4832055671188868	19.3571732175933526	10.3909759519640552
11.0760643685574571	20.0832647565907259	7.1503983121951817
12.3587328946344268	24.1463256535635225	10.0564802440080143
8.9682112440705932	19.1747564357117106	10.5684315266293272
9.8410405261364620	21.8190084355980431	8.2076426189471565
34.2576866880529352	15.9940076085680278	10.9209411076419816
31.5127262002025503	17.5911420501581830	9.6091211159092236
31.4356292435417650	12.9600013343147289	6.2454286592013313
32.4629119035457236	17.0813675529824529	6.9929525908832746
32.1802994347695588	14.0143080457884341	8.0978375629582899
33.3229796569284957	17.0989007211481869	9.0142271209629943
34.7350328972059543	13.4069176227247553	8.1715247677174130
34.7124536120440368	14.4902261430012533	9.8914275765685087
36.2401384625210810	11.8090050141081804	10.9916813524398158
34.4935994238221042	14.2568496031526148	6.3729381938891292
29.0222899471072964	14.4009682998220114	10.2345244397719437
31.3215568200342851	15.9457744292034640	8.1321912085660326
35.9900819448416271	15.5204512252988636	11.5070032361233938
0.2881817518131095	16.9272946012991952	7.0582939227607131
32.7374193725064515	15.4910880734126923	9.5193749490701016
35.5964172210289576	16.4114377597990142	6.2266155102235166
33.9311963397870713	16.0256619229754094	7.1962827975768207
36.1022211694118198	18.5213160110712849	7.3389705407833352
34.4193969598406397	17.8803264090664520	7.3932431359644069
30.2092015362722286	16.5109475079630492	6.7397555315276074
24.8549338464919671	17.9233600679528351	5.9972658793966520
25.1263935280884922	15.6697483528962920	11.9465117365946423
28.6011777209967590	13.0904043041398381	11.4177407827829498
29.3321727015382727	14.9628179238857193	7.0304008258575701
27.9170931285913113	17.2944481304704318	11.2660608891766518
26.9973325132398685	13.8507606374091967	9.8909346710430199
39.0873108018858346	17.3681154777445386	6.9659264980807691
2.1699527219133143	19.4740775216443502	9.3149224546751022
5.9756710570867675	23.0362225168751173	7.7143407281316714
3.7342729030116439	22.0966878547157002	12.9791399249070096
3.2831823644047256	21.8861962606742644	8.5848181171784521
2.5697004516933442	21.9912237682609231	6.6084842484030677
1.1399880496097965	22.2387527898347308	9.4543899281790029
40.6843079040742310	14.5010121088597952	9.8469195607924203
41.7198843171430838	15.0609549359794386	12.4678382742843432
37.9400018876344873	14.9262986458843638	12.4617287488268786
39.5194276285347215	15.5134508369849833	11.6909249586064057
37.5990794525966052	15.7545216441256546	6.6395322742865428
41.5869794651769951	15.7839182028545117	7.0863599037857128
23.8633502647603741	21.2804141076416862	7.4687235356210335
37.7572684015268791	16.7194332364125486	12.0800029423248994
38.9562427143611103	19.5108437596439366	10.4522304976687170
42.0661037125122306	19.1030508003691111	10.1374755288497358
39.1404753051077918	13.9349139521428391	10.8174789942888072
41.4989322442615460	12.8862838491973619	9.6574508234291923
39.5544815312470632	13.1455062060403307	9.1549883221904906
42.0930821925652694	17.2275469075924157	8.6888330834817484
37.2470327231090153	18.9435783575589234	10.6702156265769013
41.2249363628752761	13.4742298481685321	11.7094810813360208
42.7949981047531836	14.3533973329573037	10.6366935718047273
39.3665218835939115	14.5784551316155504	7.5373486455647143
0.5255853791615726	18.2792879819001044	9.0865176047754730
4.0168121065066620	24.2589350535249366	12.4776655629788209
17.0294885632990649	30.5450516839770003	6.9218440349397339
17.8710568681882904	29.6063363890382938	12.2328483749186976
10.6272251238562738	30.8865945008176155	6.5812293701338440
6.3422074026572046	28.3525020176738813	6.9670721764538577
8.2090674920410773	27.6697381746977555	11.4724654636203471
10.0688371358525757	28.1877124550431049	12.5846504755833326
5.1369249481904617	26.1659275056490479	9.1852250540675424
10.7500578019010593	26.4113295226416795	12.0929926005850223
7.9364500017561630	28.8911038246393232	8.4615792423614558
4.1890821128756972	28.0960328383284015	9.0672580495102117
6.1742788450747383	28.3435429010393491	12.1589650910773077
1.1610836735745389	28.7644891210745008	7.0918925563529633
14.4208305107296724	27.6434598892091046	9.2078191819280040
5.6865303233238302	26.1006537245200718	6.0120376276640179
4.6541943016284621	27.2416236085253445	10.8466148119857380
2.7402932572262926	28.4363091137373374	8.0860394621465463
3.0903603187857374	30.2129279995422770	11.9836724556903409
2.5647420092618423	30.3105493254006788	6.8954752250222127
2.9131295688620749	24.7713878891242558	8.3530725062050770
4.3257225633100580	29.2207783042868492	7.0299177262033874
42.2091483924707589	24.3325200610087364	7.3841224468621460
2.5452062679900904	29.1053876032396914	10.1399868744203374
0.6568823128644727	19.6694896492090194	10.5695156850054435
38.7950867734045417	20.4908237668977300	8.7907321302516106
42.6148027357380812	21.1646356721357378	9.3588443460102972
21.2275438596575619	29.3564170728505971	11.2917054636137628
25.9524665625774240	26.5982520491902292	6.9216129133229494
19.5078343808899888	26.9917790909376691	13.1040498773543082
19.3267110431131961	28.5263260791076370	7.8715873057628620
23.1581835993083409	29.3347292118719238	7.3258265463645200
24.9386781667196651	27.4231189359598488	11.6003429066149693
18.9022811171975107	31.6790887393949170	6.6822488533263620
19.2201955824563910	25.9297707180014427	8.3190982157987037
19.6882113193223915	27.3413901991555193	9.6045950678613661
19.8055380217148880	29.4539840610428136	9.6095264206229682
22.5399760830059890	26.2523949337638420	7.4441498162883448
19.7829648220532697	31.5168459086037345	9.3716193769109903
22.6611154328739595	27.6059620846942053	8.6887581391023936
41.5921144086177819	23.2474971786762303	12.7907726743375694
20.0980483628311077	25.5772761375713635	9.8785459023987876
21.2739110737722505	26.3992847533059916	8.7590303164841252
13.5195419275168423	28.7377256995791903	7.5568561418470601
15.2837947521627111	27.0798417019749671	7.6626978889054396
17.1899548392737778	28.6865652342707307	7.6574672562488040
15.3083610401722900	28.9966050670860120	7.2569054917409144
17.8478112876237276	24.3454851909322727	10.6179333218765475
18.0830324908282556	26.2341619084440687	11.4888964854940845
18.5665990857551719	30.2247915891568120	8.1720494746241155
16.7584317043292721	25.5174409888711047	6.9888539962206613
14.5962233302866284	25.2598747288708410	12.4490222222196714
12.5275690811938585	25.2129763242127183	11.9838838703864088
21.0637193708618682	21.8156869055585680	10.3638756201892264
33.7700575782419392	21.2940416767430030	9.8182744282931687
33.2097691085065208	20.9959961577661680	7.8240506680678132
31.4523945667251361	20.2901127995165069	7.5587564695166156
25.9364047736293521	21.4956669456229186	7.6936642810044908
29.2218548449501974	24.9723381816518248	6.6451080677403693
29.2436716663870264	17.7856779044899760	9.9355491215030227
25.4071927465070573	19.8830477732783208	6.8581633148911125
26.5280738018395503	21.5538696747095671	10.4364546690906845
25.2315926430519326	18.2270774722257052	10.3122873551671894
24.8553019747309492	24.1119233007358282	12.1846985958661449
29.7812148889100037	21.8941356692313533	11.9591417381937575
20.7252962958178628	22.1881554744895944	12.5734763587259177
36.7938214089177293	22.3236695793764319	11.2006289212502637
21.1654622193755166	18.3547179876698365	9.6531570768690251
23.1739228293509214	18.3520194377185426	9.5474689138049378
17.9384067322306500	17.5901927892386745	10.3239718818794870
23.9122593045618501	23.7392847926921355	10.1942126451548507
19.0191749095495872	22.1256721916180688	6.5480372697142375
17.7093780038983546	22.6620242490409218	10.0396758917364650
18.4987743110627889	18.5192615470214825	7.3243313662165157
24.7421350395331210	22.8394593201401115	8.4357883855614624
22.0894112952777490	20.0771065477107093	9.7689080505251820
23.0053085163893556	21.9593253162258542	9.3665840887578398
19.9327114867114545	22.1265974640508922	8.4526882248615731
24.8468421772237207	22.1798838406923835	10.1938556899914055
31.4435485426438959	21.4960502011189689	11.2912751881141311
39.6600815500736417	22.4416897737602028	12.4489667179304178
41.3125632495080026	21.2653171588154244	12.4060917784724385
36.6955879866304358	24.6993374886550825	10.0222767709358838
38.4137616235135937	18.7128982240400354	12.5040627105512634
42.4804478949213689	23.1602856966420951	9.0728976219392283
40.0426806727291336	25.2591892461992309	7.9169909488942345
38.6639811104625579	21.1383889415779826	7.1388163740564865
42.0584189959376431	22.2978215851824402	10.7490450257286891
42.9908503593892135	24.8359707713042397	12.9705508397288369
40.4537080658155546	21.0975223785254116	9.6471372351638376
39.8432383681185485	24.1815021320441410	11.9501822327874780
32.8214611579753992	19.4715347529912712	9.0544147720056039
27.0847858805601867	17.0033515293673503	9.4932269393445115
35.2797784701942092	22.9220543275829343	10.0811321232095796
35.8671503882051326	18.7820452689629036	9.1828750622165192
30.7911824379458068	19.2244628631659786	9.3181652172623561
32.2102942220733439	22.3579189291057716	8.9946860853858972
35.1026065775596408	21.7288348154656035	11.5492166205621380
29.9489542773060329	22.3796680374872352	9.0672626626439463
33.0534379207948774	22.0954044907856932	12.2862059885809778
35.3173309698067683	20.4396367207897995	6.7489182025167480
37.8870899124109357	18.4053669392932377	8.6920973075394734
34.6547910148100087	19.8874902527560025	8.4664365303796600
36.8165202194886945	20.0420905464017345	8.1477287592560117
35.9017665276730895	20.4321670073868731	10.1169081425670164
14.9533375530406865	10.8473055188211749	12.0702193798760380
23.4513042619137693	11.2516349004108864	11.8097803551970060
23.0579326411180219	12.2199758971396406	10.0109271624832470
22.9338350579601489	10.9555357159156337	8.5026804978704522
21.4182462413666030	9.4262484160320419	9.2364670559719482
21.6057043984513939	5.4832480195243010	10.3602576063583527
22.9233675423427599	6.2097020881847289	7.2724410062543212
21.3934075134172126	7.5193461921018976	6.2174484996471948
23.7946513832105566	9.0122423503588394	11.5031744687379849
21.7438937338073437	12.2946296112148090	11.6890477078038302
18.7241530021155320	10.4230039399693215	11.1405986668859676
15.0528203951709099	11.7639123292658780	10.2688750980126180
12.5226444490753419	7.5126817402039689	9.9422153814450098
19.8687578931715834	8.5208491981609455	10.3684741264870457
13.1992756937936484	7.7974683456559903	7.9384664368272055
14.7120035743154833	9.0650135944244017	12.0741153651655626
16.4451218396884720	10.2938395046717339	10.9739876407542170
16.5418481422045289	10.3661340468588303	7.5746489058220261
12.7735073985813674	11.2805625371887697	9.3398849901240819
12.5964563508115610	9.0669170208312515	11.9214742423424411
11.3892914944655796	7.5493451797140336	7.7636052531506499
7.8599921605265317	6.6020384658361628	8.0834181806376293
11.8739204722418137	9.0472974505985366	6.5481911519413316
6.8053019958270236	10.3208162245741164	9.3880078466119290
5.8762570291120078	12.3405036741663405	12.6120196520269321
6.4358497044125871	8.3010769823671442	8.7240772634166071
24.7178056425460362	10.9271161394561993	9.1282789823128976
33.3609681061099153	6.0011574700195096	11.2106985613274777
33.3302951200172544	11.2204305675930929	8.8467613693700127
35.3344838907302616	7.0200938903039480	8.0002741055762225
35.7470516676368462	9.8049423237227558	10.2705341996476562
34.5633120685941293	4.8236631005456330	12.3215948672408526
33.7452809170107386	9.5036710523616303	10.1931056367772666
25.5384793696490568	6.5518427274153659	12.8696508760491533
30.3485545399076244	7.5913487222950300	11.1576721696775980
24.5828463512839015	7.3550479680405694	11.1394260928635447
27.3581324685904583	9.5937780666628623	12.7594781655386740
27.5788897998240721	11.3485408521294655	7.2485557304507422
26.4392569743529435	12.2540367611730918	8.7004510442037510
7.2060673118456311	11.6850850167278004	10.8661998540574292
28.3086969147558385	8.7673478914919603	11.4483253289142670
24.6413118946526879	8.7781860618512972	9.8820531664493991
26.0309632566162179	8.3466939808503557	11.6604918674099434
26.3164975421316392	10.0811603516181076	9.3533482762860132
27.8495605543812204	9.4669491614791195	8.0168544442108356
29.6747603692714641	9.3020086681898153	12.5323032162072323
29.5665220352098430	11.3271561640805665	6.7916630191205973
23.0106812381787229	7.8864662672392001	10.2666346015146459
22.0315604599460002	11.4912538253616461	6.6714699303228109
24.3232078828332376	11.0798333740109225	6.9664308908401642
19.1569174774705893	12.4652234786919713	10.9025244333564011
23.1163614599444465	10.1583744576691455	10.1758838206763542
40.2652632391056997	1.8355014007756940	5.6534813849767582
37.6149331304969721	2.9660954919627072	6.9316552438962260
42.8572239286568859	5.4838933846947162	12.3386252647229249
39.5873048716245961	2.6032717972280137	7.4476535360341414
38.1244264519726883	0.7966528089495318	9.6826657442541730
36.5492489383713846	4.7570957612307812	7.0026003111692967
38.0444510745772035	2.8719078991699831	8.9026102021791438
41.6147733733016381	0.9822417305953152	10.0872216576856601
40.2375409160783164	4.3856226543085848	8.1533679287622682
38.0486761347258664	5.0379193927195027	8.3908043925607476
39.6676435392522464	5.5628704798291970	9.4347658083209289
41.2131201690839291	1.3485343241300394	7.9994426683433248
37.2462524200366119	0.9869868404522363	6.3590604292641073
37.6703902801754609	3.2261914946878245	14.1400758359274317
40.6075176431152585	42.8218197875933342	6.2776847566130192
40.4253470577180352	1.2603973836308433	11.5082708925327069
32.1549589557972837	3.7855248067454927	8.4399971407218235
34.4822885737448530	5.0519927785350962	7.3107764455283402
30.7397744988476731	2.2639911718342094	8.4493155433989866
29.8915752856411672	4.0412279258735468	11.4260259829471948
34.0759111781069990	42.8297344372906466	7.4463681175787304
33.0247333381315045	4.2730149140893223	10.3775878753602200
33.5576333356176661	5.3401147333278614	8.9836817307045358
35.2256471994983684	1.1060152723338592	8.1107673887464546
33.0357641026370459	3.0385437379558913	11.7440268148713631
35.9157325195061716	5.2106042336868201	8.6382742478901200
2.7902472475989417	12.2349164279190461	8.1022490640506657
11.1188094561344837	11.6542054659900156	7.9883089362147413
7.2745352798415546	11.9382099615950015	8.6797994336407793
6.9762424419173970	9.5310826289716157	11.5876484648214593
10.0458219131323823	9.5485702665751404	7.1588245569231317
11.1040470514615350	10.3215379468723611	12.9992646583215361
2.4308493611503454	6.9393589152674808	9.0412782861068148
5.3007344452264844	9.3126819511295036	10.2616180667154495
1.7879146336892076	10.5879530542285174	8.6986739326005456
2.9290677882443759	6.8996141316117825	12.0231207493139962
4.9149277822828177	9.4402079111231405	8.2222500086003443
4.4580734177947781	7.7821483649472558	9.1791866923173462
1.8324235407630713	10.2462936155362652	10.7527695578071683
32.0211965251846991	6.2167060702588834	9.7532585313825209
42.3134881267352085	6.7729705037912327	6.3892285605703130
4.5635083077419338	11.2005117307181798	9.2560479776851210
4.0337763157904760	10.9212146827348864	7.4938061080355016
3.4021849478882245	9.6056927929507410	9.4619675290353520
0.1129501800610621	10.7459072514269618	12.2108248019853232
5.5703855552480874	10.7458790066055876	11.3316061842922569
1.7634489346264735	11.3740611559850056	12.5457530367497743
2.5797664477413105	13.3612196932180716	12.6522280946528465
6.2064515348422944	10.7718355172060498	7.2905026107910391
1.5220665583776545	6.4243896156543032	13.0853438420705235
42.1878739449187563	5.1795638298172060	10.3028752428075983
41.3532836418182868	2.7723820167901176	6.8594316195394658
8.8456874408436086	15.0641601804948184	12.2436861249747508
16.4225610098496198	14.2745492679493395	7.0685934367692544
15.3829917655477892	16.0454669091182467	9.9260913713121894
14.9749943476698899	14.9757066284493554	6.0895987347408331
14.0696164625833404	12.9078792265154458	9.1364244370087224
16.2613873857234630	17.4850020666247943	9.2976129828596275
17.5818407362026363	15.5831167174883127	11.3473438389608816
13.8836111519878500	15.1782451142716148	8.8301771112492098
15.6656543971511972	15.3319261887690317	11.7819326299665015
16.3187376685628287	12.9178201081075823	9.1457667985163571
15.2163440134244130	14.1203301291533929	9.9312847969241158
11.1066187268603276	15.8630023300286069	7.7120647175062196
6.6505439000144113	17.0991916291166071	8.6173795820473789
17.4397024744997715	11.9135246131723154	6.2969738822122014
10.5267613656240666	16.1364876767578700	13.0145289515003793
9.7951740955700295	17.4494389770897662	7.7216461514660333
6.1640738971167508	18.4941341933460421	12.0583426977642763
11.9458952723040319	17.4344708513607181	11.9253130290638989
6.3987209321533092	15.3091102015753560	8.1247293352909384
11.8055287641053930	17.5380304880362736	6.9150140817025205
7.5396955816745619	17.6654536396807060	10.9673995225119967
11.7069160476881553	14.9430248931622653	9.6455120488223223
11.2213514152781464	13.7987424428373746	8.1351672263039987
9.4627438376909936	17.3956221184094275	9.9210159637475108
8.2316979451931953	17.0527239383502760	6.1897681219931950
7.8742580823047446	18.5233200347090587	9.2905110806268496
13.8889896799201900	17.3303568136020552	10.9321567007815013
25.2869916792386178	17.6150229011429182	12.4556680816112610
20.1891008538963987	15.2183693943162144	9.4343294581035355
17.8991559867781334	13.7575291582119252	11.7209347121222152
25.1557410108141681	13.8595057905248122	8.7698185818211414
21.7984819916346346	18.3952652412670830	11.8591806706299696
23.6577903410999468	17.6597643998351401	7.5467373834153157
18.1056175463846429	16.7574628603672018	7.1758626197977318
22.0394113466104677	18.3738416449101791	8.0587123510061307
22.9778670490247627	14.1587810972158685	8.7759399823973983
20.1102281723513379	17.1257343033413356	8.1585572819498253
21.2245204492654764	15.4421117016243112	7.7047027116430140
23.6482991147922448	12.5552582986685817	8.1444404770356815
11.6168279012867615	14.0537528594003689	11.2492347047832393
15.5583098809865135	15.9571299867267165	7.9774588351502951
13.3371926099410327	12.0379970040037545	10.9000268465972407
13.0689944497772679	14.2343644511004026	6.9777257606982435
16.3004614258645013	17.1266055305689235	11.3204212336489771
17.2722931557208206	11.8784420597117109	10.4786853915067386
12.6821657670073602	15.6532017826349819	11.6965009426843789
13.9018920886272888	17.0312767220510572	8.9347492219454097
12.3318054275817914	19.4168396068832791	12.3175301021887016
13.7060272332344120	16.1510721626873774	7.1134821300034821
18.0479755652771274	13.6274034999085885	9.8979816603556152
16.8132308945044038	15.1428567211624383	8.9946315200554849
14.5350485253377855	13.0561014230459040	6.2189301222993532
37.1253951123445631	6.7610646716530063	7.8823514427699113
42.1626398278039360	9.5626689021626792	10.9018161955848694
41.0894839279602095	11.1924954447152221	11.6944179771141901
0.3116024271100955	10.2194304242223577	7.3230816020751694
41.9014647486989773	10.7246944810246880	5.7317704881589648
36.7487713089286316	7.3176490109133834	11.2581332181888119
38.7062172418139099	5.7157822360859525	11.5448719043803987
37.8713212229729805	6.8493713503632438	12.9975757897161888
39.0093457704487747	10.4778310700847701	11.7679717693718242
36.9008249581286876	8.4780472368756623	7.3071101254562176
40.9230772101937390	5.4330481507784167	5.3297392293986983
37.8011676145697919	6.2508868827174293	9.9542595999826968
41.7613218770302908	7.9573144768390955	12.4240722947566642
37.9192211580286340	8.6425442844152265	12.5260503644417565
38.1053955488084029	10.4041796184854878	7.1285888305438263
41.5682002188000865	11.0543099142656711	8.3869811035345769
39.9387615722845553	12.2130434612743546	10.7195844628953534
39.7379297037658219	7.1762795082555861	12.3648161475563292
32.6646034513951520	6.2276256569119690	7.4398892682104618
36.8379517258627800	5.4890632529732377	11.9783964842379884
33.4277581802788504	7.3629221795913153	8.6028227599623346
34.3165061486229774	11.1333382544222701	10.7705673323627824
31.2988521458954772	5.8172981909181578	11.5508239740714842
31.5691137983821193	11.9622588107914538	7.8653729204118470
32.7275001759859023	10.6754324432667254	12.2871515520191537
35.3285929227047362	8.0247862395877956	9.6373183586025526
3.5311124949442187	16.5838777118357577	10.2060219843649485
9.2042012534955973	17.0829778511607948	11.7779864006749868
9.9632972410370968	15.5772030654206226	10.8927089506839820
9.4688885935883640	15.7275310420791214	8.7899181436649858
11.4481896075872118	12.6739379209413006	9.7573883311270944
8.2162893861982820	15.8325342435909384	10.4307384950250377
7.2446814446108121	13.9933951047848844	13.1473549890524524
2.3487109199486378	15.2802894884171998	13.1196771715871012
6.0027719327814655	13.5222377920898964	9.3154517700388819
1.1918245621566708	16.2516592811667984	8.4400614104212686
1.9961642206166756	15.0033892938709084	11.1549721530740875
2.1109618943132640	15.5892671035228005	6.6827213949438047
5.0496492568688787	12.5312223534698752	10.5779147952866115
27.3266395241348192	24.5904933360183868	12.1596217339793657
4.3549775426435726	17.6611090740761227	13.0957026406841113
4.4576031998947006	12.8763774959905799	8.3193796066839738
1.3761890793891531	14.2698473903666194	9.3635737206574863
5.0171466038245329	17.7992452602576812	7.6247683534399178
4.3429091678839837	18.0159062886089743	11.3049400123948853
6.1064652974691302	13.9975040216679627	11.4925113003456616
2.6646059769329220	16.7736384251045649	11.8985470664556541
4.7358514445601854	18.5240892076648045	9.5260737922707150
6.1603196506952989	16.8218867848976608	6.6180271042176626
41.3315761414561962	7.8156174323613845	5.1232572881754708
41.8210409327628909	5.6769146163757238	8.3518911941185312
8.0995803236799322	1.6426247574005892	15.1449159147823487
17.8624561141678093	0.7336238570778744	16.0150646596645672
15.5838386965635181	1.6277895807887173	14.3718766349490608
14.0830832645063868	6.1237373016403689	13.0067281332605411
12.3079768839322448	2.7068208073886511	13.7569993402324400
13.0829925990290530	4.4718028870448903	13.8659120073106408
17.0756969122661850	5.0340757932082640	15.2874428892394398
18.3638874348148633	5.1737448565453015	13.4121246466437682
8.3384612231385784	5.6221801130180085	18.6499104352054026
7.0026894971894107	4.2342409343743626	18.0986796743114979
11.3297638554012821	3.1058694102831890	17.2736893926091746
10.4703149164705529	3.5275578824778711	14.6496862209793957
9.4959143310774650	5.2900663901718934	15.0198906865010020
17.5036026040512596	3.4896925353863946	16.6596821029018649
12.3000084688067375	6.1862742401351243	13.3594419179127968
7.9348289733684458	3.0172090373601979	16.8680761127214822
8.3245390454945145	3.7465343665227979	15.0961898825198126
2.1308599043607872	6.3037012960523704	15.3374353497940827
5.6841154443631385	2.7583262459276869	17.1702022918380237
0.0106496982198567	1.2188540550737259	13.3810130422546294
6.7230602882323778	2.8091963681091268	14.0250437524895322
1.0513565164135632	4.8620183349513821	15.7099934497022016
3.1331492903662106	41.6846127544237817	14.3235461575182264
2.6902526332177712	0.6580783493934405	17.6870584647635383
1.0426123858684064	42.3405705691411498	13.6370286494532493
5.4609251156726613	4.2897194881501646	13.8552867957841634
21.3354849966079456	0.7608411232288332	16.6770198893403006
27.9552196541868767	42.7549226498113200	13.3647983255501295
24.3647567300876737	6.4246185586390006	14.8686025325973130
31.1435014219759516	2.6542583428541633	17.7448127826068927
24.2371089903008041	0.5724356704650283	19.1163911944840592
18.2629717994854843	1.5918254935141654	13.6036746316981620
20.1876245904424074	5.3924135679120839	18.0845835902430849
19.9389005120360885	1.6836459958630421	14.3507668706415590
20.7893845093332139	2.2831750555515766	15.9000837344606829
19.3962465923162171	1.3761658769691956	16.7666060561072499
22.5010609769069880	1.3145357872933425	13.5798975542575224
21.9768431281816348	5.4037133014041174	14.3956195805460840
22.9607303373776901	1.7029360703496674	15.5559197893112877
6.3333864655322749	1.0890669712613430	13.9105393316247401
19.0893284074196323	4.6822972989922107	16.5600280683140149
21.4640126551384647	3.3692132762573372	13.2270028993340460
20.5241201491706597	4.1270851268368283	15.1917607145615889
17.6391845770695355	1.7960863754814460	17.5992000217711784
14.5864139222080205	3.0280031038164279	13.0128247851199212
16.2665464788306409	4.9048026800097846	17.2611869550888848
12.2190723740094249	3.5390235731844619	15.7213468637360219
19.3235014931808813	3.3899497072281677	13.8204684238650675
18.9107731787320894	2.6710480037953119	15.5315914192750988
14.6591468098750379	6.3763174466533181	16.7670465022296895
13.8207400883883409	1.1322609997363204	13.5819795474141518
13.4589996832250502	6.5712873637366309	14.7863209961832816
28.0779773534321144	39.7700227819484553	10.8303447105623381
32.2807535838438042	38.0031825578119680	7.2454105686317316
31.8951744739922347	41.4612189650177001	12.0015477053499069
25.9020256681500065	37.5693019930752570	9.5961657595794598
25.8434279702069993	39.8163457259877376	11.7259471283868137
26.1880609596057639	41.2808624987710573	10.4750928330765074
28.9308276151347030	37.3362966147148754	11.4464517002035286
26.6601010249337804	42.9435596871552079	9.7779011265076008
27.0648059100233702	40.7550301743064622	8.8555502633486931
26.0669775291037418	38.6171141413096990	7.9582830631482526
24.7156127603103215	40.3376529015902605	9.6006901734990180
27.4046959612891996	39.0338332157444228	9.1530741710266081
24.9815590464813866	40.7797462718266459	13.5139328827151335
31.3544669557864601	39.3768805551390528	8.7549669276128377
31.7669222702676919	41.0594198491560078	9.8357000070770546
29.8140872580656158	38.6598070048493838	10.1445798089041741
30.7525669264905410	37.6029357300827556	8.4390132393176707
29.4982155922170222	40.5773642917622155	5.8395617575210252
30.2435714804231068	40.4170471813117587	11.0565541889301162
27.4943706958776062	41.7086645865182248	5.6657426983073442
27.6174835309203530	0.4591212070873249	7.1623223462855696
21.5468517531403769	36.7818735877228207	7.3124498931120581
21.3404799983747928	38.8982594565717790	7.5396506496990874
23.5428500598548034	39.1956210104802949	10.7156838945792607
21.4524198852834083	37.9764210956033494	10.0018266591170519
19.4666727042240737	39.6456308296147029	10.6980997205951152
38.6326634817033607	38.6940673137326598	8.5540054885213035
5.2132477622807780	2.6741603957553068	15.2853979425012625
3.1084676907268092	5.4776853421148273	16.6563609856642074
3.3665975918578726	3.4663500798902369	16.9308460555715001
4.7971902742062422	4.5782212477107134	17.7253392088807686
2.0947347915245054	2.4665441214703923	17.8065986929809235
5.0970260681457216	4.5965435189513562	15.9856432116816070
1.4089719442740565	41.7903973863811800	17.2164537946440888
2.5293182320145013	1.6555771117716900	15.8576893226974391
4.2539611271431967	1.2355464773296068	16.7547340925749211
0.3648718539115900	5.1911447038838103	14.0738885512358447
37.7223290689514315	40.3846503095496132	7.2445108295139660
40.4302715690567638	39.0720933187399240	6.9659741786313507
24.2725339203435162	1.5594877179551132	12.6102119181707710
39.4388400453170718	39.3298183665456946	10.0674368912001295
39.7797036513935183	37.4464631793074716	7.8699491669628303
37.6446361612682807	39.4866384890100548	10.3970652431827641
38.4741615317050503	37.7924311690027181	10.2101871182337209
40.9380058144702019	42.2255062323744355	12.0192510469514442
39.8568163615467626	42.5397197990165310	10.3330210294568889
30.6252300047225745	36.8514866421460709	10.1540033921282493
36.4668744877463453	38.0966596453812514	11.0402772986043711
34.5333178976057482	38.0027979215209726	10.4175168762769825
34.5773250853823555	42.6855750012252244	9.6140812374612103
32.7386646211383407	39.1546278381409536	10.2962166582831607
33.4787266008105533	41.5479643051604910	6.2915824478067002
12.6504664235229995	9.7278249213948325	13.9426101693078586
13.4067435363978635	7.9210031854779510	13.3919261738414530
18.1765453476766830	9.8181933707199320	16.8646927226501298
14.4272932045630622	11.8394851158300618	16.9400338169738625
16.4531379392567452	6.6407140441231149	17.7538761622539525
16.4176666111167968	8.9233831078198733	15.8855286216837097
14.9751193872949422	7.9816387805165787	14.8354963131867077
12.6973873043316523	11.3695812512528498	18.0112479349488162
13.2396295440607208	7.3825559510451910	11.6230018041859964
15.6594084680686922	9.7757762583710850	13.9663500978289896
14.6658538384193342	9.7318066269152474	16.9009696686016895
12.9070976739318155	6.7724530512933372	16.7646124775013554
15.4338749510206039	13.3796248212520101	16.9474340231840443
21.5319252323665964	7.9558390007415953	17.3851400157652307
13.0186180093036992	10.6437447390779436	16.0133445198722200
7.9686733029752084	5.3337544469742317	16.6033615957132987
6.9612776542696002	6.6939849960885160	17.9979044918298214
8.7252185688772315	12.2824511750140779	17.4541750608385122
7.9878308861710012	8.7971945148452502	15.5363675839174196
9.8245348318974486	8.0951550265282446	15.8050350459280580
6.8739431734620489	11.7175601002908660	17.1749481075967196
11.1982078939960612	10.3618033498548581	15.1215662583421864
7.8177521575491147	8.4796055354758355	13.4207283926455876
11.5109914889045939	6.0794887558434532	15.2589815583220680
11.7641069492638959	5.2188324801399242	17.1413935199723042
9.7697228143283414	9.2027218254944909	14.2367141010171423
19.9418681218921456	11.6345667239078399	12.5839765205386822
30.3861487422064442	10.8459866284192348	17.4647310341617121
27.4864447844959514	7.6043278670363739	16.2843355657050068
28.6565503455058312	10.0887403935735485	18.8080156114626789
26.2245174078828498	8.1559736653028541	18.3082793914411361
28.1958736299531907	11.3304490658426307	12.7837429130663747
25.9858655423949330	7.1652734007862229	14.9452482074569684
23.5608174008265152	11.9622133352955373	17.1375684559075872
18.6083906430039221	11.8906327056036307	14.1236147556161384
24.3814183994683518	8.2272678960408214	15.6408691389279806
24.7062522270172167	10.2162470614685201	16.7216344942339354
23.1058393883412450	6.6362199316387152	18.0897107933088499
22.2158081817595701	7.8117353866069568	12.2743887154754852
8.1982569520302562	6.8604689448019096	15.0455205272589421
23.7376422154945281	4.9757003226735437	10.8299527742001427
21.0815975597192597	10.2384143104700556	12.4536167314287098
21.5284230346747805	9.0512391236124277	15.8549199140106225
19.1046637910374493	11.4448138252793541	15.9296674475171010
19.9129832831628377	8.4044375484994305	14.9112734191501861
17.9237495365859481	8.0847692823924699	17.3168862497930185
19.6982784971477116	10.1708556621722366	14.1294661362749157
20.0601424884409383	9.6475838965628071	16.7924279153232945
20.6421375793478816	8.1656538059995540	13.2509757898101590
21.0167002132432508	5.6100037031066448	16.1692540283329471
22.7238753275059722	7.0850567942164071	16.0491174388034494
21.7708078233538131	7.4809160305593254	14.5390956041624850
26.2794144500234061	3.9604644814371479	19.0895733970391603
40.2580848222243475	4.9192520462560401	13.7626245287569731
36.8133235308421263	5.1996890240732609	15.2306888392828803
40.6397777553686197	3.2091913190938648	16.3890055880335090
39.4995287065445737	4.8205910860141090	17.2639664625168052
33.6715849589971796	0.3150722424330034	14.9264693271172426
34.1919191044238389	4.2145413636255746	14.6325276047724770
35.7407395447183234	5.6413480533514724	17.4052985517736900
32.9159412803595757	1.8871874659518886	18.1313196705366941
33.7274810416206208	5.1670475313014190	16.0910219610757927
35.1611889733209964	5.5867995806253408	13.9421438602351184
34.1536858872201989	1.2053713835496584	16.5988862601979719
34.0787021804889321	2.9838213840456289	16.4395861744151830
41.9542282162645819	4.0906582718334379	15.0044749803238844
25.9048062225046287	5.2682585160474575	14.1055647177755628
29.9308613785696842	5.4267746673900161	15.0584784550812412
24.9789604649731842	4.4706667508426214	17.6146417067397216
24.1203184690096535	3.9693433695173903	19.3953800444680908
29.8790690109992347	1.4553423159634302	16.3890446438636168
24.4278108141987182	1.2206797195504866	14.5820643497122191
29.8712228633684482	1.1455911364606470	18.3925761812593507
25.6017585791623503	4.0462262940673339	15.9801396158900069
30.5891226036881605	4.7531563430195947	17.2257002872128560
25.7344103889415443	4.6852917523622954	11.8858596696782506
26.2989739408167083	5.7277681826112250	16.0248762899483808
26.1749083538539722	1.1107481044303333	13.2062577906469727
5.4069674491320603	6.6623411594292969	16.6596463953598821
11.5951027561092541	7.9504137971548108	14.4299950483701629
9.5662661993602214	9.9853479469559474	16.2232800874127356
8.1308669752615561	10.1651816768790475	14.4106187553460945
5.7595904548213008	8.9042820014805582	12.7534638750039147
4.9200536478365109	7.8708424680042821	14.4815605496759900
4.1989737190524874	9.6006757229534490	15.4273634163017590
3.0232957746733113	7.5478674333259876	13.9760026192919042
3.7797589017167139	7.4666560838035503	15.8088506127024537
5.0698651716101750	11.0383949177061922	16.3269434807765847
1.2589456350615029	8.1262084252822202	15.2187414042068649
1.6434978268231692	9.9080579644416087	16.6729146077985355
4.4083965613602611	6.0879918574193281	13.1580415351450721
22.6362057271497754	39.2510673590551988	9.1526676531907771
5.2921622033012845	12.5662004815751445	17.8790154763340432
4.9486468917457209	11.4553890709507655	14.5547059314491563
6.0287115165111169	9.6288589341107045	14.6826616668820176
39.1976463135484181	4.6249431436121080	15.4485728388824484
42.9250175249498227	41.8523647625759452	15.4104584655803389
38.0885750786897148	5.2299946449235959	13.8145944884559011
41.2991730242388329	2.1825713766451229	14.5953772725837290
39.2573171178556137	1.9361312049649149	13.4264696488083803
40.8813989256579191	0.8257294939340969	13.4443930274525716
37.8531618230630400	1.9440969137761956	16.9899277850473993
41.5007246166024970	2.6733352796445717	18.3790949205471819
11.1463479630897879	33.0980207971110687	10.2614271335708533
13.0479563178766078	32.7271705964722628	10.4669694389479737
17.3324905957395714	34.0042080853579591	7.6147764018810129
13.1533188721751557	31.3683296171046280	8.8688121739781636
17.5218604958927706	33.5730850548924877	12.0235058570543814
15.3850675079989347	34.1598103429785880	8.6490570055378537
14.0794484527760417	36.6892090975092131	13.0634071148439457
13.6428204159439357	30.5953350668305610	6.9746983471085438
12.8845313661700889	31.0307858013323212	11.0350184799762605
16.2556174971406691	32.4164177083935030	6.6310110347588083
13.1770957557414032	36.1659194489725806	7.2373977985456674
15.9380619533312995	35.1034946295088019	11.7206484145773473
12.7873438514084068	36.0841704447517486	5.2032474184473756
14.4702020248278647	32.3738783129280705	7.6493864900300226
11.1633611618265327	31.8242055360277760	8.3641343804137946
9.2678960931883889	35.6868049675884578	7.4600607424046732
12.2987171420430226	36.9416572607461688	8.7400247631299823
9.2162049885118247	36.8833054913348235	6.0990714361272964
9.6187166693418860	32.8097968196404324	11.6489056714767312
7.0157381061523649	32.2195235374381923	8.7660234341786172
7.5316811537694104	33.4724684692066674	4.8793993529414754
11.3961924769366281	32.8881450055726248	6.0235299299699490
11.6840053963321928	30.0276569897813701	8.0340651519830324
10.2685851996679585	35.7709734379243116	9.1328272950256366
7.8037002779449560	32.7755809857265632	11.4369307402121727
12.3828490690611375	34.4946026146497999	11.3399931767488908
20.0159246516649532	36.1194381413778274	10.6313698430635526
24.6203431654576583	35.5271294124965564	13.0226286504993869
27.7547275338428321	34.7838581827680002	9.0523447990810055
25.9747111730760025	36.0732042657815271	8.2555909867952835
28.0319238526577976	31.8210570438375591	7.3499809470919359
28.9946744010525101	34.8630831514840978	7.1306134116212272
28.9936551539316802	33.1961474770798546	10.2795820972368706
29.7962117790381065	35.6022208289228033	8.5628322215673354
25.6330081341988745	34.3202604154032684	8.9887091601511404
22.6979009764786888	32.0944728661805385	6.0635588601777251
20.0356392635188953	35.5780705925528764	6.2120427375806457
24.0363746368914875	35.4728811644600626	8.0890685013813499
22.4710921560822285	32.9472958078620692	10.2338428953113088
6.6816154221341408	37.4395634949646876	11.1231623709062983
19.5549424183989267	30.6462317139277829	11.1635934764272644
20.3207808012224049	35.5973248234800508	8.2963323610861881
20.0944382126294414	33.5156930424949948	6.9133442212814735
22.1930739369273375	34.9665370927508832	7.8487338994637357
23.6189607965755890	34.0954536059729989	9.3955370162505574
21.3033320240029340	34.3808103169586872	9.5833722710751417
22.5905976183931969	31.6994260565171402	11.9615035691708709
20.9565454821866055	34.2090865044125252	11.3341527970529512
20.7727212257427922	32.4155452944222304	10.9573663568828916
23.1947470833776137	33.1129056466387723	13.3687795165556871
15.2779337401399591	36.6621173195126460	10.1365943622710493
19.0179660532708930	34.3972190946913443	10.9307882381190922
32.5883375602005572	29.3601386064963457	11.3725625931530665
38.7525477649631185	25.7107974168711202	9.1658339043963899
38.0977483788862230	28.6872621654165840	8.6947561019510538
36.6112160259182886	26.5077008641214640	11.2233100001023605
40.7347859424182417	28.0407632686069448	12.3999995045900953
40.6281854387166206	28.8104965223661047	8.4209188791568899
42.6274410320206911	29.1475193475199958	8.4955506363605586
38.7295293410671988	27.4445665006585564	5.5545884605277704
39.1527891209090626	27.0677927914831429	7.9453290074969036
40.8713794423930779	26.9612471101989257	8.5316962802922980
32.0055109818955827	30.5177414737402728	12.6674538136695727
32.7655503555382879	29.1865835654663321	8.0329082158131033
36.2451328633987444	29.2807608532781742	5.2073938263230035
40.9644472669077118	28.3427980025269513	10.1325608640286298
35.3212930964668175	25.9387108302757987	9.8435373368727159
33.8011019067385803	27.6550590954544973	10.3211288731700712
33.7336149239588892	29.4975662219910859	13.3302297341733897
27.5628852096772228	26.3432867375228774	8.2568287315284881
25.8768891584448468	25.7728619359131166	12.9105127374284336
26.8682469345962360	28.0693738015981324	11.3165013995602255
30.5776103810290927	26.2058154468928848	10.9639175800001372
29.0330345676325159	26.5896356232945656	9.2815650658188638
27.1066023641846172	25.0061502837243843	6.6732999026936231
24.4479035957387296	30.8061625222432376	12.1255137335385097
25.7487982380553717	23.7795610089880469	10.4812615663731403
25.6516364823617238	29.4325624150779106	11.0874912529471565
4.8585459071158876	34.9654688104374287	11.6286693835206041
8.9377706017394640	33.9201974460566120	7.8295607880254607
11.2135405546559763	34.7814959319561154	7.4445308273088671
10.7823098225224427	37.0627191950177490	7.7567492057945566
6.5445861781626027	31.4763449091567828	10.7868103130891715
9.6203775845970405	30.4452419538980870	8.3647737359493171
11.8640864488084752	32.8630796800771989	12.0600938495255949
6.2798611138506093	33.8703809089185768	7.7522590665650579
8.3250605438252805	34.6533650851857331	12.0945218052278118
7.6842561962266061	32.6686013854095307	6.8878704713731933
7.2812835735383601	35.2428469706849299	8.2158683990627779
3.4327202171108526	35.6810588455102433	10.0131595273618252
1.1042405712178391	33.2093707551652741	10.6980706126527796
30.5895521054781945	32.1645969109266332	9.2507583450136206
1.5080231937751716	32.5428543296505879	8.8469605895755041
6.0307998603550663	29.7628922714823716	8.1282116758690695
5.5739167564672174	34.8120803695802721	9.6720681222774587
1.1018962161392614	30.5786164479830980	8.2580119733569948
1.1350236493389327	31.2395613608523739	11.8040442633788523
41.1767748436350658	30.4289678876717531	9.6267029511667577
40.2901542379536437	28.4808218231276200	6.6739635267464248
37.4210150488094300	27.1067854932722128	7.2243318091226607
36.9680120685759945	25.5567328097485493	8.4271809105208355
40.9675624873584709	25.2179425625938940	6.3667515138078317
40.5921954315293263	29.6625656393442156	11.5528252369601407
37.7595308381139176	28.3727876606280560	12.0119541160949623
8.2798891786680286	41.6914842004973778	10.7408939573096163
18.7182542038845448	41.9712636939406352	11.1773683380759987
13.4128029424736273	41.6001405785735798	7.9795130955532443
17.0615584889145602	40.8961731103185642	11.1174368973997719
15.3699414037175064	1.2256519224629909	9.9941732058585870
15.5208631667369907	39.5522488428079342	7.5115063957750516
12.9479720320081242	40.6808030248554005	13.2465509002679376
13.0659647025532912	40.6044655983420952	11.1950461783089619
14.1141347205747962	39.6764276128729989	8.6682932406926874
7.1756861817892110	0.0181192897101567	7.6507486819929875
8.0558692964142509	38.4694914290172818	11.7884088809219509
11.6982538597051349	42.7814258849760236	11.1402764025044227
8.4641167555935777	41.9476151920469604	8.4299644320099762
12.4051844404096610	41.7942282452045575	9.5385989849846844
12.2215484917492461	41.9681869290408329	6.3497021943956309
12.3560934779456915	38.7711264281921260	7.9424775353508457
7.0466699142059452	40.8506156780046794	7.2534349322761829
8.7199375066492593	36.7063614962075491	10.6299503074823001
10.9649548224264795	40.2086115899010750	6.6959581908957766
6.3711903499707256	39.2765171169054739	10.5645745973443610
12.0545570264316719	39.1898578481340394	12.6868755579160961
11.7695491300439006	40.7333863396172688	8.1951534055591466
1.6405398226513759	36.6569392325305330	10.5610810844982357
0.4478714954976785	40.0059790318200257	6.7286418361775437
41.6941367662445543	41.0257890475118074	6.8599841003398545
0.1420275088774336	41.2226396813166005	8.3799549020166921
15.9262725181693945	38.3089910527248847	8.7773396539418727
25.5100522292448488	42.1336033325018278	8.6494529797809427
20.4155752140921081	0.6357088391945214	8.7720212825237187
20.3340380816345672	37.7668661763774693	11.4443197346568120
23.2920048121337686	40.7916859789572754	12.0773748131184604
24.1385816815419787	40.8352344856219673	7.7216636028291576
24.4978144805158387	38.9380498670973196	6.2033380287005464
22.6087904053042266	37.8756779700910329	11.5499333596803524
20.6017071219216454	39.6573705152960017	9.2608609567388225
24.7850357298398656	37.2897927673020817	7.5314035667800967
13.6389601329929846	42.6585033703382734	10.4927898537802626
14.1551592347904354	37.7625985286459880	8.5001604392203465
14.4705066215582381	0.2834168296181091	8.6994584620579793
1.6906322888127352	42.2304084667968453	9.7645169402862990
17.2827937161775012	39.4632261115993970	7.2752667150457206
18.6077743399349060	0.5025465944346637	10.2924511451664262
12.3005880945330812	42.7385997879658248	13.2105738474406262
16.8274103284156844	42.3650267295371208	9.8540456996430468
14.3112079746773873	42.1786164421290763	12.7588678585108415
18.4448392034471524	41.4388214227768898	6.1020285210401290
14.3593434806358022	41.4310485705890912	6.1389236682936916
17.6182906276998565	41.4962126739047861	7.8203515549661660
16.2296029033844107	36.8992379706778664	12.9902520874316778
18.1482968339550546	39.9612070431219735	12.2117908176653529
15.4368183817087168	41.6107426507416278	7.7897376193356003
16.2322237608825013	40.6089234161776744	9.0618964404150830
32.0765938989806543	33.7414533168279220	9.5648840800995973
37.0228430435286739	37.2040427097441793	9.0991652030946675
35.2879554659368893	31.5290614850675972	8.5284121218335578
33.8939758770870725	34.8011541304274417	9.2843953976571942
35.4978019113892387	30.9431555536614837	6.3680762523112016
32.2777922016898273	36.5231036284858419	8.9631002519449208
31.8685461398519045	30.8995379524760594	8.1635458230540223
35.2005762346056699	34.4413026995322156	10.8006764618230378
34.4246546959188251	35.3925159370695681	7.2393844275006716
35.1397262700855038	36.3214501786007844	10.8660032670088444
34.3318563846644125	32.5504510038179191	9.6812631081570562
32.4875199110320025	30.3811619367277004	6.5757402219564511
35.1425622690150448	36.1510503513298644	9.0610108570340913
30.5984967328978570	33.7442134880498870	8.1136289369548091
31.0607869961505934	34.5466150284163902	6.5061993453780484
31.5615550203422650	32.3345023334554398	6.8226654577566048
30.7469260125420547	33.9571338875531126	11.2260923495888782
32.5098106564188996	34.0663942074819630	7.6408263393558480
27.6064564376623913	34.0872195529589845	11.1931090568384217
24.8034503957340604	32.5408491559831319	9.7025981584842320
28.9683509394043632	33.0483126290160243	12.1346675733955554
24.3075176093293095	30.9254278022639113	6.1670773514244770
29.1668937699118267	31.3805341093598287	10.6234841824292392
24.4981876230155997	33.0338834320211987	6.3770211996724964
29.9882349559474015	31.2175937732176578	7.4456299857164243
26.0702164362662323	32.6471219313934924	7.9526698152532207
41.2321109176648548	30.5894358714814594	7.8091836322630019
4.7037542274227171	40.2984288028781563	11.2166964382405272
0.7252602298677823	37.7602523681847018	7.2214502593896990
5.1906100176860033	39.7162469032289280	9.1937415843811650
4.6819136976448705	38.4122224451333807	11.1710002026133317
3.6317789244133860	42.7754972857173712	6.6555306829705128
4.1748640561126829	39.2603630488244590	6.1633257486529551
3.7153714977909766	41.9002180510034634	8.6850386177445138
5.7987177098677725	38.0018575695165097	5.3614331423422685
1.8728106400203750	39.2093287654841731	7.4728938349074481
3.2617135767812928	36.8144920144845997	11.7702011721356978
2.0135996173142012	40.6209983895625513	8.9668113794491493
1.7148266177562290	38.3470564096056563	9.0754677863862483
31.8929520186705240	42.1841939868079763	7.7300945359097053
39.7606836460228976	33.6575403853945119	9.6775977529500778
42.7066796942420552	33.5047635746664056	12.3647950005521565
40.8626248474885543	37.7268443227497769	5.3536682876209145
36.3876884429152767	35.8914347887446468	7.5236250619816092
42.8059037429379572	31.9962545357502250	7.5887538173675626
39.4950443405359337	29.8912412843418096	9.8756079255758120
40.7983790115261868	35.4787093734141408	7.7943429198856053
40.9112434938002067	32.3154472213780437	8.5050682680245853
37.8272589900942293	33.6971799427800320	10.9229577126662072
33.6907055170288743	31.3554150349309495	7.6832977664352589
35.9332708155263063	32.6411914836694592	10.5293157192963633
21.2984684624222993	13.7439977558005406	3.3166006646045321
27.7775062705345910	15.9146489875997794	2.3383677924352799
28.8932643585057356	15.0191871056332698	3.5354351376441322
28.1924944706411686	15.7817330373381832	5.5375516189071243
28.2364410388295610	13.0848280061228408	6.9872122654684787
25.4511981831716980	15.0457814471818647	0.3522898203204710
27.0040025641364174	14.2271277089320058	0.8683766062662964
29.2343377898937611	16.8634713611060292	1.7747201118608336
30.3364035878646554	15.2169113866409500	2.4313556375426484
24.8513866543833437	14.7436142314773626	4.1255383691971250
18.9135206937148013	18.1557090521060296	5.5168420948257140
21.3644547628241739	14.9707500302584133	1.2719890175305488
19.6823439323018867	17.1469331548552297	4.2056078657223797
27.8584983720285457	18.1813469914017460	1.9055515869046309
19.6081368351004350	14.6161366921894871	0.2710214983214514
20.7479332713507425	14.3438913323928094	41.6316580015525162
22.8181076630924800	15.3543502623527566	4.1581056592941188
19.7723107887037983	16.1826758862062725	6.1505577055735010
23.2329922387049272	16.6031487402746656	5.8189076731887219
24.4904085509053608	16.6925696842200786	4.3402826399765626
24.3755516186387737	12.8029300400131731	0.1151691850834876
21.5553879831976900	12.2072416571326894	4.6570743178209675
18.4348453219169883	14.7223487331906782	6.3165934189263941
19.7024879942582629	12.1890474346868469	3.7052091077013460
23.0990657692819426	13.5314080358748843	4.7064695822656679
20.6490198433200192	14.4317369466233227	5.9896056074465438
35.2727512920599082	14.0158813196616059	4.5288898791943462
38.3918519549727293	17.9037841425825555	3.4762928710566348
39.5247041404396597	13.5095567780679406	3.4197395965828528
39.7664116966317067	16.1145264559940422	0.6700651202551970
39.5529847051252474	13.2630686129748145	5.5515191851221211
42.2438521283734332	18.5993094568266955	3.2065341434447410
33.3767266977017130	16.0173065412033644	1.3156182730282475
34.8922099535565380	18.0214164911576624	5.4874158854407833
33.4639012888389971	17.3005244944134340	3.2215250223994714
35.4464706302924739	16.2431477756664506	4.2630577457943444
33.0261505534591606	14.1281800381417266	0.3701437080980990
32.4536609820031927	15.7783347661729074	3.2155781439058413
36.9879477138233241	16.6323980776559921	2.6788410000479375
21.0032364170855921	15.5192749331759465	3.2086335062101150
33.3486845412418376	13.1549859318229885	5.1253021584718628
30.3763587493368981	11.9362703833427037	4.7941583703031156
33.6028294875652236	16.4441620048903765	5.1841959581136585
29.5567667188324847	13.7273224472268218	5.4209490394935251
36.5475227339542528	17.9574474803854116	3.9848664438490875
29.8272318654700399	13.4394870905729622	3.4333465825767004
28.6072343837730898	14.3020557700919149	1.7752709545063632
26.1536951379309528	16.4129679494407448	5.0220073227258410
26.7739313560457468	14.9728794332929329	3.9634588255212106
25.6711884881451695	14.0074676228255992	2.3315988719083611
28.3590740636471246	12.5521906323529642	0.5628312926463495
27.5423420051016876	15.9684018090399622	0.4971507373710519
3.5593570955581444	12.6873735890391170	6.3470905589954985
12.2547346736922478	14.0512364890622301	3.8140873240434896
7.9970515540929537	13.1849816229931882	3.0830817995323980
8.3943652019804649	15.0148038487098781	3.1548741074062892
2.4762518997627949	18.3721123178373773	5.6842793172505433
0.7160242699457566	16.0788692161578197	1.3466844318396933
1.4769946474830769	13.1520519260301825	0.9533970742491078
6.2839782037443994	14.4512411032753789	5.9254030915019156
1.8631721560596346	17.4486195597372351	0.1168153809156981
0.3200137263707487	14.2756476443893234	2.0157215944075486
4.9245897058387484	13.4586005788674079	4.9469680823464852
6.6217060386778073	14.5852446208821114	3.9068554068454673
2.9757878548403389	14.3671767441616787	4.9066554185335995
8.2698262571954402	12.4864722194082614	0.9306224362873093
6.1993198993743999	12.2860341644829845	5.8288572430788692
5.3175753894587254	18.4485428899802564	3.4985405398196492
2.7001483965780562	16.6214310913114467	5.1394917839998282
1.6978914263338560	14.8953468060021912	3.1188063755526536
41.7152597262441560	10.2618101723856050	1.8953492280524711
42.1130102121039087	6.3091472280682543	4.1178669573081530
40.6419108264128681	9.8918777697809812	4.7190352294129800
39.3694810188767264	8.5267161933660862	1.6076466885163645
42.2246856838665821	8.5210898119666076	1.8364951016691644
40.6101044273569158	7.1210958073452701	1.6246558153389963
37.5058876292606769	5.8036238680733803	3.9249949957496391
40.7686436642043972	8.1528173507023052	3.4183516394415747
16.7735182684855566	14.3568384268168785	5.1646073131523389
21.0737279301772169	15.9936194438832970	42.8090133665425441
21.7978891111634852	13.5340623205546464	7.4141798699429300
12.5519878041883093	14.3728191107610161	0.2753135136756945
14.9132691044837351	17.9688284204417812	1.1457025433788510
12.5492000984047465	17.5417062489324849	42.6120364833234930
13.7969682461638499	16.2755154218294216	0.3163253445012716
13.2742555344573194	14.9163525630144225	1.8640553830704012
18.3401674263190024	13.0480410334703940	42.7535372352273484
16.8522810321671628	15.8966371516686351	0.8909414185419492
17.6122975412581262	17.1643218140185212	2.5781141313704969
16.8366670390693258	17.9403818072827903	1.0035199013170881
12.8929290712575089	13.1928396160076176	2.3464131869055405
40.4352043136461319	17.4407637391435415	2.7969323447714936
6.5206294625366210	17.8110468653909031	4.9869298258947365
6.4456381037133434	13.6141241808937004	7.5301056815355505
12.3006573605772811	15.8270815529556099	5.8735362040838046
10.0337111684219895	13.9168244497618314	3.8000705866048547
9.5862291774363300	17.6534825475538710	4.8400555947232329
7.7873680080378378	16.4971389572657792	4.3599795018595744
11.8786910142368747	16.0285047079570298	0.7438693156262000
8.1027538936200347	17.1923939132511023	1.0823321913564692
12.6282573201552228	17.5803146207612286	5.0563292852278376
12.4094175901538684	12.5510640853738007	6.9623257488437051
10.1866275756100784	16.1478116725225931	2.2272339691079206
7.1750460227065052	17.9592451855218407	2.9245455518714527
25.1572370696369987	21.5975563778458124	5.8890818599962680
25.8207491195647556	23.3150588888880534	6.4827663562752020
27.5222508360417599	23.6939692760201410	1.3839936935608348
27.0339497087273024	19.9871298246888607	0.9355574255279838
29.6014398129701561	19.1900112905194291	3.0518176390734681
25.5130122942883482	22.7868072170680556	2.0137587457838246
25.6620101396576814	22.3320714799733793	4.2729583999175214
29.6379885607822153	22.3597590546107341	2.6855231407206155
25.9960424606669633	19.2065379183594018	2.3723942086124929
25.2372997359736324	20.3044445776219789	4.0747801666895649
26.3331440648480850	21.1371477196164932	2.6468311898575561
29.6968198460148223	21.0636830852001573	7.4974164881125294
29.3729576249413853	24.4966044901196121	0.8806588465110972
25.3498482543312420	21.2035307489954334	0.8669591083833790
30.1358213075940391	20.9055923978122351	4.2876494218956429
28.2879499891847068	25.6767732025563831	4.9965900796953626
21.9624871654326874	19.7843436573641824	3.9553030844556401
20.5886676091065581	21.0256667208188937	2.8483767274632283
19.9399685455494300	23.8770707624134388	2.2108838359598320
21.5695466867479162	21.8294025473003686	4.4824540642506827
20.7508193423077891	22.2545351064881451	6.2936234230684374
23.8589625597767174	22.3380783616868079	0.3496584335025154
24.2590734194878124	19.5313575726092239	1.3101996169388062
19.2981944062092232	20.0132857830014821	1.5892811257215320
23.4859110392634136	19.4124604086731516	6.6444539618088774
22.4864663358089132	20.9962914884840508	5.8819067031921781
34.7671738056921455	23.7739837198650363	2.3833022331243980
39.1169607796752459	22.4669420219302332	2.3362904563428049
37.7304834821674646	19.3374175344988259	0.3223874454233524
38.1512325780964687	18.3528213566559728	5.4464372974840316
38.1010933045301314	21.0432588288782512	42.5885890352589840
35.5252902009462730	23.7461459958556311	0.7138529439160045
36.6620836211321688	22.1840455548512203	0.6142342043621254
37.4696012839365693	24.2567517024992370	0.3757940146797520
33.2454894016907971	22.5400339778169005	2.6537589756795770
33.7005882510219195	23.4486922824319599	0.7632855529754897
35.8017697871776974	21.4797702264880428	4.9043469232803032
36.3614128775636161	23.3103164605957964	3.8225492763244362
31.6094232215791457	19.9779551438620580	3.8234730265589563
19.7399691541324920	22.5509502185804855	3.9698461922987369
34.5915405460686927	23.3151414242616219	4.2689180192873852
36.0309265879652543	20.2225821937850370	1.6749409783518734
33.5242843293693511	19.4691948864655267	6.8804719411329671
36.9696672198134380	20.0450754471563570	6.0961541405708601
34.7204535770331546	23.8821220561441230	6.4005579526070360
31.5002417701338331	21.4945670704303424	6.1828624038078059
31.8699228603915152	18.9080421464995645	42.5661109225898144
34.9207901147694244	18.9158278928933825	3.3661308322199242
37.2716946908171636	25.2410922544487697	41.8546136368459401
30.4724347675998573	22.8760317569127452	0.6933198200410722
30.7510937479176008	23.4070762809740067	5.8409203700446755
31.7760692335524837	22.0792498346794730	4.3528548805946707
1.3709035862725933	21.6597455214911143	4.0781972727344762
9.4499256208819116	22.9602168532254893	0.4261147995219581
0.8809999226505215	19.8594468849267187	3.5692578871054530
3.1375045221129061	21.9368983708995344	4.5176056429686398
1.3688044486855635	18.2176429249087022	4.1079385511419462
2.5608477611875298	20.0772547499108143	4.6654424091421456
0.6170142601803781	21.1934614280162208	2.1293494089932277
2.2961076726966163	22.3304341718415067	2.3222633678143820
2.6981549259976347	26.2974011939727887	2.8299763538329845
6.6357022345781091	23.9559837936285724	0.7120516618578235
1.9504742317453068	20.5862145148648956	0.8351686976520182
4.2939279325728128	21.0978197106220300	5.6237026155542509
5.9571336204100094	18.6011021572452293	1.4134811343263676
11.1993806238439824	24.2279362017795918	4.9677145025844922
4.5536092262460137	17.8172506103407748	5.4853621181855967
3.0091414601472239	24.3915119169820791	2.0068063510967105
41.5181587487004506	18.6100120606689039	1.3537451410307635
37.3416775158546059	16.5080609086892558	4.7958069581663763
41.9991056075470723	13.7726368623512574	0.7824517785516348
40.9690280239300790	12.2780254060069627	2.3399322851848581
38.1502200864908829	14.9877670699910706	2.3372745203524889
41.8267764643032436	15.8152848388283100	1.0870635608780728
42.7372058448525109	15.1117901747513432	5.8763894127525864
38.7540167813672554	14.9066515126780441	4.3260254702121621
41.0104163214511743	13.7768061000752056	6.4695873919993749
39.2703745751985593	16.9170553523354350	4.7559883112855887
17.4983563770887152	19.4400636242878271	2.1104965829057649
19.0452508540684740	22.0611674474474242	1.9353752169950311
14.9223888197339445	23.2096773297094963	5.2486559443667344
15.9212403743760991	20.8189429901554881	2.6196746560400368
14.9009828767489729	19.9434092946113815	6.6206799625402732
17.3408082336091987	21.1275983218865733	1.0731491808682592
18.0060255137764784	23.3787514365030944	1.2721724166715522
16.0576140933965306	19.8397634473575444	0.7918842887359590
16.2249255237106631	21.7349748852537203	5.3192962363376992
14.1725440743625715	23.4048657693374054	2.7318028500719262
18.5706642993331172	20.9175069684987136	3.2636455499228272
16.2296815173974558	19.6518983740819593	5.0765830652168153
16.4277805313804777	23.8765563093314590	6.1749399682602544
38.6927459665041553	10.2596810136049381	4.2267055668915150
12.4604526449344952	23.1441379315124678	3.8984522950161464
17.8545584655194141	19.9957715613171203	5.7517404022602276
18.0842876642808363	18.9575118808253933	3.9652258311838042
18.3092084449126382	23.3394575806731943	3.1527473413488694
14.3820190382524373	21.8223500243154689	3.9146746300947322
7.7636986096592953	22.1695980372211423	0.3382203498150294
7.9188863893397681	19.0213661530015372	1.2165500073494417
11.2506850083804189	19.1136659137290721	5.0918272485582108
11.7404854791048461	17.5755678524258983	1.7107279344948787
10.0590627734989138	22.8207881915324329	3.8686168512581709
8.1915055729347319	21.9725387554361653	4.8426955213232636
8.3358793848782060	22.9890913832151504	2.3077466235900648
28.8596594967407896	1.9128901053401988	4.1658932781459237
27.2103048117620823	6.8273652299547285	3.6164279286788652
24.3690413092650289	2.8324385780149406	5.1973563177283557
28.5719537896410714	0.0589686297114423	42.5263586131383917
25.7353311356427916	1.7867261935232328	0.3792838599752673
30.0478682399262418	3.2985603374827321	5.3130519337737558
26.4533044994215842	0.8090894975641399	2.0383324521123152
29.2645421168902118	1.9734605225964317	42.5010539573029931
26.0231400996939826	3.0983795897222524	2.2068039088030291
26.8678890830321713	1.9638388612805162	3.5691116088141737
31.0916390823406203	4.8119010619339209	5.7251268720474329
29.9977771561065580	5.3654160566772724	4.3914845610522377
29.2421999422919789	4.9048966742867357	6.2861309521926687
29.7340938383779374	0.2705350938742376	2.7970905329395821
20.6590140382433241	1.1765547436160873	2.5081783255498236
19.5122556124404909	2.1190572781955588	4.1494335322132763
20.0588192713697531	5.9126146496716965	5.7284879478068476
23.7140887669607991	1.2911681710007281	0.7699671343093791
21.3919224312367895	4.8101532976012358	5.1313928663200761
22.4501979649809940	1.8130933409801733	5.7086222961427575
23.8502748945221512	3.5957544888804742	2.4701453929966219
21.9765800215233611	4.2140176829948128	3.2499953026946420
20.8426718679065353	2.6157258975940851	5.4862826068946786
22.4161116070861262	5.8203338115690721	42.9267847601069761
20.3715848671634312	5.5473479896400395	3.6345942105108198
22.8393975980306969	3.9498440418514984	42.0933401920205483
34.1749280585979918	3.3662898667994892	1.2171830903706506
41.0746006741409175	1.9983791425029160	1.8683328166447111
38.6678253878713392	5.4394948835420989	5.2321526906049556
36.9020872909166826	2.0719519265225852	3.3385576247764583
42.5140746859188781	5.4743930706922077	1.7271122693630558
38.0873906162016667	6.9229305132135792	2.0528742260788784
37.9148159142152608	2.5698345240364104	0.2006045278337358
37.5473211098767408	1.0987028408846558	1.6467656400982957
31.7991949331247952	2.0008946897061555	3.6885139827417062
34.6598710484312349	5.1191476298587881	1.3409819814817141
34.8003190340568409	0.6002135878117216	4.1929805150997774
34.2014501102525230	1.4778168682845421	0.8909686090302472
35.5934361645449755	3.5218643404227259	6.0969987258921448
24.0498988329765204	2.4378976137641715	6.9412137659855366
35.4704437519830691	3.3406653582411101	3.8912138263963203
30.6719387142844973	6.0477427691068320	0.2008546783471930
31.0735091866847029	4.0508739980048283	3.6848748265575990
36.1128238172480138	3.7060767618491557	42.5899106283631284
34.8096659368945467	42.9376980763862122	2.2050494159148686
32.6896514594588581	0.8737077989241210	5.1702203151121102
34.9733315108423994	2.0370556332036118	2.4441959339581660
30.4973469398714983	1.1861239767391674	4.8265348729025241
26.8444131630266973	4.8981855828812666	7.7465999123653377
28.9601564355092478	0.8679342738820374	5.8025180629778044
27.1123537427618722	4.8157795633443223	1.1916180163392396
30.0739154466288525	0.8655286862186841	0.7047089167618101
3.2045100653608727	3.2895055857238913	2.8190377782881164
10.9722727585296518	5.0794947536597626	3.9637615898973291
10.7987549622795918	3.2639469419218337	4.1265915871412249
12.7150108368952850	5.9617596040679617	3.0587826291389884
11.0487340605002053	2.7399582465138939	1.3228928795284314
3.2990569149673674	3.2078948274793917	4.9479062620148300
42.7419807788931365	2.4489611331811103	3.2293415932013025
5.6113424003030872	1.5963241281007861	1.4069643252838859
5.2597223682706131	2.9463306549854336	4.7035056571038902
5.5389984289887515	2.4666715273251620	42.2595987467134080
1.9232355419471860	1.8743256911414508	3.6942983733233121
1.4309696106806375	42.7222249355048973	42.6306255976644266
1.5293337505365052	4.6354834646788836	5.1365420890462108
8.5635721022367015	5.3648224060338539	4.4454674570297223
5.3625419201206297	6.4908860579099201	4.4661988122936211
3.9830043711195167	1.2752678654390546	5.5392670795900063
2.8281224304527095	4.7840643673246319	3.7429855749771823
4.5456123864921416	5.8221258340808939	1.5280943414033001
0.7040172008246259	0.5808898121820810	3.8996950691549643
42.6416694166438717	3.2813040090966679	1.3849950768677435
3.5545384492633412	1.3345280443136103	2.3765815027856219
6.0654499283763279	4.9804310696207317	0.9203023805244743
2.4898460625213290	5.3622552063694231	1.9327451585547293
6.1367222102317758	4.6271074950116402	5.3584204742883372
1.2836412988204817	6.1697010188331918	3.5345826459769207
3.4294191997917083	3.1711733609254038	41.4142239186624650
7.6317336395499753	2.3681203286737897	2.5323626478485459
21.9732199078630828	2.7176228196122634	0.5489278054223348
19.5541233999549355	4.1815257061843525	4.7845391619687829
15.0538613067200853	1.6956435420135079	2.2733404638175099
17.6062964092795475	4.3772608096662964	2.0065726507041362
12.0238675353290390	4.2054898072394451	2.4753154276612208
18.8014644768797545	3.5476276385543106	0.2746865041276748
14.5333110730894415	2.9273258042849881	6.0676162300578049
14.4455209231418138	0.2579645509191579	0.5875263961871788
16.1506968703338813	3.3888325402575190	3.3536368243926344
16.1849509148538040	5.2595197899808426	6.5626886440242123
18.4736850967003399	5.7152596539196363	3.1725401739222114
14.4994526704050486	2.2569751539255467	3.8950610389201694
38.1569313904634271	5.1006406058489864	2.0892152668031279
6.8575164130379473	2.8227571674140632	0.9242166376688044
8.7664910313902400	4.2234935385312893	6.0963729471035029
11.4604547827075063	4.2515557886445130	0.3400991729868065
9.0701302239649770	2.2052338621532317	3.7174886838044094
9.6334728970107300	4.9762342082593500	2.4673277834963967
10.8049828659776974	4.6452789534513093	5.9658156025371145
7.4845278394980737	3.5465016059238712	4.4279599511147039
9.8479803141569899	2.5834827877949920	6.8113756704513788
10.8947637322942867	0.5998672304958512	6.0966768649655778
8.0852256044249735	4.3201420522500324	1.3290561815667015
9.4686271644310764	1.2595620218695280	0.6728535240325167
10.6357805341499425	1.0582765328042030	4.1469856686969049
19.0553612438591955	9.5748811664027258	5.0344465080580907
26.8064804618270003	8.6392768499651638	4.5450917348640605
29.5724767584826616	9.9636486621636475	0.2634411842907523
28.2242989657947838	9.8486331453054294	5.9820954323041917
27.6960797041203222	7.0445003044170713	1.3835937442190447
28.6923673273564965	5.9205772639640646	0.2761661525104724
28.1629928949847432	9.7267124177751292	2.0936567657576459
28.2023709600015415	7.8373690707608406	5.3770733445946606
26.5784426701098369	8.3446433663873822	2.6438610888167631
21.8510149852580646	7.6816603938947532	1.1704142432948312
21.8899556461212654	6.3836152706828937	3.0412026997980988
20.8717398764855346	7.0812527430369139	4.5472471933718568
22.7170721123358632	7.8621456550557918	4.3533512660475910
24.7761423820207796	8.5793720434279273	3.8807231064176020
19.1563366975181850	9.8924119607841661	3.0987694741891700
23.1099820243978584	8.2238460341149491	2.6299048080920073
22.3497154979938770	12.0570237352157594	0.7507392938592818
23.1861818111456230	11.4258104498878978	5.0583231669869990
21.1015375498568574	10.4029042397306188	42.8505155998726934
20.4451798444393447	8.5384438917184777	0.4150524181037706
18.3069721534384371	11.4449536457531149	2.8047756737744391
20.1576444841251963	7.3111045878253744	2.4274007699615181
16.1552658799134754	8.8157942855524709	4.3369922270321011
13.2948178720514800	10.7194344049742636	0.0882219699328591
12.5138833468487309	10.6474064953435086	4.9506301538353261
17.0366831215511318	9.8544898802568301	2.2221651627883316
33.1097821482036849	12.6256062641500755	7.0702993047926928
39.8599498839574977	11.4724260560097235	6.0542773795420182
40.0036400772625882	11.7633637481210229	4.1753589533380548
40.9908387837118653	8.4710173373065967	0.4977212400184440
36.8809772738604309	10.9380714461807749	3.3263453894363502
37.9937739359795472	11.9074732590942691	5.0129810044084371
42.7966683419270382	9.0025073535650915	5.6580645446784033
39.4424998243701594	10.5330697932948087	0.4394919645714576
42.4745462267978127	9.7633270560550827	3.7850978527355785
37.3043055974473674	7.1572990688533684	5.6836808309339633
35.6590105877813386	7.2376644494034066	4.2599275041526647
35.0546713836559860	10.4694275005382700	2.9730162095009169
33.6185017210678438	7.1705429692117724	3.3430182178171060
17.5105320674394314	12.5910035746308893	4.3237425468168267
30.3101677557686209	9.9924905486090534	5.4878102401291331
36.0142888096357723	11.2978003637074202	4.9692852047943790
36.9684593615390753	9.3373929431285703	1.8029221384698442
35.6407939989611506	10.5109489455399086	1.1798356471982883
34.9022054823929508	8.8341378477604078	1.7968484718737689
31.0280178355133138	5.1943743176816266	2.0886593644595508
31.7172942729780729	10.6338728624352434	4.0019594695808474
32.4690775835183061	8.0844645521525660	1.8120690117500191
33.3912555086382739	9.2233278469041213	3.2083260249631227
33.9539746034883834	11.2709430404317761	1.0265661227819902
29.1560745760210231	7.9016052190048276	0.5631741558382930
29.8823560937202330	6.6819178572906575	5.6947526040899978
4.6537656422172189	9.8960564599534724	0.5896546157689883
2.9105224037811204	12.0761725167268068	0.8182765181249372
2.8901946303379118	10.2099546079251517	42.9974603576768288
2.2240657927113601	10.7908806030861104	6.6753856336525565
2.2753846433224796	13.1997514019625601	2.8193427977688459
42.6611505669946496	12.2797818241882055	1.6688853018724705
2.9111483893984307	7.0972662491837903	2.3369382168953239
7.7481993494777166	7.1596274622466067	42.9372409548972982
6.4127202214089332	6.8476043401664812	1.5262193890439661
5.9301569481151040	11.5159755581483374	4.1225194897733015
3.6861100193697203	9.0949077147115744	1.9296593374217408
4.0867796563171011	8.2655094861765974	3.6812693836591679
5.9278070742329039	8.2559337511835817	4.2081753775926058
5.3760954129358858	9.7747720140662633	2.7451094010795818
42.9459537037155172	7.8696203091960157	3.9867950390878790
4.5233094771682687	8.2498732746311276	5.4568158831517062
7.0314287786501515	6.5846893644607087	5.2630963935989028
4.9089938545429384	9.7788646017155614	4.5397053541134111
6.8272716504468427	13.7092274191312491	1.7754228707690562
39.4856062466489277	1.2413117611121409	1.2275136497767296
37.0482394562973738	2.8640093691283766	5.1657832128209069
36.4999121419773047	0.0538500107755295	3.1014812365413822
41.6018595579899824	3.4615281531292217	4.8854794014559726
38.1044448843766119	3.8083773108387846	3.6746531767917894
41.8715560825968183	4.4853740924093648	3.4401659173595847
39.9108680151365292	1.3128594690442823	3.5392244817333278
8.9476386260233056	7.3674953803746916	4.4934582509416519
13.5935613088522658	8.9561023303355061	0.2016716170319452
14.2947438617267810	10.4233468358076280	3.7899385799740397
13.5494392224520279	12.3165053673555782	4.3396139935316862
18.3036425943644758	10.1851645897817082	6.5650862208096417
15.3253424870371155	8.4134720644870100	7.6656050285276489
17.1411356855055104	10.5337351430627315	4.8537982373710165
18.6752703087668337	7.8732402436577660	3.9497752570864271
14.8123761019927151	9.8491550443491143	1.6756664822434550
15.3663069116194819	13.4678489590660657	4.5493483014558977
17.3186303391219809	6.0553819198874645	1.0088230490913004
16.6555039190854224	8.0029211742078861	6.2688300989147567
9.2924393155789602	8.3418251350000521	0.3797582968176980
40.7115438473576958	21.3946663527736867	2.8380834522385987
11.4200212550646381	12.5197196938674260	4.6076363265902041
10.9389212494197885	10.1230200169201865	2.6668909891793038
11.1106578377768432	10.9557719574061032	6.0583236346826110
9.9627430628875793	8.8819387524806022	4.3393085665001587
10.2926403174344507	7.6946572591593476	6.2148446762839500
9.3744619268581868	8.7112937828754244	2.6046892427023747
8.3184514882082929	7.2614506793768587	1.7804843325017063
10.8974953740011244	9.5820431624615292	0.0527224297803765
7.4223987287919932	10.8827322566320550	5.4763264768408320
11.5906426138941416	11.2823210715269759	42.3765220767108204
7.2717202110989003	6.8131599132901455	3.4899794659537173
18.9140745517341244	41.1487160059481525	2.5601493400634738
24.3685210928480309	41.3585837656361548	4.1040265086765420
19.8217580269434883	42.1127912227052406	4.1848725437606644
22.7904888019089178	40.5087821147141227	3.0508967654636701
21.4931225240769557	42.3498123890621656	3.0775884171854053
23.4107700265234833	39.9532515696601891	5.0487967123912370
25.4577336196064365	0.3742865849310553	4.0106369095241883
19.4301382315061808	39.1009728560737528	4.7495355790186728
21.7834627013930913	41.3887269965680602	4.5932340867953583
24.4877926946003868	38.5137248296576189	4.2169589178211426
18.5108697367809611	37.1390591741288105	2.5222430444452137
19.6341602914544424	42.4950647657020042	7.3365033346414954
22.7709565107080252	38.0699856451251648	5.1700440085206596
22.3046746741725848	40.4729920999245607	6.4759621704523482
19.7655785832787991	42.5835282576210901	1.8563484974932096
20.9524539457485837	37.6262922507942008	4.0111689868811355
21.1484340099262660	0.7716733632262911	4.2321047364373126
20.8111579391285204	37.7836473662208476	5.7863186695410596
19.3316804267302444	35.9879105348889610	4.1624380505205707
20.0486937174937374	40.7227281506978116	0.7315140854465070
23.3175967548097489	38.9154874612006338	1.6704570288886988
14.8163778518567053	37.7754497448610209	1.1085656781791970
18.1875794427562241	40.9339558232645686	4.4207574914927141
17.6787449349356365	39.5003826970636140	3.5016751872666112
13.2561470334696967	40.4543386730924723	4.3112927260542060
16.0048424556823718	38.1975682803290084	5.9631277724080922
30.2939945577472720	40.5206093835931611	42.8371419944736616
31.9326557636422521	38.0831490636046723	5.0150688709979567
37.1358257440710702	39.1440790489392469	42.5445580952332065
35.3314600280161812	42.9912418210713696	6.0446381588183344
36.9773655219717838	38.8794901975415925	5.6425693432388666
35.4235294430408132	41.8720451423302862	4.2015427810065020
32.2145366852074844	39.4407708858507533	3.1622563757554056
35.9912714484636425	0.0871028142735564	0.6454442143028080
36.4985982100307851	41.5615592494947492	1.9505569119107491
36.6906084782874942	39.2464173484319616	2.4965849329004235
33.3857359508270548	40.4454077784108250	4.3389306609070406
32.5930924882626982	40.8715613986061399	2.1326416189235742
37.0713182473213507	40.8604744279696419	3.5310818941582109
16.4986233849888428	37.9033185671327715	2.6859972973428339
31.2911488966305988	39.3853649161193005	6.5842145299084969
31.3690728450627176	39.5482278262174063	1.0119573207719468
27.3788026444150354	0.3856273873001966	4.5424897450258159
29.2761506030747540	36.1927628578393481	1.5810616137508124
30.5947384583241160	42.3565925437369373	5.8866109048242308
27.4457674861885792	38.6134103374773048	2.8151343982244472
29.5062509594926325	41.9953981123654501	1.4778043758202541
29.9214631611794672	38.3260880421172772	0.4076554907307947
27.8673333584936529	42.3097235049796438	3.0685643189572960
29.6446101076599398	39.0669276349614094	2.2812989430369739
25.4930431038527523	37.9183985376931503	2.2212050518160247
28.9780543543840956	41.8110573422226537	4.5870556330737653
41.0570391151711931	36.0759248215232731	1.5430014576397897
5.3220761129078857	36.4874791162191769	1.7599712959017708
0.5889665953524155	40.0563457749923444	1.1460303223117907
4.7476151690148347	41.5305385972542638	5.2577091512984424
41.5187265041132960	32.0526094413633587	2.0302266111134055
35.2276592082319553	35.1890814149423150	5.6372389217747054
39.3262361288089792	31.9992184648099567	2.5434501463711467
38.0979620666033654	30.2163003593554862	2.9882921803074081
40.9607999468019983	36.6106583484466483	3.7897091673013703
37.7130960480566699	33.2999082959451442	3.0378665142776913
42.3497624951629632	35.0588061150794772	42.9999696683363837
38.4533919639562001	34.0226846630075528	4.9849375475061599
38.6436766978700632	31.2644790846007474	4.3661012047959478
5.8929059895833396	40.2123312535841251	3.6268031797408780
39.6825436160605776	37.1039621273604538	2.3290340931927580
39.0216033662981729	32.4904653146069862	6.2626407189638202
0.2257474515719544	36.1002897367883264	3.7615256353228204
41.5906130288215792	37.3247237144537749	7.2196554290925450
40.2003291704780565	30.4437574256197010	3.2047261594576852
39.5883155196855157	34.5642029286675196	6.3005762719691800
41.0287606079527905	35.6783434362568883	5.7328668676326737
42.5602259293562923	29.7145317180861213	4.7683034917130556
32.3404793668286601	36.0593387954232725	4.0667308361483023
32.4374672562595094	34.1099343586788422	1.7280543296036479
34.4335426955882724	34.9501130208995434	0.9989357774779456
32.2472021233230848	34.0587628485831786	3.9093888052933257
11.4408286340651841	42.7047955578038696	2.5546445134768900
16.8974858174560083	37.4950652170362630	0.9855227118834929
13.1027032891927604	0.9996917890489331	2.4442936244165705
16.5645777507053999	40.9186043792446625	6.1273244666641649
8.9321085185399607	38.2878130653927968	4.3000859247457894
12.8135621254112344	40.2772548809668578	6.4551955162545624
6.9225186229173197	38.6867953666655353	2.1112517301669458
12.4620839368600400	39.4200058960047031	0.9281657903640514
7.7830318306326625	38.3796309340485848	42.9526758560615320
9.6179817000955836	0.4981873534382860	2.5519165265994261
11.7877233737400466	40.6026916983266872	2.7599581948580156
6.5000309763172801	36.6494998827297067	3.2739183809727423
10.9292477423635166	42.2028180836710831	4.2128694817864432
33.2353658818953051	39.3878665876372551	5.7453591951495886
7.5130040986932300	36.9839884812180060	1.4111127087332065
11.1638219957513147	0.7239916963786694	0.9993701069634878
0.2109173784455912	41.6738826208167055	2.6662833247706623
5.0041575646674836	40.7160399756236089	7.1900125170873208
0.5014764501151454	39.6713240470236244	3.0003464888724509
5.8434962104690458	40.0767296224891609	5.5602070488192998
5.1073381859962810	37.9000826400267243	3.4603612443753176
0.9555766479984278	37.7571343106600992	3.9547640195049865
2.0154091981363753	41.4317944618841238	6.6374128265489531
2.4394825215777587	39.6380285454509789	1.7383018431271269
6.8785102142034731	38.6271943923503329	4.0260674646000751
1.2386730485010269	38.4896719673238294	42.4363500620753342
13.7629406737479716	5.6600306300832521	10.9273330810556182
21.4392355361834674	5.0995784479033732	12.1587019641860223
20.2785210346654807	4.2308033519806107	10.3050377220017015
22.1344035125445764	3.7318050324186482	10.7348110508265009
22.0013138458653970	2.8447593789078627	7.4944198400950093
23.2016371855310908	4.1552738450925002	7.9086852108833998
19.7069385462523101	0.7879918251884382	12.2681975641057672
24.0133001069852696	3.4844889947219491	12.0190826777195703
15.2185931613813423	2.2743127752385677	8.1386485527357610
17.7805966947640641	5.6601227713216424	9.1315196515632113
16.4876208742075789	1.0120848664252482	8.5379499633190381
14.4933022852218674	6.5079852652206185	7.2663355628744419
16.3115626913469889	6.7104454076821236	7.9935592575091272
21.1466858017937689	4.6394511087019614	8.4425799013275160
12.4210516278165723	1.4294424436941267	12.0051378902385117
16.1784222739422354	5.6709920346803067	10.0043802509608337
16.9437759785879756	4.2938440350517553	10.9267729676990637
13.1247306906428971	4.1080872141843852	12.0222805439937481
12.4004919167978223	5.4391374927900511	7.1843486864563175
15.0928791942024425	4.7067360393604396	11.7756551918588528
13.5775290038593077	1.5587613918702998	10.2669091856835557
12.0455086874684412	2.7940374148603349	10.6006958872936270
16.7917073382231266	3.3757357969398933	7.5858342396508647
14.2288411762171254	3.2753680380780352	10.8179240704391049
9.0802349909907658	5.1020090356125234	8.7521371100847407
10.8304035517334896	4.1242860957135088	7.8308051351662193
30.0461219125300687	0.9790257978395169	9.5660698770276831
28.9248627903193878	1.8635435287593625	7.7573495256448961
24.7689117143986444	4.9147186094253943	7.4991659115148250
27.8299981955033786	3.9882488084096184	11.5427040077660674
30.1326390427417614	3.7334159056893483	7.4241197751490411
25.9521724559429785	1.3600316673603565	8.2033998543605762
29.5394716421941190	5.1706955390571627	12.7865791821315824
26.7653521750890349	42.4468949554979389	12.0401462275399300
24.9931233180380090	2.4033549466566795	10.7400987674905704
30.1838518236690589	0.5522625362588310	7.1950073386396030
29.0429705245918726	2.2883606624794233	10.8206823505469369
28.5504586949043357	3.9652408996197241	8.2934592680151642
25.7303831343167388	3.2603354766254791	7.0639319786644696
9.8539619822511426	0.8784376134667724	10.0458636164729480
26.4115621413279804	3.7031346896266282	10.1087357077330928
31.1308510566976437	2.5083349905325387	10.5444013740974540
21.0494180430897693	1.3260761875486919	7.1507003600712364
21.6699214538589722	1.9464952579016421	9.3645934734756757
20.4450849775285874	0.4843143776610872	10.5792930252218564
22.4878943090001293	2.1913149928703022	11.8695126503353219
20.5473515060641994	2.4060102633711029	10.9693805512529909
19.6231630503655481	6.7466766474638185	9.4574052871929730
20.5955766928575024	7.0216470817410785	11.3915108122684643
19.7059445600950625	3.7987137003863420	12.1131574759781682
24.7913186850681058	3.1089677039085619	8.7558153541264971
22.8234925103208965	0.1260585275545767	12.0547447694663941
42.5449190165924733	36.8902817716833127	0.1398994078899388
5.4380443627879993	0.5692926108316838	11.9228792728784470
5.1573722218094922	0.0025405935725757	8.3325531855745805
2.1238331123662149	1.4702659401295419	7.0588662840301959
0.7117306151334599	6.0022153299832857	7.9662396218364071
0.4091517003682980	3.3931366356725889	13.1343389364881382
2.9172841889442593	5.0889003948652478	11.9818949078515065
5.9903481608328422	3.5035951170810518	7.2571322429291909
40.8881650612621996	37.9777750990324208	1.1950448367822519
37.8588552976205861	40.2451433670325045	1.4282004246478228
40.3397233454039537	38.5843341444049202	3.2970029895094353
38.9715778118328799	42.0684616389446759	1.5443905277571304
36.6222085116823450	38.0295212693010569	4.0800769234195826
2.1189754848030962	4.2745747612310083	8.7210683680987291
39.6608574728895036	40.6310857990480372	2.7872433102843863
36.8907632860714614	42.3361450527311334	7.1185336176422034
41.7460419854109972	40.2689460949922449	1.9984351074569067
38.9589756066350361	38.8280340277201219	2.2232638484906029
38.6671141574274841	38.6333354310518828	3.9963870765286136
38.2650835434117269	42.3018777274420827	3.4089749994824308
40.0060379863754392	40.5288713374515339	0.8470317900933925
38.9549532794311446	0.3159734446875839	5.1221104056161471
36.9587772224012880	42.4664189714511195	5.0341757884038962
38.6828043707060516	42.4170958611201527	6.9659480438923307
42.2349987432755825	38.2322712760565437	3.9644608224858335
42.5647536862511515	38.8079047436962767	0.3581353976309188
9.8213560538717868	5.8276940804510948	7.2265370219870526
6.5826304517852767	1.7824544833800244	8.4347595134425184
8.8463592885052389	1.1743086180484774	8.5371504688646773
11.6663419222371427	0.0185104681838335	7.9552528358308141
7.8652962331837726	2.2995361533379377	9.6471290980714883
11.7993297701587725	0.9221937340639451	9.8060745101892266
11.2636795092816477	4.2343495544317999	13.0012326490158401
9.8507580364212011	2.7832294379331395	9.7375458121422440
7.1850131568239348	0.0447067676540967	12.1307421829711792
10.8490606508979290	1.9408476360500588	8.3481038999075974
7.9157558857310564	2.6986676165363246	7.4540526042120083
7.7251415633980391	0.1602083988183080	9.5809205115348774
8.1868947193111250	3.9865119500214283	10.5231305894396421
35.1172245130213554	39.0218944301504109	4.4357203778171019
2.3151640332411763	0.3174230077490389	5.3831633045764269
1.0130327154610514	0.2545533531688834	11.7506674289714415
4.5731064409230440	42.4086520996918921	10.4829457458363038
3.4820890615607745	3.7743420426588714	10.3459195472703538
1.7223649601689852	2.3953694485975774	8.9181730117685927
6.2708359830038605	41.8473987511675674	11.1035442146038399
4.7149687550012622	4.4166063747603825	11.9187013467824201
0.0465908139546449	1.6135037837511113	8.1114775225162301
6.5695433626207791	3.8198467641081808	12.1203499075231385
0.3082454860008432	4.2456955962819647	8.7765913394286272
6.2354394630135666	3.1589966748590808	10.4451897095671171
17.2909299689938152	27.9600932559844821	1.8479714863560781
26.9304489085415710	30.2134544817148019	2.9611600867657346
25.4052862593867061	25.1286420138433826	5.4745727726690099
28.8382960267980906	30.8328638597046982	4.0450691632806519
19.2477237231366018	25.5799625751328819	4.0441412506821752
19.0550322117940674	26.3069780327103651	6.1582066946631651
23.2728109495765949	25.1436551260442442	4.3571680379339686
20.8705667334712750	30.9958030831136746	2.5258179917476564
21.4575454568224551	25.5367471027256734	4.1210752263721577
22.0093717214538138	24.4998262816428465	2.4930607586838494
21.6043011532450180	29.3972260624975306	3.5993435315164084
20.5193675638084478	27.3005949048853509	3.7218447428032593
22.7670733390285314	26.8657329687149158	5.2965993063648948
31.5005898565285811	26.3467675241261219	2.1927682029498383
21.8859857048108175	27.8862249773230992	6.8965712578449061
19.7095153049483258	29.9803879726648717	6.0824648300385231
17.5970487444111860	25.4680864507246376	4.9038566223635769
21.1410333628186748	30.2496587867696505	0.4894433092226053
22.6694430688416269	29.5841514342790219	5.5765586666852682
22.6043893530594282	30.0731243627398968	1.7638864184265581
18.7438035991121907	27.3142663950195228	0.9363790508316372
15.1304073166457496	25.4803385561195732	42.8648938088191187
17.4509531130761886	25.0706164593989342	2.7594636774024575
16.0206588423180101	28.0790607860728549	3.1077519022096896
15.5803218749651791	26.3197976962599753	2.8402766072726386
16.6030799007671632	26.3213508781832886	1.3323357343982296
25.5277607580161678	30.8845041860705294	42.6600080727800659
31.3088047992424983	24.9929577297001906	0.5131143243192439
36.0559749820681077	27.0051709703075389	4.8734184145606125
31.7709923287421958	27.5861058240122645	7.1999991500487583
33.2734788597101598	29.5069185441127608	2.5082744026845667
34.7925854056270580	31.0902791392385609	3.0878708682820752
35.3818812905019726	24.8427773236553548	4.9637756846758343
30.9125777350355015	28.0085664369623899	3.5168363233531585
29.6641588307641157	29.0804493749943305	4.5791802806585205
36.1920734479755168	25.5923043931899521	6.4543211243982412
31.5048666096983148	28.8308975958813072	5.4532177532981176
33.0436487197171189	25.3023764080137461	1.0516020742568557
28.5192724022912394	30.7850301629818652	2.0631448147670195
14.2478039592062071	29.4830510165381803	5.6150458257934561
26.1201755932967927	27.5167491543054474	5.2984133902505999
24.6207850891454960	26.5097433050127123	4.6300154357076071
25.4263720063050762	31.1554090291499541	4.3746217182035432
24.8492081333258739	30.1100406195275170	1.2249102353818713
30.7719175929885154	29.3127439871151907	7.1733620789833257
29.5020335020052435	29.7749992753835500	0.8960999609691901
26.8759493324256695	28.3748467400842443	1.7194610212363057
28.2331155172184012	27.6414055150647364	4.3080250806719853
27.7521618056245103	27.3430191852223317	6.0581867792729627
28.3940831124494970	24.9306913087561099	2.7561871669622775
27.0244092292396942	29.6602258470426925	0.2393099513849863
28.4518163744394847	29.1335541080517295	2.9064130903509198
5.0244025219389776	29.5549067944292325	3.9672866180390627
9.1728870636395481	30.0988429354337939	5.5474610437816523
10.9477309058257148	24.2774255308308682	3.1023727699943384
7.6200236974306934	28.5606675368192739	5.0909764690426877
10.0219935014965209	29.6669815444458997	3.2602352036186977
6.2018783663338759	27.5001961276590130	1.7764455036632170
7.1912818711996440	24.6736080424805202	2.6489629206329366
3.7327963158585624	25.9325853400177877	1.1642635934496222
3.0731079266631660	27.8619684836681429	1.3439436402775449
0.5035100199123040	26.3832019399941231	3.5603813461767957
2.6565824213801985	28.5516989794412908	5.9892530368903634
0.9075157273538667	29.8695646921556666	0.9120648086792302
4.6250609750367477	27.6723160446895839	0.3167726522529846
9.4164207477776873	28.1751696987325602	0.3609564324444454
3.6665493144173813	30.0182478498064746	5.2106182747651371
5.7442914079185732	25.7256789496169738	2.0566830721196769
42.2087502321357846	25.6031099521080314	0.5871575400331129
1.9530339418451359	25.6413143241432628	0.7307690610886189
4.4924693709627679	27.3630761331022789	2.4804646060678586
4.4878165279286009	29.2475353253915991	1.2849245153951885
3.5930239655077441	26.1678315908684418	6.7315898065241173
0.2535116829051047	23.2173255969241268	1.4540149652756327
37.3796379767687910	18.9157121663445693	2.3332854135013834
38.0853314205679965	20.6743779101710139	1.6098530611912267
41.5813158608385010	20.7630371229585293	1.1950453028616792
39.4134544269780704	19.7004609435097109	3.1652947483619500
12.8413170115788375	27.3094677907538212	0.5673468132476073
15.1560287571668173	27.5292484414569536	5.7065699153031382
15.7156124252134113	24.6919747052715230	1.7236597106795468
13.5812082458540058	26.9705698636798452	2.5066802788815714
14.3264966798374402	26.8023022426037336	4.1668424004459448
15.5147951361848317	25.4435707248178744	5.4205836171551001
14.3130743993420886	28.6400001460215421	1.2105821946644748
6.9826178048791565	25.2257968075006112	4.5101840035569509
6.7774078328391711	26.9490474600301475	4.0300665010155923
9.0058639674326848	28.0768313926986153	6.1670644952831637
7.6372799003547485	29.7044121545789821	42.6068563781916225
10.9495301618134420	29.3446767803053881	5.1106455037598257
11.1144892999286444	28.1679381517161040	42.7486125991104089
42.3429059970450865	28.1515257312033711	3.3146009222061044
7.0198834654213522	25.7676208709986305	0.7186164364016402
8.3337567015122449	29.8404115885234944	1.8007018181333296
9.1730265788634266	24.7312826600633109	3.0353125442927111
8.6132352513018322	27.1054192577542743	4.2802011006986298
7.0257914153172782	28.8996863662866375	3.2092268738585759
7.2924832565089304	26.9224371591814808	5.9370311590353833
6.5736033118635877	29.5724762642849193	1.5046483504739796
10.5336973571575037	29.5158981204173934	1.5361601042351216
10.6251226053944183	27.8245456189668303	3.6417447841607307
11.3646767914050741	23.9976484554691609	42.4784855656696436
12.4600510654267911	25.4639709632953632	4.2516882459989658
10.3435936795203958	25.9143654666726810	4.0275843934854798
20.7937976052356248	32.7672982549853344	3.5628913987745086
18.8490119081478404	34.8462407929760332	0.6660543707602401
22.6119331144647759	32.0000439372571108	3.9241341622968826
24.0559565570372200	30.8967141328757755	2.7374150657645071
21.6673799802225489	33.4859287742447052	5.0785703591025744
20.9239283189843164	34.8506636802759715	3.3529254084585949
22.4091097864789432	33.7898584173515957	3.1901084796991719
19.8302577235268842	33.7944615139942854	5.1695422347848661
24.0446349034731597	36.9784611727947450	1.1793094763203675
24.1083360853359707	35.3414628652902607	0.4392738352720607
23.5873966772165815	37.4744457510042110	3.0149780963332562
23.8364905357071244	34.3113230754073086	4.5888753963653013
19.8197240830260668	31.6260231041851902	4.6170712815685562
24.3451759711023001	32.8149502599896508	3.3206541586935803
18.7461868539472505	35.0669912256088878	2.6787017144110781
23.3151232281822232	36.3511526366264590	4.4479634624778805
13.3366774602896641	33.2786327796703603	2.0775912429457053
18.6543935773737175	29.2833046379492536	2.2699665878784407
16.2896554099876170	31.8979247933907004	1.9210249925146556
17.2368770823630904	33.8913790591226487	1.6008681731730416
12.5595312445551137	34.5234579605369021	6.2381406728110198
15.7349005250322520	31.7270324884917123	42.8687364941336355
14.7606515556798499	36.2276384472576041	5.9968991491649231
15.2609820530706468	31.1662551234086749	3.6008196784975461
15.4827772729972448	33.8309184834407262	0.2365781231973816
13.2964736797443699	30.9451023152723117	4.4743532174172982
29.3066841531336166	35.3451368116158804	5.2269801074149962
36.4907167325310695	34.1675044169660822	4.0469712318327860
36.0379467734034407	34.0102197195552520	1.8824292726461447
34.9677979200709785	36.7928837435946647	42.4744567243855755
31.3432409329412991	32.6423652662760873	2.9472464935639087
33.3908202848040574	36.4563965862189363	0.3261385109474244
32.9897674209949017	34.9466930909312268	5.7034347846417655
30.6965710970508106	34.2866317779406984	2.4219283024095852
36.5710743222408041	31.0596207914164104	4.4921482178925309
31.4618623345107515	35.7558036084920801	1.3627791388192299
25.8141272239546815	31.6037653530206839	2.4296963494848809
27.2370603903415116	36.6698564828868214	2.4252993312766087
23.6865740238901665	34.9666220544665123	6.2665063727317056
14.8563276909655659	31.4609751277406176	5.6506293857715750
30.7195252672546708	36.5136559849023996	3.1500482985317428
30.3340478421581885	34.0159932405867806	4.6350377547906572
27.5759920439136650	35.7505060128024041	5.4758087779332181
27.5263027306832839	32.1364125121002999	3.1357502231106711
29.6324155380614087	32.5257336285695118	5.9792892939964188
31.0582009708303737	32.3130918853801177	4.8206158780434274
29.6561550250011265	32.5428856459667273	3.6211198753831582
26.0909626963569998	31.7426376962024825	6.3623150112294820
30.3701814656922195	30.6730699734052656	5.6380966609048819
28.8797163727238164	35.7026049028086589	3.4303409367465951
22.8541696941973242	35.6341344446058272	2.3637394523031281
21.8170837631977186	31.8635998276422008	0.8930558986859480
37.3924487642883534	28.1825350664408880	2.7212192164214688
2.6341159302117521	34.1219636575916212	5.6199970849383671
4.0581595823432002	31.3839843901840645	3.4079829500833840
4.3304405372324410	35.5181511191127797	42.9932296808614467
4.6037116490484982	34.5100999547894176	1.7597439302217437
5.3372063564073855	31.2118873183261201	1.6022173885644804
5.1242108372475892	32.7861151666033734	2.7981351654147915
3.7297054027572560	32.4736865473715639	1.4735858911938149
1.6286797007631169	35.6607897205239510	4.8294127904315856
0.5536961755444876	34.0138203719480998	4.7766114337118371
3.7702481181090546	35.5073803620593225	4.6186322738108911
4.0020807455303942	33.4985369334980945	4.2966173475759089
4.7803220749093294	34.1478992938769466	5.7837018882555444
12.1353938433000952	32.5156675130840682	3.8854701744836517
42.8376484873864172	25.9509721129606099	5.8353220661056655
41.1525620759508186	23.0555142592635356	1.4107450260781105
38.5870638693243606	28.8431384743843928	1.4212382592763391
41.6904525514392219	26.8358029514593888	2.2425968287599574
41.9079434051929027	29.8479411495377889	1.8418190217111317
39.5281281470167372	28.6557247653871414	4.4913971488803766
42.9257678370855018	27.6056843769017100	5.0993937263398221
38.6414308363088423	25.6822676582805478	6.7383698640713545
39.2398407014759272	27.1575018294047865	1.6743499024263597
40.6224181173360179	26.6245421950031229	0.4148109340466724
40.4311908394932047	25.1703925425128254	1.5798350266696695
40.4286350975117017	28.7316708508466050	2.5720051322626625
8.3217844313979281	34.0980501098403579	2.2646633647229635
16.9222849041067640	30.0862186105937646	2.6972320996532289
15.7802575564550072	34.4279635836765792	6.7575135566780267
15.2666733932925300	30.2274808809496278	1.1743386615273388
16.7863578568232299	31.4304245880195943	4.9588400336190022
15.5263394201929970	33.7396324688426787	2.1295333366852462
13.7453298492204716	30.3834819360577875	2.5473321846309096
11.6986579003441573	32.6480244432410061	1.4370149010882365
11.6628781094364431	30.8939714712639031	2.8365276779523718
13.0061460828619690	36.4297077632833393	1.1324167424730212
7.6632202089225236	35.1000024538275781	6.2676882089636887
9.6443200402071323	32.6060628828755839	6.8446895689370031
9.4147455129883433	34.1632224788022043	5.5431597532394372
27.7475139218470268	9.8347002761072435	15.8655875668007909
11.4140803055373841	34.2860986444152900	4.6759012572767924
12.0469952120436758	34.3819958881447079	0.8540109830531522
6.9939635096224118	32.6343989055335726	2.8175125533537582
8.8321923831637008	32.2614254715868682	4.9804752930474043
7.7940288096636987	35.1720022760432087	4.0432393150478152
10.0867993905593707	34.0178052379382692	1.6705652184172002
8.9972656498754731	35.7771043342864701	2.3252555043413339
6.5587849656824488	30.7362645568601778	3.1149993796595985
6.3856386733889714	34.4703860206502668	2.8830997651103458
9.4542942692887362	34.0019084995962899	3.7269976834787375
9.0789402511882606	35.6020651399597554	0.5050950336815607
11.1762226354022740	40.9408909274608561	19.5371418034683906
15.0484432019077516	42.9806979414933679	20.7742968046255250
14.3929140400998623	40.0463493682814757	22.9023531635951976
17.1707633294455917	39.1252176258678119	24.7828744038690587
17.4423315301516055	40.9964350322060369	20.3880221346122248
11.6269084948434376	39.0325732947072623	20.2537590368851923
8.6963407642424020	38.0774949904201421	21.9569703647930794
9.6112284925650115	40.0624038701169241	19.9726403814625719
8.7633712459191440	41.6861888724587217	20.0470653275143427
11.4077515128601146	42.6321726033747339	20.6233657591494968
7.8757001941597728	40.0486748409713087	21.2298291748249923
7.4990305315812380	42.8333386805730214	18.8085956406847181
6.5505630454918071	42.4079536675695863	20.7454164571028912
15.1620198661155765	38.4509630294140266	24.3992967615531029
11.9967857995292189	0.2487845395327678	22.9199782459657655
7.9578017867537501	0.9244843798408443	20.1551464645002412
9.4080681673148092	0.3759365900213962	21.2338138042772968
9.4328892410174010	41.4269109953930297	18.3279146505143835
1.2560790875942494	40.8641003257269730	21.2940165737531402
1.8273322379907682	36.5366911940489061	21.5474705514576605
5.8076330674392560	36.9316301710812596	19.2252047200233562
3.3312824589054850	42.9449225382421886	23.4886604080628985
5.0371511932040223	41.8281952799240315	19.9522613558077673
7.5046965281300180	41.0203862679400757	18.4821188167756034
4.8584239437371739	40.9342599903449695	21.4876089864161024
3.9075399249877374	37.3501353781085541	21.1099415811581856
22.4499461811316792	40.3156674948843232	22.5447236733940493
30.9762543511896098	36.8895747809058108	21.2053997203529363
26.8136008351953024	39.0773028994139295	22.4995029354439957
27.7179367465468012	40.9401872659984392	22.0063752627257756
27.9206801968034846	37.6216690276883767	23.2649875930032479
23.5073363208570782	41.7091603837116480	21.9987812093379702
28.5011541610210770	41.1389631401799178	19.0295069152258982
24.5480085043787355	38.7606754645951526	19.4811012974480988
21.3531547056933313	38.6012034100503314	22.2311712457021393
24.1018139909417251	39.6966876126074837	21.1640821109249870
19.6461962383588364	42.8001477016247236	21.8193177556539268
17.5127145546814162	38.2616540706396293	18.1803692337073244
20.6779443751944250	40.7712550408424477	22.0265940845615376
5.5182608547689300	36.6547147430376228	22.4428314632760646
22.8793260008569526	39.8737767927822375	19.3169949385068556
22.0213890577594071	41.8540690668404523	23.6289883198761217
18.4046759203498063	39.0006273480873986	19.7048952042081318
20.3479929597816742	37.5546060161613511	24.3945797837743186
16.7025551612189815	39.5824679901216854	19.5250486532653831
15.4863022798728096	40.8052010825797637	19.0239217676807897
13.2585319772957657	41.9613763101693777	22.7275168016353035
14.9667413626592190	39.3174643219460052	18.0846738800120868
13.1391656277280457	41.7140063939271712	20.4633344628379525
12.9380123585532996	37.6130074133876064	19.1682826907010337
16.7110938598995347	0.7219784667716881	18.9278891432715959
13.1496373879547175	0.5057337076875199	21.0923775576764179
20.9256598605905140	35.0376026383721566	21.8283521814912298
23.9147463005717675	37.6198746611268433	20.8678526689135637
27.9293107978428168	36.3763076371762537	19.1194700625477232
29.7113512359742913	32.4841975852561404	23.4969646466257522
27.7484777534084905	30.8049643066410965	18.5660198657233053
28.9287053841143660	34.5602832004586276	23.4000986459461622
29.5473892242551344	35.6249693029244625	18.5718926067057879
29.5328321980652433	31.6719552543850149	19.1939620987197799
28.7549214489241827	36.3042208232229200	24.6587483603753945
28.2732846266868485	35.7338844444040689	17.0791887048669579
25.3253709078803766	32.9707862439595019	22.6938696961710562
30.5005585853938150	35.8305261826208010	23.2399091224028460
29.6140618626313987	29.8181067971344085	18.4947568153308595
32.5034125948078412	33.3469377245589342	21.6105754146479541
21.6781976340573657	36.7158464982410564	22.8530190160800082
19.8671666009616956	32.5943981800669178	20.0607875873581740
23.5854756268319115	36.9512272023486048	22.8016234780255296
22.6266720459637085	37.5503427903702729	24.3169542966053349
20.7539081769685829	31.6333828960217502	18.0510393818495452
20.8673940325737099	30.8634644148537305	23.1325582127878029
18.9383677468836602	30.4018217386723357	22.9822272553113862
20.8356923168993937	33.4434733706744751	18.6567716457313573
19.3217866621701759	31.0345972561429591	19.2729574410721618
23.9467150337394052	33.3684311001161973	20.8881363523524293
22.3046066169926362	34.3483852709290503	19.5466474807201358
20.9291798705808176	32.5011238522150236	24.6687849539111426
40.1024197870259016	33.9675485856875028	21.9343854058252141
3.0457312864601160	41.6498053904426726	20.5694711914388328
3.0648035484103708	41.2158776717671245	22.5337382430326301
2.7065868064213783	41.9363855677488715	18.5117673179324207
41.8674931612864114	33.2813416602969028	18.3573382560658871
37.1704301948828046	36.1639880712800021	18.2841921240211640
39.0727078430963601	36.0568807444742205	19.3340809388110628
42.1778920851755572	34.1156775409458675	22.8558220450633200
40.8439350767931231	32.8995772241236466	23.1658258479866781
39.9909293012559104	33.0022416889421066	19.8112961047896476
42.5615196817915802	31.9254209400739200	22.6632436511999664
41.5330794747335403	33.0159810297624077	21.1985681152918168
38.0233061840493392	32.7476106258539872	18.7967943930592547
29.1233672155901928	37.3224800722279682	20.0897856164745008
37.3810362550907485	34.6905411344197532	19.4504118651091495
36.2411225310035334	33.3459103951979472	19.8297774828922080
30.9048480934704699	31.0692641492646331	17.5237856288249674
36.2505719555642116	31.2864405935187726	18.1902086053241696
31.6406055447806196	34.1397212070468683	23.0413209835846082
32.5488605208272688	35.5332500978483878	21.6208013786598876
32.1293248520024477	31.8956625900552027	22.9000882249409905
33.7933388702647193	32.0141290197706496	21.2484976514733468
32.9519969286667802	33.2151030683165942	19.5025311767875102
35.6758342810925768	36.1412568323484535	23.3972572647661075
35.6343601885147976	35.5235614468254894	19.1092226800136658
35.9733260472751653	31.6953534070103942	22.0615161319166226
6.3096031550710752	2.7869501835943082	27.7729162125573410
15.1010300480639970	0.6814850930174940	28.8145647648067111
15.4709194563532275	5.5285629528138367	23.3718168609600632
16.0936328352221594	2.3983500943761507	23.8388431246486121
17.6032717813869723	4.5088740390242990	29.6615182205511871
15.7701639399660962	2.1287085123804608	27.7890260307297439
6.3172614374150227	5.5010229056668472	25.1744045365107034
5.2422780678141425	42.8325155686943475	24.7558280122862691
9.9379427447724922	5.3472414795543379	29.8154369905536853
11.9166365555406450	2.3713842129542342	27.3676501316542158
10.1600088944715559	3.5959917465458586	26.5861494795484745
9.5333996380070278	1.6182012621382507	27.3204617263088210
7.3680400944166706	1.9233843555596064	24.3479516367218487
15.0588421495459794	5.5958419993833779	25.1324650584367966
7.6339113494073763	2.2037503640845406	26.4071464236250222
10.5530957628065689	3.1491350910507165	29.8298411082178028
9.3186873217691026	42.6961284708094908	26.2928670367577766
5.9580458630964523	1.5466315931380443	25.9921059104427528
1.2038412496372453	3.1349856522068200	26.6776091612213477
5.6046380574471009	4.8080804392019010	27.1084120367530907
3.5173529920747102	5.0283418119805185	27.0976635554531171
1.1933605587875089	0.3064510054986804	30.0685450579119653
2.1669886967009999	0.7216285226065479	28.4105718817757591
42.9383707476435532	41.7482509133483788	29.9633888480947164
3.7403740028044368	3.2238271936620038	25.6788514645527464
2.4911804521966885	3.9775644892768298	28.2141516338327989
23.4434589861280429	0.5818053829217978	28.1046179461891548
29.5251300832429564	1.6725589620007872	27.7889115576407590
28.5449613073477053	5.6643607162715206	29.5373402582969078
27.8060063929909056	5.3683047608259775	26.5195230704518785
26.0486771499045133	2.8675538110677286	28.8024554280105392
18.3712960640155032	42.8538860994940265	29.2859068720149054
19.6779190803685786	3.6808452556416715	29.7556479041884323
25.2183967397419835	1.3885988980528956	27.0721731754376229
20.4438478592809680	2.5586644884532368	28.4264131948062015
19.1899969946657620	4.4297927718943164	28.1579616936776169
22.8394048337115336	4.5995706443440687	23.9549202118340929
21.3441886435064916	0.6511360600265259	27.3470526759568386
22.5527713641242649	6.3600661934772260	27.4497499113758714
42.5179341660439221	42.8873822616096589	26.5573264830668379
21.2695042361225468	4.3820715932830350	31.2038309099631803
20.9966553600156622	4.6599023398624420	27.9319429442492648
23.3100515915932327	42.9000395370416427	24.7839338475426700
21.1545369504832159	42.9760179426193858	25.2099768936272035
16.8109284581344731	1.0836127756089329	29.3963479800729317
15.9229546818167567	3.6171901444073327	26.1178744466823503
16.0876285986581564	4.0860685485769466	28.0587540318651705
13.6425671368704364	3.9199065642977771	30.4321457444976211
17.1012819206819913	0.3579768933688893	27.6789030428479634
16.0668525964077702	5.7490081802607804	28.7447351666067092
13.5784019959447892	6.2055712819285391	23.8046166084709085
13.7630518014731908	2.3722453786952267	28.6689608867681649
32.2985779436204083	42.2156580231812555	20.3789091003966867
36.2857108247259887	42.2212730367420193	19.2521225364590975
30.6034993641487034	38.6890022526147419	21.3479436214077580
30.4168878226368591	40.7154824357177247	22.2187423422883512
34.3280233449270895	42.7707638140161066	20.1062939285766653
34.7454104260093928	41.3674784073756925	17.8175071207181901
33.7388324204074550	0.0756593370038326	21.8029321141428198
33.2994211425903259	40.2475495888751809	17.6193311981702898
32.6364424577112970	37.5816047093304633	20.9413448550528329
35.3703337802946223	39.5390961319554464	18.2138189229277465
33.9120541976064871	41.1436966968869271	21.0275874223644550
34.1130499336900286	38.9077243243879920	21.7681394521719689
34.3697372371772900	40.6378287465060950	24.3148073943752223
40.2827977303003095	38.9740329756034640	19.7878615879677575
35.3959280570520747	40.1689231964318409	21.8845728480349102
35.6522853933233534	42.1242031907224899	21.2867263846435257
27.1930155623190650	42.8078261122424379	19.0089576374277911
27.3924151054381646	37.3327788802578269	21.2979112778031414
29.3794138499085875	39.1501102350386603	18.3481136965935434
26.7069969724594216	42.5133633361414525	22.8776729122995519
28.8064584706876303	42.5226877652545170	22.3850630053863675
25.3089812160025289	41.9216069309276946	19.7907838370692133
25.3414225558237298	37.9126525714249354	21.9378400526706336
29.0414751646859663	39.4983834266668978	22.5173743930227346
29.3121479659067532	36.8630464112379244	21.9873418905072597
30.5582117747406947	42.5167481482291763	21.6123879915108148
0.0494351206477143	39.9538559646748865	19.5847902050031628
1.2283932326766280	2.3747567076770211	30.7551151784815637
4.0674817900831961	1.1969356427917544	25.0998146369873787
6.0148707022138561	41.9030573866068323	29.7652618494976018
2.6872586787264203	1.6866388138061157	26.5418375839129546
1.8873846515221866	4.1297045456060992	24.9764777219112304
5.9048253425758235	3.3733352587330980	24.7639413179348331
4.5319633326585871	4.7942253032505917	28.9196138568471746
4.3577127933767947	3.4675438945831609	27.6483946674876826
1.0782432863577789	0.8535999712135598	26.6848086952125243
1.2051971455326271	5.0272000018596454	27.3876144748435948
42.8366948115023050	5.8686557281780756	28.8341799888495949
40.3040278436442776	42.1882411780465034	22.1353192362316484
18.7869329730652090	31.6304026143169850	21.2713644367673744
41.4809864722464994	38.1087965870655410	23.3448284290704180
39.8145225739121287	42.2379747166525163	18.9087290965098340
38.2328188441109802	41.3638349988105034	19.7664070857613794
40.7478566650769523	40.0143495848225754	22.2346859707287763
37.2777222851146135	41.2007277828928977	21.4225647026716324
38.5649499902958510	39.5627382240035885	20.8763779679749888
38.2020229152306428	42.7276756488199325	22.5825114377545937
38.9951613202222234	0.8851531569943100	17.9032237435305461
37.0404428114687150	37.3121894848526949	23.4551829554971434
41.2156215704933047	36.3096885019001689	19.1490534418417120
35.9707155295546102	37.9737452034051159	22.1033306845406123
39.9879248385767525	40.8358061895750453	20.6042389755149564
36.9872578643741790	21.4526378130964090	24.6770260850781149
4.7038629489516302	27.7268410698308436	20.2031961932648692
36.5239587158989352	21.1009540937638533	22.9629945520048153
39.2618493875689012	21.6386810644877308	19.1035010881409733
37.3987463151015049	17.9736624946280443	21.8940429012798070
39.5957271396358479	18.7250580718503912	19.5750549785109129
40.0571792935638840	22.0740428613295769	21.2798130390051554
42.7255130850335050	23.0851226878119000	18.8438209563894610
38.5612774523643225	23.3833077662530826	22.6158605191425934
40.7345700554692769	22.6695129809925824	19.4308645863780498
36.4432595306921314	19.5174945495222723	21.3831852657766959
38.0270950377045551	19.5918790581993818	20.4665069133810533
36.9154116785850732	23.2559212464091587	23.6676493248676358
1.9205072234440339	25.8392641822098597	19.5396901021352818
41.9488614144932939	21.6853371820459380	22.5894069791716952
38.4602533906240751	22.9486652878619886	24.6911708080810470
0.0929144121240462	20.0968949214031909	18.2656797152631363
39.9554409925306331	22.3012010269272523	23.0881796159788912
34.9203573880930236	24.5611633046005799	21.0892952398493208
33.1515533895609948	20.4692100302996209	20.2527301861775690
32.9753431044221301	20.6195332695122140	22.3555499671387672
37.3004836144581162	19.3279240912332106	23.8024780953892829
31.3977464132131985	24.1611046275855905	19.2427308179755912
31.2937137066718840	20.3488364653505514	21.0125372130601065
31.4070145994090701	18.2513552358886493	21.3476742230041800
28.9328158651648550	19.8526728204708114	23.0940752963163334
11.0732653642726380	29.9895645811136298	19.3656746342557256
17.9413680275569583	26.1169811738277673	21.4974164055244081
12.5859742528161451	26.5735106494057121	21.2266773570534646
8.3515381846748031	27.9008564102296788	19.7607701951983472
6.5182602718531601	26.0797020288067039	23.6912166214225692
6.6282847880270648	28.0018513953781287	19.0723071047884964
7.6608411450200524	29.4721888899830660	23.8880858494407242
11.2022372042667548	28.8152401891309005	23.0279241919578048
9.5460099763373307	29.3778951366001841	20.1481668901978814
8.2126739122183796	31.1277064733172999	24.5620449234070399
10.1347951681576021	27.5292382098602921	24.4305866143189760
6.0161039818559168	24.7204773772087840	20.0536248125046264
9.8029936864919343	29.6641440342528391	24.1758743004549785
26.5312413856278617	21.7619151514867362	19.5516757967928605
10.5531425883696173	27.5998729561222476	20.5018907017849834
7.2028094226563937	29.7022712132122599	20.3626817932067716
42.7120248939074969	28.9314088162435716	21.3058970309742719
5.7868131052182434	27.7640827471005309	22.3356270459421538
2.0482723925800652	25.8376141152882468	24.5881951727895327
3.3521872805355928	26.8501124242058928	18.5828805890407587
4.7218140510684208	25.9107957100030184	19.7315989279760373
6.3549197883088571	26.9271760389286960	20.6340797878458240
1.4640808393653368	25.4976862871701364	17.5942631639163842
0.6118614163275737	30.6940612565372568	20.1249000659091024
3.7109498221275419	25.7978479859212761	23.1071595373029908
0.3736362805424919	30.1511406280562646	24.1741857650768708
17.6773662577597577	19.7309876436626013	22.4848626138051308
17.7325942538879886	22.4740519724865884	24.3697921636450410
13.2357619092147480	23.0993660179977560	22.7133638463452705
16.0434026686416367	21.7539083732042755	19.4097125863742725
11.9671287209423731	26.1703153560841351	24.8911136614499746
14.9600916801912760	23.6918106243473936	18.9976727736002786
12.5253145427118433	20.4655227732835314	23.6499878791218521
16.0715980562737180	21.1114073015375894	22.1152215856922503
14.1440387549591531	21.3026136444345013	22.9695545219091954
16.6805400201590821	23.0387694131969916	21.6345936069087301
18.5498966474739149	19.4635402378505482	19.3697386787349330
14.5005158083442982	19.5813407654557103	23.6816607130846748
17.6298573745300118	20.8199417422016388	20.6843299528251841
18.7389379045667503	24.9251124585282184	19.9258769972831473
18.8067014283672123	17.8888525639069726	20.3656082994083221
12.3733550720260226	21.9791814417230285	19.7088634563803069
10.8315452202869782	20.9921245746804566	20.1845247910644261
12.2732361217922481	21.4877007475620587	21.8612280903599334
6.2976028845261025	22.9348180804065613	21.3801738204122600
8.3775156097841510	20.9028803927649065	23.6016711462087088
11.0137041029464751	22.9523279510615872	20.5239800189521375
9.2004470026246850	23.9437349985662777	19.6884333573291990
4.9338317629696586	20.9503934089531576	20.2159872585550637
12.1215872745612607	20.0667680559081312	18.8655290044013206
6.4580138414970509	20.1100597572558115	21.1699846360378672
6.5134513051438976	24.6320097509987797	22.0981587527677625
19.5585787890678127	22.3954218247546919	24.2799963632568030
31.1008116493878575	23.2486580371028246	23.2998387978760171
27.7586801667998273	20.6711213376570413	20.3913970057649649
29.7820199898614106	21.2699277451744457	20.2952938186766723
31.2207859712492635	21.5727662702866070	24.0311085135879559
31.0187382304859156	20.4254842328136128	18.8839054562777768
23.6779751227737094	21.7123703692500385	20.2433375550710153
29.7414114478850848	19.4796071788474805	20.5587901776683282
28.6995052492924252	24.6601768066905898	19.1389154162960011
24.5831652469745343	19.9552772408277583	20.0156465178226100
26.9528229464368749	23.8017039421438490	18.9391018227483983
30.8809286744829556	22.3372454056070069	21.7704921723327267
25.7940663892214168	21.0759308449653027	21.4762194119297583
12.4575223285929138	29.9681141728367031	23.5331041089456257
19.6652762796402030	20.9955196305679550	19.4971719280037661
20.4290893816311652	18.6199925998712423	20.7044228354768478
24.0327240739285770	18.7865484865130554	22.6098665238427365
21.6453242517115712	21.5297653919842844	19.5496960359137297
20.2192734106008878	23.0259661223372554	19.8546892128455426
21.8507982551791748	22.7248241673253126	24.0357208732754017
20.4731299275877348	24.7763094911043034	19.4168716085768764
22.0557204784993459	18.5684766070390666	23.1411341758822822
21.1264031946511679	20.1918341990130266	17.8110571460758038
22.2670507831888216	23.3560036268614724	19.7714695655552291
11.3875258359399609	22.1291857742432789	23.3798803193337541
15.0722791474880520	23.0364748631088538	22.7488237660103145
5.7435283163687307	33.4162240163586404	22.8533389454047153
12.2472547678322918	35.2893197892572772	23.0281560783714738
3.1261504297997011	35.3040580069655192	21.3400541822137058
4.2942629754523027	36.6217306953669066	24.1464777189573780
5.1000111096215548	34.0543615396777568	21.1030592601260096
0.4692390259113123	36.6820262676866164	19.6343404808699020
3.8074186421532796	36.6494810136368514	19.2911592176488824
2.9730670355487647	32.5102741604369427	18.5700417107802522
0.5940730813338443	33.1846295143108563	21.8696522995543816
1.2318333694626757	35.0170912746232545	22.3715010331674193
4.2948503543713059	35.1025496106379080	22.9918907625346343
4.9784543858617933	35.8122001201465068	20.7293209525870736
1.2245524750412218	34.6238310642634275	20.5151947151921945
11.5058353302462102	31.8057123194795182	22.5321889769636314
2.2622540657553771	33.2185281991693984	20.2543898473136217
0.8395889498516141	32.2795420454209747	24.0588525837785348
1.3481785285276098	31.2892403611445715	17.9665116238584304
42.5754633017531248	36.0813468305530947	17.9506070321465820
40.7225031169470384	28.2288802444091012	18.5274233413203575
38.0544711301249663	26.7706229832177485	21.0645755965383898
42.6282817389926763	25.0498652425375248	22.2749255397513508
41.9984623696655461	27.2090286584021008	22.4226163654741768
42.3387932564832283	23.8895158474043008	20.4576984835639166
40.0636435385052323	26.6351248401641989	22.2941298011022546
40.1693590859714433	27.3805891543953948	23.9593484796515064
37.6592826164542700	31.0455111990600763	20.6102586208781595
7.8250100544345580	33.4923919383125437	19.1301803244570614
20.0933021732309101	36.6625946464269319	21.8488345650254274
13.9404347487839626	33.3334870462880914	20.3424032319557888
15.7276354310391326	33.7979769208102780	20.4372880262593952
18.0520210328787236	33.5901603221449392	20.6110760457669357
13.4716353687093182	32.6427471322646383	22.9645076038943934
17.0660728093660836	31.0164256510953571	22.2259624716669890
19.1078752533386940	36.2473318215037921	23.5504213974738121
17.5690154782453298	32.0885278629469184	18.4065901190745507
15.3149289193704483	31.5477447912215112	23.4325440374812395
13.7499686191948580	36.9822472658570618	23.5608002301890096
14.7013013012167253	34.1138092025525026	18.6296479944055662
11.8830546092317260	32.4625006232324864	20.6962101466560142
41.7667778033367796	29.1247041598932412	23.1045330372037263
7.0102375281350620	35.2397935552941988	21.9432855656615899
8.2895831496462371	29.9844983721183240	18.9100685690776444
11.5548436703431836	33.5832238751948822	23.0605551782725584
5.9664778531450509	35.3643909330289787	23.7292392868423256
10.9890066992015729	34.4483798446642666	21.2178005353937991
10.1171866663603804	32.8159494581741598	21.6289569742962655
9.7817630398287374	36.1236469883711564	21.3983398662405513
8.5823024565878701	34.5231880552119321	20.4632402995412832
10.0018188266827206	30.5422634557849904	17.9566434997620732
13.0458365067869977	32.4951359247440834	18.8784565568357685
7.1656445197933136	33.4790901088178714	21.1503766514878890
9.9372860414069972	34.3468519616099357	24.7229411558303340
17.3108499140284628	26.3752730907428337	23.3931235363602354
30.4977129412507466	26.1875632588766614	19.6828735645489346
27.0615750794965066	26.9419462663072551	21.3546077479100589
27.7521309823796933	25.2836811182325683	20.5951873378630204
29.4010357460951859	25.2144414503935295	21.3388297899697790
27.2798772167343095	27.8330639041086023	23.4075540316666206
22.9256179885919735	25.5368048673667936	22.9256299949518123
20.0658664947032186	28.7637344036231681	23.1239201263900824
23.2497700523571247	27.3094420015478683	22.0277660548996437
22.3798264062606194	28.6429399021173481	18.6449863699162144
19.1864084898046130	26.6167768466319927	18.7585474598575139
21.5114037582512054	26.8100028629172975	22.4062888112450800
18.2638090977483962	25.6271584544177990	24.8093415057995799
25.0373648693536737	27.9707682701170732	23.2211353653796948
16.1408355086543516	25.2239971029891237	21.9642923016222191
14.3955319651687859	26.6811538323571753	22.2599047275068500
14.0840202207145690	24.8666161883339605	21.7784759081507069
18.1653902126706974	29.9945546187805583	18.3172183262664987
17.3797358587079067	27.9701878414640959	21.8810958798096493
13.4442378563334302	25.1204983006834439	19.9517241653065547
11.3506974040972732	30.2409404531206931	21.4367281570800330
17.4885800341018864	26.5895815750175437	19.8361394485170557
15.2226538404768146	32.1749998221571687	21.7405472360635876
18.3069070547753299	28.1806900398695284	20.2615127397673902
13.1559670795656682	27.9078298426630731	22.8867055262036629
17.5751399760036975	24.5907979553568588	22.8963215273805289
34.7201966517723832	28.1891865174275402	21.4082617161163995
38.3057258599580592	26.3243536060333838	22.8082142184374561
37.4776460372879825	23.5109457842262835	19.7492315374114291
39.2700323181607374	29.9230785323656931	19.3734009962422675
37.0540265703625167	26.5398321025340209	19.0214746430865169
39.2238100347546705	25.7029510489787754	24.2450501506023848
42.9137763491634061	25.9768536910892713	20.7752595796560087
33.8060329956574179	25.7199544978728447	19.4595804863325839
30.8409531168144824	26.0046278578590098	22.5837048857583014
36.5129122793248797	24.4550541442236984	22.3067549657117787
34.9674277401301481	27.2556775601203896	19.4639011106881696
32.4989902440190335	25.3075925637821548	22.7747377436641187
31.2729864294099187	28.2175413897924550	19.0591610282026416
26.4491991854391983	5.1702892830916127	29.2536234180719674
34.4550155651435617	27.5801102855267857	23.3337080135372794
36.3306009289564926	25.8532297684035477	20.5368481983348126
34.1129526012098694	31.1748007347023410	22.8284622365469936
33.2983987396316579	23.9797814224949484	20.5464739395510918
31.5130492032016818	24.7836420674889162	20.9489591707031444
36.3580669465565407	27.3109685274367422	22.4046688811063710
33.2320457938508795	28.4841650099989465	20.3909026435388299
33.4812095562919865	29.2180939773460260	22.6554977674136246
33.9892692651461914	29.5116448561478002	24.4194085247302510
26.8841234561090516	25.9944947476009069	19.1772559660638606
28.6197030549344262	26.5214865125106272	22.3467728040579843
40.2735421667622262	14.3080355905272167	26.3004478825179255
0.9102203128161531	23.9088916981272419	24.9083516833891139
0.6407261549986892	21.7799224359461974	24.1630831909180372
2.2786275107693736	24.3645118879785727	27.0293321819496555
6.2637251544928017	20.3536473899944355	30.9222372266731149
2.9222461771879384	22.5087246089254833	25.7634651629644331
5.9772954499947053	21.9495489257627341	24.4370985662396514
3.3038462368595649	20.5354419660380820	26.7351196544630980
6.6011711854761188	22.3736134283500157	29.4800263331462524
36.4387157602412444	16.3186651484071774	26.6048314982290712
41.8917803888433937	18.1614975177090585	25.0368198586485811
41.5949963445689050	13.6893614262047674	30.1152570856190813
0.0966883660216524	18.6419385852647892	29.5448059876118236
0.6311261713161380	19.7080709399197822	24.5062069029011376
39.4701899363741759	14.0364051872269702	30.2652384620513075
42.0394765285957064	14.6660456647399329	25.2936570733867363
39.6676900063781801	16.0907645615736783	24.8606375217734765
40.4478146887977630	17.3417949405853662	23.4715795287787223
38.7783012993495859	14.5531978211602482	25.2038510658917616
35.7928360592530623	12.1328335402686314	23.4247515899994099
39.3090038324762290	17.1089187809769285	29.2995015880449508
39.7458200520580007	15.6635026362561689	27.5690725130730314
37.5774708301361926	13.1802307674167309	26.4078769896500418
36.7876753484217218	17.5105787349160984	24.7878588414821976
39.0240867327139966	18.6270705670187908	31.4645122346715453
38.0384460188050397	13.8228285043056420	28.4647596450735669
9.9632364999501259	21.4657489511765114	24.9573782687372372
8.6108528825053234	18.3275948468007748	26.7677844265212919
8.0067108384364527	21.5235212874292543	30.3929862559535771
6.0526248353060206	23.8493611970390695	23.7376699318609283
8.4827942818996434	19.8325608660129866	25.0616315407378565
11.4150501227671874	25.0051776185379993	28.5258785837988142
10.2612524914675554	20.1908599817728671	26.9047806880138971
11.9519862618916672	23.2795661277771444	28.0913942233296652
8.6351556847676516	23.9018602772492237	30.9344169179872033
6.8306577773717798	19.3295439527061212	23.6595173002936257
7.7171936064351101	21.9630208595009009	28.1081789335708763
7.7223014740668461	25.1167460066763653	26.7192385489921342
11.5970613832508960	20.5994875088695686	25.7012894611646416
40.0682666589638501	13.9065284363231125	28.5210348430790326
11.4783622055414192	24.0991327195931220	26.5016677273021379
4.0769743060963650	19.2697189498768608	25.2764527178293505
6.7403869671808145	23.9618078071284692	28.2150576184768020
4.4361537884555826	21.0396186730510983	25.1887747029686651
1.8798757290583081	20.3668502573184362	28.7100419480695024
1.6518195246339926	21.2991349789669115	26.9660915940339585
2.2902008789281756	22.9433010635786339	23.8337233976350156
3.0228352734556125	23.4359082459080845	30.5380577102714668
5.5057389109978541	19.0353797399375928	29.2637267534268481
2.3606405477159678	20.8121904241594997	24.9657561114454118
6.7521527418922060	18.3804057982493951	30.5884254425036559
6.4893767996877880	24.2665708641521967	30.3807993412700128
28.7297108474011047	18.7448263195012608	24.6398329282710833
24.6262830810131739	12.7195837863396406	24.9834935805046818
29.7212931118989090	16.5483544815810752	25.9646779483763837
27.3342913859239474	14.2143752453044723	27.3571459220270903
25.9268262676003509	15.8427253676210675	27.0092973513171550
30.4892239515315957	15.1587799283714038	27.2141423720882862
30.5699586778345385	16.4592193319239080	28.8092538988155944
28.8802263519891227	15.2164962264121737	28.5584561355898288
28.4367671574420200	16.6316742645072217	24.5672367542329866
26.8826183073669540	17.7709169188552139	27.7252936446898524
26.8157375108803144	14.2834809076082045	25.6456241538063594
26.0154347377612361	18.0302117281176599	29.2785292321171333
27.8215622055028824	17.5613854964707485	26.1723562513425563
24.5076104184348225	16.5956675402919736	25.5843067064253340
21.9978872172985227	10.9608785951598033	25.2173364809711629
24.7196402600375649	17.1454070227592261	27.8317320938481743
23.5092161023639470	16.0028495352144837	27.0213032819082564
18.0514502643507200	15.8239648665268131	28.4879917375294376
19.9774510244785120	15.2357861976870943	24.0828909342827338
21.1311415158756546	17.2819007182904549	29.6336077623493352
19.1938536778305000	14.4771026137590013	28.6697595430813017
20.5447504673569412	12.0921259629634132	24.9116893896551090
22.1480159409057151	13.3165416955899385	29.6146823965930253
20.3397706430246856	16.2166242175060589	28.1910816106911035
21.3149151627265852	12.4990258645835155	28.2355950829671301
19.1371755925711042	13.7199570427403081	25.2833076734139688
32.3197121672049335	15.6383725786767673	28.1911009282241700
41.7252664745474249	14.5308004487073941	23.2510056195047525
37.9833064879635387	12.9728262133553560	31.1442521646343948
36.3745591387332823	15.1979751168359485	28.5464058410112926
41.6504784165145665	14.8202561887142910	27.4825519715708211
38.4661492704448307	15.4811467236418991	29.2036697813827466
36.6166019929451423	14.4805426533318418	25.6133564302305636
34.4507946361664850	19.3237372271755561	26.0973525705117702
36.2183304896885119	17.2515955721810492	28.4070516481908086
33.9157640363919484	12.4611497599196568	27.1267587939411747
36.1278619210942935	18.2576417507618167	26.6343913336763087
32.5128267194950453	16.9015488007930053	29.7765726790342349
32.3574138390149173	13.9024602801353527	27.6963872494122718
5.4551775232822441	23.2956841182092589	25.5594762779662119
35.1564615417867401	14.3503105223097673	30.1724307083063223
30.6636809387644291	12.8586411749699376	25.8067608098628511
34.2918437302586483	17.4553755710381004	27.1237196998356218
30.5032981369783904	11.0490382936198070	28.1390020278866295
33.9647794003300305	13.9960112025862369	28.6168013048106928
34.6948239924038333	16.0507163737610341	28.6463047777305384
32.7695606627000160	13.0192319862519277	29.7137865360716837
35.5238648990983918	15.9393114364221606	24.7646950728339235
35.5797298881208945	12.5779673400908312	25.5310998866409626
29.1678159706232698	17.2758215256517715	27.7230389473036496
28.5941537075302890	15.1622131113010283	26.3796729570868891
25.6343591613188764	14.0019621204279474	30.7272168215273069
41.4588586036356403	19.4090313883021146	26.7688108851955882
3.8096864915271205	24.3450212341422443	26.0767012375125411
42.7709965924882738	30.5551911990292169	29.6186782383933647
3.9374370747234320	28.7851597275665547	29.8284435124140437
5.6390391279334411	24.9116675116161908	26.8893567721144642
4.0757795400660601	29.9888268236225422	28.3315185175713786
42.0070077540527294	24.1644448286364693	25.4804488811032108
42.5099866306366039	20.8519760007471326	27.4486768076230128
40.3474444275595872	21.6675049826172881	29.5574790169681201
37.6247669293197191	24.9966402467058941	24.6249921652940778
42.1122911842424230	22.5795583352362108	29.5914983309634252
39.4093226632932883	19.7452589843439945	29.8609879898922372
42.0820920216152530	20.4605863812969773	29.3709805406377846
5.8419428710907271	29.3629955539933825	29.5103731758968628
38.2855700453379058	20.8123456412133940	28.9963167670515247
40.2480546715034961	23.6461923161386203	29.6631418387572161
32.9108705290187160	19.8040730742132460	27.7644474652963140
30.5865212468533230	18.5557791608459794	28.2619266371186448
34.4794737338219335	17.8676917219364029	29.5533491579516507
32.1126498577532900	25.1782379967136585	29.7586875230076870
34.2710467156436280	20.5927206439647392	24.2918569047884816
33.2326409031696244	23.5277736407980598	28.9012455558244454
36.9158327082254019	23.3126198125624775	25.6768816487885800
34.7233814211754392	25.1463912893091646	28.8075743018818820
33.1079575635597436	19.0329925413409491	29.6706625249326912
32.6185106127712601	22.8741856350823198	24.8495313927174095
6.5049510046339982	29.9614011693139766	25.3182792348298378
7.7454301974893047	25.3485661425926523	29.3687476548261905
12.7468715805607626	29.8257951855418071	29.7582360701817841
8.0329641488601826	28.2573453657906057	26.9465455126410021
12.3374717453924649	29.9756416649630353	25.6838059351954939
12.4044550211834466	26.9602773231165003	28.0343029995680126
8.1612006766403304	26.6294029020426066	25.1581430601863225
10.1691165849134091	26.0856952452069208	25.6313006687191169
5.9942882669598445	25.6850406818371617	28.8019331122009845
10.5796032455544822	29.9998496416503180	27.3569252904285634
8.8190182690715062	26.4589994192670979	27.1317958307249896
10.0004214240728704	25.0144335146738435	27.1099383104357514
11.1538675388687629	30.3860870160129402	31.0160231446152146
35.2263071505552432	22.6414613365556399	23.8342642834967684
9.1638602578946990	25.9056803137057798	30.4999549124997102
10.6045158009290397	27.2209998292430662	27.3406497632569625
8.3547089679862161	27.2828118524645120	28.8841800472679004
6.7982671198138460	27.8929914636834582	24.0406431187777017
11.4317255593651002	28.7287414447292662	28.6451980689372441
6.5414867308839666	27.3387423582171145	29.3954651830886817
4.0047913714662311	25.2812977556537106	27.9536119348309953
2.9270852861347376	28.0928461632066231	28.3019444676163232
5.5643645960012424	28.2378380932194979	31.1921080605018339
6.6417832318237835	29.8816252658160941	27.3810976217577569
0.3832790538403683	25.0641803171332747	28.0046188558355240
4.4753153208163425	27.0740798500453508	29.7359211840297775
14.7630373760021545	23.6964434541612263	28.5577415358288604
23.5991628002805349	22.9557724043454314	28.0150871164588118
22.7142214052395808	24.6452014628757929	27.4975971442915785
23.6455663281580506	22.7701760277123810	24.2559169741856202
20.1924707486799377	20.4291686740420637	28.1963210704870093
21.5083880626840624	24.8247060988808244	29.7280815573738870
13.5584608228938759	21.1489981562813121	24.9916949510344359
16.3969134532202112	22.6337284692579495	27.6750514978937368
18.2169152359685533	20.3816517647083977	24.3836530300116685
15.4550737720573288	24.4245074777078592	30.7976401339094252
16.7741133632172321	20.6831537770467371	26.2582370250199766
16.3175734513981894	24.3545567403452061	27.0351067210057607
14.5006716793237462	18.6244384015656479	29.0124806739872980
23.4999928581837310	21.9207005501003742	29.8963313681657823
15.5322800553170630	19.8073924680168858	27.8740589456027763
14.9077690626843520	21.6955855234979538	26.6172242819682943
16.7432993806291641	22.3738872314285082	29.9431015029809906
16.1711079692965072	20.5201507610269545	29.6901027498854191
13.2213766161021358	22.3839394964223573	26.8022108368493015
18.4268164213112087	21.0620517389099717	29.8949451411711316
18.3482106667869260	23.6139443331420544	25.6494745404104556
13.7406290157935995	23.0994680228342730	30.2631596731762578
14.6136238245089718	21.6937534652874788	28.6550342151728721
16.6590131816745739	22.6493806362285071	25.8235805603120703
13.5029613237603989	19.3167533350236447	27.1706416909200144
9.7689945168543382	18.5291773795122801	28.5483810064356334
26.2203217598673604	21.4179004793200356	23.7681595881595307
29.7947142942484042	18.6832370774652681	26.4318150387080806
34.4010177354598241	23.2682236220004626	25.6321094922154096
28.0153167253739994	21.0013654224662467	24.7030630171424335
27.6917734265354625	23.3059572866742819	27.8956931525939780
28.4698698592088206	22.6207277628665082	26.0647209143679248
26.1390932831776155	19.0716207906688027	26.3748504730362647
28.9064552873974883	19.8166594051531142	27.9041802007962154
24.6725561549516499	19.1959113133089012	24.6504190677373565
28.1699184711961514	20.2579578959136164	29.9002573836484977
25.3767142918389794	22.7694566682472441	25.2313994106143227
25.2010854587782021	22.8524383442661616	27.1815621504454121
25.3606221526577151	20.7837819967450272	30.6839306014754989
23.4607017341809474	17.5638997442458589	24.1290217562016380
26.5143286191580216	20.8972782009138065	25.9943412488615877
29.7668680860799562	20.3562974881642873	25.0285797240122605
26.6565868092330156	21.7898512981499657	29.2664614209263050
28.4232617257243341	24.1980781866385755	32.3210790841563167
26.9344153650173901	19.8134361512232857	28.1154205502691958
18.5243284749078647	21.4955963417424876	25.7708800767924373
23.1929519883492503	23.0854005516403724	26.0321438587823586
19.9082254740512070	18.9742849521952159	29.2087172565194955
23.5215791252579507	23.7266909163636974	30.0590831796136655
21.6296626571365707	20.8287186242263473	26.6758061811789915
23.8708276099392407	21.1375222312439490	26.8398144670870131
7.5880455041856703	9.0160385467393738	26.8516992756643553
6.3752584105179189	7.4640070302333168	27.4200035879071322
12.1505738628053468	10.5483935407550984	28.9532903048438222
10.5680558546932506	10.5434595604485288	27.5400058359999385
11.1068573858828223	8.7761983616312538	28.3714320607493633
7.5546281235757187	10.4457160044965462	25.6411794532015485
8.3015222959075103	9.6518052779503929	28.6909382143194840
10.0729159810007989	5.2957672714007575	25.1871383005441061
9.4297135810175003	12.5317721075408226	27.8608167244855203
6.5909430421041346	7.3303902821559470	30.5242884287239313
10.2500142169950461	7.4214453437563712	24.3017548061576178
11.3533253102789793	9.6976990517038519	25.6436670874909574
10.6456249749513265	7.4260398965330365	30.2979027974525685
19.9876383684686587	6.2317475736859613	27.0581240699201295
9.8986438271566684	7.4572943885241338	28.4742937256842552
9.9350661605187529	14.7399378366844473	24.8820737798098719
7.4213356464211824	5.8670827391659550	26.9184089513857288
8.7114515448715508	7.0223972988338215	30.0592514922641669
9.5575755761836874	11.2536308344719398	29.2484967058726397
8.0293599330398884	7.7891749750952481	28.1167697836323534
9.5313217752574371	8.9773310476455119	26.9126487029842778
11.8248105771661933	10.7900280068379413	23.9518069553608655
12.2086954599774948	7.8029152791462879	24.4346310420185340
2.2862280558043486	7.7052287702894713	26.9479975208430993
0.7982237203265543	6.8968286932617477	27.6189398259233592
3.8394423214489675	9.0603683910404200	25.9466032896339058
14.8874550805597803	5.2728001701153948	26.9084098776170109
23.0228407868267482	9.4518259760746357	29.4282196630308377
23.4172837167229844	8.5859678471409300	27.2872727340078498
23.0608976670782830	9.3695234035659052	25.2307085405850344
23.3258055998730143	12.1365624549182325	27.9736342381506020
22.1174516684040050	10.6367310373562596	27.6345851590738540
22.0675536960721210	7.9609835884253108	26.2538354297085021
21.4120317518421466	8.0506775411593754	30.0118142645466044
16.7534028421054764	11.0669514471632642	26.0854661541892696
14.6011154541666226	11.5698681965769179	26.0515242394278133
15.3188514127067599	7.3907171297713061	23.8530283679585793
13.8432189140729101	11.0282576995065664	29.6262116863900147
12.4745129303262701	10.2790266041509941	31.1178488407248253
3.7640748962200212	12.7922614474683662	29.1196319561591714
16.4919795335663437	9.5396601950987936	29.0900501728393763
16.9193363378105452	7.5732247055685056	28.7265074003546346
15.8581759931147577	10.5815770180415907	30.6797108758020372
15.3808060388159848	10.1033141350733242	27.2202282430863249
13.3886659152572332	10.2472395196518864	27.3337840462204476
18.2942857127433207	7.7817246103590971	26.9490221657200237
12.8590048708780742	11.4014170200552556	25.5655787793757519
14.7544452146660721	8.7390772157027499	28.2305278318928643
18.6880101016166300	9.8350846984522100	26.2699980165836280
13.2664668781404131	6.3801387754483159	25.7037192970250814
15.9332004874106001	6.9864147703038357	30.4283728993585854
13.1883419077513757	12.0221564151227174	27.6473605711408510
35.7386750776865583	0.8251700497801219	29.4233558435750560
39.6992460190735414	1.4562520057931048	29.3872669078503606
41.4169213042654647	4.8326037523235126	29.3287351647964769
31.3070963725677700	5.3153008632817498	25.2404848108481872
35.3318557874667007	3.4877251238971487	25.3404843743940340
30.7891019751520112	3.9603071414003992	26.7353238060877452
34.2786035962613695	5.0528790400464016	24.7070650071673192
33.8081432172381966	0.6518942834658227	30.3709429895003176
33.2029288094002979	3.7321454345292779	25.3540328750398167
29.5516431207491799	2.3670896480498977	25.7522778361418574
31.0613018411222477	1.3596994124672215	28.8662627983344002
34.2095577753943587	1.1764950078488785	28.2751214036604672
30.6146369921872221	5.5658688282369289	29.1630485171831921
0.8590632849124219	6.4860564487026533	25.6155247230169536
30.8166303753155546	3.5415588287767426	24.7129345865407046
33.4315365096193844	1.8941790815914772	26.4098180731969130
31.6581686232633253	42.7918805191278864	25.3977936980616690
29.4645943270513904	5.3320616017073812	27.6916546600394611
25.0439282094237115	0.9877358527583904	24.8370043612811457
26.4944563467145571	1.8904993391484257	30.5792987975493347
27.7871471601707682	1.7888558762671223	29.0232338503653011
24.5504859471391832	3.0070190673934998	24.2945155883359050
28.9864800927101527	3.5419413303983101	27.2571438830957540
29.2464733877980692	5.3271332959653552	25.1739801274880399
30.4663146511762477	3.5240557004677471	28.9001440136292409
27.3869156575087551	3.7407324229516745	29.9249768688420552
2.7823559423295707	10.5227248142837944	26.9802604581293153
5.7637942637810013	8.9622647023593167	26.4470715730828800
5.0990038882936579	8.7310445486191028	30.0157438923446485
0.6609250909751948	10.5400258957820583	24.4384076100542984
1.5255010061332870	9.4364608648569916	31.3788063145770479
1.2024367316461497	11.5117355194572308	26.3042698108467015
1.2648274818641347	7.7340039624740253	29.1253010264407806
6.3264691086239528	9.3194606539855016	28.4601644011911397
4.6242335685232048	9.9346532008642932	28.0660846226232970
6.5372949763054526	7.5253064942275634	25.1982953768638112
6.3999676360331152	11.9577042089884920	25.3919027431133237
5.7443284398036871	10.0071857595965845	24.9964267601598742
4.3043144111633298	11.7990446788964523	27.2088729409404415
23.9030071073780022	10.4017678646475158	27.9108474393885899
0.9045684892663456	11.2301855470319509	28.2993392901691330
0.2446681641186509	10.7723041896200709	30.0790069972409029
38.0441541626024318	1.2585073662088817	27.9265490004491710
38.8658724593650717	42.6047647890824308	29.1457321131231417
40.8080102450514133	4.2007359988768487	26.1864848066559688
35.9296410047235497	1.7563590831795695	25.4000929189946376
37.0216209443667026	42.6890297048289469	28.3234059882954341
36.7052549607361129	4.3705562497652206	28.4118068311640855
41.4526774577137402	2.2941438630863082	30.4888563300539808
42.8986751859352395	4.3850869216830581	25.5199256741449858
36.0932822740351469	5.5418465903208505	25.2531426940531958
38.9890581358545560	4.2735991766358659	24.8952416924157625
42.9087821146118173	16.4369011481307297	28.5280386219260720
9.4287700661915750	16.9182110720356462	27.6828836819672794
7.4701115660726014	18.1640097663100519	25.1358095395772878
6.2626570904676520	14.0278541251995019	25.3786647190314980
6.7398042515091658	16.2805641984822316	25.0896019050795012
8.0374782168342680	18.2901297159284830	29.0445018326379945
7.6962924162457735	13.5848697746258882	28.2670658828661310
10.2617586262585849	16.4937488929372797	29.5322434566398044
7.6116058431828604	12.5990525969988827	26.5713380472097356
9.3996588638398588	14.2798368964386171	29.1962249367679085
13.5000725369599675	17.6013358095988579	30.1753863842977879
0.8418058482625193	13.2575021988312738	26.6821095041708354
0.6058191788769701	17.9449638653787567	24.0500218450318677
11.4945066763044448	19.0253071623689074	27.4732607963737365
3.3015880378669737	14.4130694780338011	28.3264771878154029
2.6702979898358277	12.6598280486336332	27.3906803371971961
0.4683545752683722	17.8933953243674146	27.6494132766765190
1.4756873990792605	13.2481554409501250	28.6884305123160317
5.3245317508859591	13.4320651766132322	28.3073030355662354
1.7916716000319268	16.0172036669031819	27.6867672645530192
42.1364003761687798	6.9985668608676788	25.0163437550711549
42.3989245809742599	11.8082750442068232	23.5836480465213185
42.0694850567382943	6.0717548218668407	27.1203445669238228
37.3853967267424210	11.5024877018319600	25.3009113444290357
41.7036810487577512	11.0189249672091094	29.1666043639761696
41.6410677225889359	11.6620649148863738	25.6346979330820091
12.9058713253438899	13.8933166120021916	28.5990116216387591
21.9363848512802377	19.1621066831056588	29.1387374482521508
22.6867568593531246	12.8567132047561508	25.2170459685881099
22.4979683477577161	17.1519082832435181	28.4506230871178651
16.7704664908095822	18.6333538512514600	27.0698956435755740
13.0240365854024791	17.5884105764767398	26.8792379099663670
14.3131061558165076	16.1655772245285796	26.5612045399880223
17.8571206330277619	14.7344473685801649	24.1094554973465840
17.5721019877582059	16.8457004856664128	25.8636838283055503
14.7531463834631378	14.7113780728981549	29.0588209121250571
16.2233523961839801	16.6062656480971285	27.1629344866999922
13.9869757672555668	13.9625604719445615	27.1617375066969267
15.1072273441718909	16.6157184659744850	29.8591896122609768
36.2426176460412819	12.1637615783126201	30.1962435464983017
12.8113906920210070	15.4756068162216938	27.4471304890760166
13.9715336595950408	12.6311206840208552	24.1167983472191061
14.9221225688531920	18.0802988396867441	27.2283229552040638
17.8015260069512777	13.7319828221262696	27.0331811513240403
14.2530107936359709	18.0227638317367465	25.3235179352176090
14.1745031218469801	16.6505205706086414	28.3176998164788394
16.5325484984353785	14.7680298695685508	28.0898362522869647
16.5406552434701837	14.8949323663596900	26.0319229245633217
18.9235387834366087	15.1343517980620348	26.9199033802074936
15.3575152532474011	16.2219695949989564	25.0365645521778326
8.7153518137904520	16.5196833952445346	25.6798702309248661
6.1583193473790123	17.2506457194316667	28.8521207416121648
27.6195874783060908	10.0775759261836981	30.2989653063141056
34.5812818648577434	7.6201878280444362	27.5788425664474275
34.5145942203765372	12.5396806124266416	30.3526098753634059
29.7461562265446879	7.2604535771867891	27.1881464052548658
35.6659234229543429	10.6209751234581411	24.9096069803108087
26.7857488926653957	9.3217728829570223	25.7563163414752090
23.7797186435396561	11.2271295148627743	26.0577627986826990
29.3137939959633300	6.9331757517918344	31.0019992398379927
29.9411649345286328	12.9655922954809082	23.9468279870431324
24.5921697940094148	11.4607942367946567	29.6474186333268541
24.9510581076862188	8.2211669515210630	25.1411847289837702
30.0268339681360601	7.1215867261623913	25.2113234569015887
31.7359972469121061	7.6573592209079351	30.5654672908726006
34.3072967959016069	8.9056970220746887	25.8590897782690234
25.6101486831133407	9.6268124935437758	30.0760904844615276
25.7118869272215029	11.0500695006330432	25.3359258475649796
29.3834390583932255	9.0567555020916011	30.5322555601031773
27.3855209549545400	11.4551398312595740	26.2385667787748567
28.1959739562123097	7.5607790404151469	25.7727007334806331
27.8341434527952138	8.8401457779945574	24.1838886296706335
29.5493651457176227	11.2324584678984554	26.5170799025936574
28.2984268517452371	13.0058669759578507	26.0720211657927372
25.8870985164027374	7.4563202552791443	29.2564739751994018
25.0356412526847087	9.6409052110451849	26.5734975504104085
30.0161791536464406	7.6549892675963962	29.1526566862986840
29.6278654420221130	9.2319881043964465	27.5931242781111550
36.7879395813947312	6.9195750702110059	30.4408691878937532
40.8148991632539051	7.3860015187297483	26.1777319355443083
40.0976971674343474	12.5128475024492101	27.0062649302333924
39.7129109525781701	10.3372210956911310	29.8946013970814484
35.9631498127634757	8.4621184934732323	28.9995546115375618
39.3827555778982301	12.2200227274067004	25.3851130477466462
36.4645052225256805	9.0178915714340508	30.6854520578870584
37.4460401347816472	5.8885767105606677	27.7515922079365289
41.3029683984766649	10.2171306518015594	31.0228197364949771
40.6629087147201531	6.5513318276960062	28.3515514317035340
37.5365782358256652	11.7740526159670154	27.5399588225531531
36.4568111660148162	7.5126975163191183	27.0299997230109739
39.8394887920218963	11.9825897757363595	29.1158290173847512
9.4330590754470141	19.9754939502203150	19.2652671924408665
31.7233734998327392	9.2085280791488948	24.6486616177654199
32.7217416835756154	7.9000054396082371	26.9921437862820603
31.3597544314152223	5.9263461026033717	27.1867358044447940
31.9568082413958265	7.0650819977153754	28.7166385116738496
35.4703734169108458	5.8713567161647244	27.1507537309285460
34.9203581525844768	7.0233297691064278	25.5207928671034701
31.6554386515977413	12.6371592125719605	31.0751087392955654
32.9555131396461860	8.6175943356969551	29.2171778134353843
32.3324244444710374	10.7885570605201071	29.4961678879941367
33.3220685441110973	6.0364634437107600	27.1658087729002951
35.0659998817738838	10.3098686017256558	30.1986973985237803
16.7302299996684525	31.2759608334934747	15.0311160041142031
19.8141005110412287	26.8373181299346797	16.6351942765345768
19.4599035685112014	25.9061929513008522	14.8964152653424193
20.9295801977461586	27.1315279705861485	14.7578130448005016
18.8676519475036955	30.7758222072924106	13.1910487601061366
21.1845656403364835	24.9004842720362838	14.7043450564407827
21.8883451050718989	29.3670746795140971	14.6559061553858800
18.3206672167738880	25.7887755970901296	16.8983002502196769
21.3584042147398492	28.3434761090403775	16.0629434071736767
22.9594423853157785	28.2767810615257780	12.2447507819609118
24.4290234749575177	28.8563629747070003	13.6640347053756539
12.1014068297261215	27.5570079922308011	11.9504443773761064
14.2779922879741363	25.7754822595086495	16.0124293338640662
17.9557170763465557	27.1279798976339848	15.6895918146723918
13.1598889874545115	29.4354403986666533	17.2382045559245967
12.9198539368812551	26.5644467236627158	13.2963154377151298
16.5363395046427044	25.6326687750542419	16.4388905331756341
16.2476760357759318	25.1706458602015211	11.6569319813340435
16.1311921165044616	29.9400784891578020	13.2964875900027142
14.7616207306971550	26.8237314818327803	11.1303240066949307
13.0152390004701974	27.3789419733253432	16.3791895859150785
11.7545204448598657	28.2174631335655626	13.9316880328116461
18.0831828219865756	28.8322547747733644	14.1684360395761502
12.2730792460318714	25.7862106068955157	15.3182233077916070
16.5358786035144760	30.2922814579051263	16.8860104096355172
11.3985493146362824	25.4346438137481279	13.5892985345539703
26.2463589173855603	27.6687212263904989	17.7328484025706494
36.6949000840475819	29.8725334333891155	16.5851930920075432
36.0007034164504347	26.4921588976728550	16.0521219852777683
34.3605624577371884	25.7972235788121544	15.3504484519880062
32.3829175067702408	25.5990136524316689	16.0109980903536488
30.9337725403143047	25.9526671542597747	17.4799567985708677
31.0090946882128833	25.8365151439532745	12.6868395193003174
34.7466906949479366	26.2069639966432852	17.6074074509147103
33.1763624251582314	26.1515904392428666	13.9997796810595112
35.4624146459967875	26.5923117030249401	14.1845356219175525
34.3160289167304668	29.7162325718113429	15.4237461343923901
36.5874247941682285	24.6578379088948871	18.4734545213239656
27.8501372228287778	29.0369873320144158	17.6093772412733074
9.5140379867807585	25.3014896445639756	13.3867279352306561
29.4129695309735020	25.0196123645027484	12.7186539394319080
30.2118403355742373	28.3999865187658500	17.1380042666541605
26.0344823077387630	30.8832696984855026	17.0596455815103880
24.3065251297605656	24.7178672491214186	13.8236351802982220
26.8115036392727824	29.1996971925070206	16.1377085309022377
26.4756316083011320	28.8087222482217165	12.9181098625992998
26.0943776547289019	30.8737879439815366	15.0064912872900855
27.6146075864328040	26.8378684678500541	12.9017297801965221
29.6162055048627089	26.5177472366542695	15.9866016279139487
22.7040252836227481	25.8867973606965087	14.3935868015444317
20.4257649287569265	29.6430110570690104	18.1807745821669045
23.9652838444671552	26.4918235618491735	12.8328690357105248
29.4909940318420887	19.8774562321987354	13.1835996598169061
40.0792018810702260	22.2065723591999848	17.3147714542999474
39.8668948073972942	20.0892223510766144	16.5467398193759045
42.6548112214487034	19.5769706280497040	12.4185269494773625
38.0364659216615877	19.6873491045881792	18.4750732940861795
0.3903713562613954	18.9533124265527348	16.3569909314616808
38.3303903837424684	20.2993148639326044	15.3812459192097695
42.3383888790077521	24.7070367173170915	17.6094376341553023
38.5337430403695294	23.0785338780441727	18.0374230652213221
42.4804347347449323	23.6484957390114303	14.4062328808259448
31.5621971613404853	22.2403898146027394	18.0920819751119701
35.8763799257043345	22.3043595715481295	17.4358091908622477
30.7531711929974598	22.3875603652403967	15.3817351702147818
39.4113957791191325	23.1996665747118058	14.2109052307359889
36.8250536009865641	23.7061835229155768	16.5617732453645665
31.7666427670969576	18.4900165030133756	15.0731825376680852
35.3358605816731739	22.8442799713791018	15.3831006049220029
37.7656503381462727	21.6375786973089923	17.1998316378118368
34.7484705829012270	20.8993501870887322	13.6240802048247094
36.1003525296191228	20.1887039832174189	19.3855614773528337
35.4760386820969913	19.6500434912443254	15.2566935955160794
36.2634949488308607	20.1556495469628487	17.3887508664111188
35.5878279440693532	24.4667942941277623	13.9900043826422547
31.3525510215798953	22.3472925787371217	13.3555272533458620
35.8338537142125304	23.9895417445373127	11.6687061062175133
36.5643523965942876	21.2046112439555898	15.8891999085956073
3.8223320653629362	25.3255571815182208	15.4618743954828197
7.8039959035062303	24.4148161349329698	14.7287839995093286
8.7381954776810531	27.9987789971697687	15.6217365148925094
7.6464417281616646	29.2136909088946766	14.5318329059106830
8.4673322126708221	27.2323862902370983	13.4311973508400637
7.9810032288459007	28.8917311153892662	12.8131466838009338
6.7706328125942061	25.8654943139062397	15.2472609673567483
7.8891912845479766	28.5106731313784074	17.5611486841256976
8.8341682321352568	26.0223644050299896	15.0952913652837566
9.9026528924858930	29.0657322306929515	14.4396887785058414
10.1894792435785835	26.9932076276249191	14.1736129225569432
6.6577433932435124	27.6789496429595872	14.0792877090168389
3.3345065886084981	28.8313224870786975	13.9292189308359102
34.3341085143292730	28.4417040100350604	16.6904640722997861
1.2316594312351674	24.4270974746793179	15.2297752867930267
5.4776300497030554	29.0508686153319786	14.2175927455419764
6.7481515991565733	28.0297439996305222	15.8858293894281264
4.9657845129099956	28.0888402794884655	18.1509734548446104
0.0196416558732189	28.9718856507778355	15.2242307212469967
3.0402252940978518	26.7745905875582828	14.6530528869283252
4.0912004762159171	26.6651912619025211	16.7221717589416627
39.3188490827396606	21.0458841147836360	13.5856906694031760
40.1192602144687243	24.2665393794854438	17.4480667973626531
38.6203315733964772	23.1596136033601638	16.1711471852433313
42.9744558328663544	21.9131947084712166	12.9129045577881687
36.9515332235781671	22.8464281872567341	14.6796687265616548
16.1248907711494844	37.6346041327741077	16.4602847585178793
23.7335179011340287	31.0099863885900007	16.8066231844821772
22.3539378154675212	33.2244574530000207	17.6254900579782188
21.3877064055222306	34.4473631170459100	13.9051778645801960
23.3250592238492800	34.1784462888342659	16.1029447579813265
20.8301083813190964	35.7024444368720353	19.8448515765387228
20.8347569936914354	35.7799780395660392	15.2471504112769054
23.6886497057259113	36.1159861727311409	16.4242777265227495
19.3615727163385181	33.9354699558952930	15.6793341946061542
18.6689168010679438	32.2304646479016412	14.7074470400425579
22.2591133506080929	32.2375825755447352	15.9434393050092922
22.6546922650060374	29.9256858246452531	12.8866330803880196
15.8529955530078102	35.7428621370096380	17.6179533216200106
21.4345135469629469	33.0135742539218882	12.7939837162976531
14.0414060287355582	32.8846265249961363	17.2434307971901148
14.1937524202322400	36.1151438011073083	14.9785505434763735
13.1785096561701387	34.8484708632937128	13.8003200181663761
17.2765668530556162	32.2775589917632857	16.4434937861287125
17.6292380345933815	36.2921221685268875	13.9552891611190191
14.2662523193833746	36.6837407290557636	16.6906262990952357
16.1352759806687907	33.6005761664702405	17.4988106490153221
14.4436355650745263	34.3871857709649760	16.2987834476687645
11.9566339962337640	30.9703903398570759	17.5359656411275218
10.8879712026614879	34.1220896532562605	16.5964487423188274
7.0455757055108350	33.7268676281633120	13.6181022918466041
8.3335749673051449	37.9700506260173327	15.5240664855691044
26.2132248531766656	34.5734865619739509	13.7407662395612391
35.1257232587708046	33.3487993438764931	16.0211891827277206
31.5603892844763898	31.5286678685002002	15.2824034089364282
35.6551377575924207	35.3364638492519845	12.7548209183892638
35.4357166796490048	37.2997732372782522	18.6971070664511885
32.2068734351322803	34.3059325762161933	17.5547385794268784
35.7244858762477335	31.0101604153461956	14.9664467906800684
31.0120255929262001	37.5411738540219417	15.5966795376925926
33.7702085524890947	34.8805894959822567	16.2866975245684706
35.2384456792833944	34.7863636723798493	14.8877639524008885
24.7912562119676458	35.6042823695631867	14.9939543676274170
29.3289288153558729	34.9511643961644367	15.1067234027006023
29.7070317442620215	32.3161847463156278	14.0357836493132453
9.2462050654706882	36.2425834314296651	15.1801143317502785
27.6141785326313567	33.1330697660421336	13.3277797394361635
30.2932906834630842	35.6232543421956507	16.4668223277732153
27.7851721684147357	30.7180640345137483	16.5187510801330255
25.5051763480120997	32.6841074312575373	13.7560125595843541
22.0783924074248574	31.4835998516609372	14.0159807663996645
21.7383255087444489	30.3715362854997650	16.6597737823255194
19.5573025966534431	33.2060946477496799	12.6682636539906746
22.9750574113838297	35.5278554026146836	14.5996181967760759
18.4792624761746502	37.0213628603727543	12.1838555284580377
18.9986632594088931	35.6861768881228230	15.4339550947667377
22.0987541034370594	35.2900064409414398	17.9993368623064356
20.6128155254101344	32.7757932441505915	14.6377707483644635
38.2730715256638518	29.4182592313629350	17.5070543916681451
3.9576541856708278	34.1342065807123518	14.7299068779257549
3.8473310315599973	33.5269042493096521	12.7668211978795423
4.7368911696715248	36.8267881249550513	15.8203455128624437
3.6557044992084631	35.5521198388834208	13.1356657618553179
42.9889791470157761	30.1327174023277102	16.8136389271155373
2.3572721086608701	33.3385103637114639	14.1307517720744631
5.7117010257978604	35.0108949642539926	16.8365241392473095
0.2018161601450284	34.1920868552589710	17.1576681156489634
42.0759640299221260	30.5199468622188625	15.2429010608557558
39.5557750479004895	27.8625560860673893	17.2069497765138628
37.3339523079452746	27.8218012494229185	16.8146603154365017
38.0946057548802486	30.7580336976709532	15.5552494504622310
1.2723392087348191	30.8514854151536468	15.7204923104468364
38.5272965338116293	25.0122491015881323	18.5976937828769806
41.4545961703760568	28.9120499818973933	16.5297260230354759
40.4614701622768820	26.0135937210169708	17.9314353957058543
35.9177139676176225	28.3339303255558939	15.4003669016853610
38.1049219348746959	24.6496741802144435	15.2824630026204460
40.1971108386009632	29.8202921831002286	17.7901459873952419
41.5370137871804843	29.0796826046245194	13.6644651131491184
41.0332099832963024	26.8225752366384356	13.9579088507855129
38.5918885129889944	29.7765052661484226	13.6518800830010196
37.3360140704020438	25.6786095228653934	17.1087784184657323
42.4357901105574342	25.5274166884647862	15.2214440741704138
41.0493179578175926	25.0312235821720073	13.7196696180197648
7.8686249222718940	32.5976257511639176	15.2530450427243860
7.0398449600919415	30.6267418915473115	12.7431479324483252
5.6888979072477763	33.3762461475986072	11.3056779126239828
11.7674540467873889	36.8549431923155879	12.9021083137371626
9.7075427931859100	36.0160038347928264	13.0661783112759338
6.5605289599157759	29.7744163824306014	18.2011257062661009
7.3042971832126558	35.4988837306701299	18.8481338353584675
10.1628714812659151	38.0228160027157145	13.1207716134319465
9.2622458401316479	30.8452283400902765	15.1158915250785935
11.8055906656153624	29.6620192780561815	15.7338763545924696
12.6336815305556964	33.7152380228742246	15.6277277102773819
9.5975853244255465	32.2614690844764596	16.4192744555088694
12.7619160463274461	35.4459699072952290	15.9611765516704178
35.4797183877795206	22.8199348728779761	13.0850171434625171
7.9597495361350061	35.7074129040848334	13.5233511716507202
1.0437268251202756	33.1697476535682938	18.6899060655859266
0.4385752986077296	30.9354506670240745	13.9895445882672789
2.1939319340639867	31.2117367656331126	13.6076551260032055
5.9237280209992855	33.4591719111945167	15.2641118092281349
1.7415305848255864	34.4014024880850400	15.4864336981601358
4.1372811732740526	30.4780650682633656	13.4702547327246620
4.3632211526066387	32.3427156283115877	14.1190301667598384
5.2631997501142571	35.0526032585680127	19.0283099208969269
5.1798514064163781	31.2792971046467336	12.2774351881266597
1.9428699721885698	36.5814849650144183	18.0388666286141941
6.1509512736096879	37.7759751842373319	14.5808418084288753
13.4459664013138678	13.3571714164273772	17.2491781218115641
21.8089458338323468	11.9259731962262574	18.5120596759924894
22.9959410228963890	15.7005797397608546	16.3411734395244217
25.0356920539079262	16.0969546128455008	15.6199874335623949
19.5944183109991172	13.6260277344320322	13.0638481625657974
22.9549929147837979	15.0484083285975512	18.0724738602883264
26.1275698732630737	13.8114169150514261	13.7889998683635788
19.2140609349339329	15.3600483862110462	16.6275043235519284
23.0820095656575219	17.2951630349380459	12.7516627018934514
18.8349345423641559	13.2999815153338918	15.9742313213424989
19.9834468214976795	16.3932640114361199	18.0299741505022411
20.2548962495233624	12.6422060455639400	14.4255677267395725
13.5781911573526521	15.1950148141376449	18.5654702011732802
21.3679021675984302	14.8831170985845684	16.4351117835697735
15.1981216888717672	15.7924076558296562	14.5706235117687655
16.4492596319548170	16.3517303068646100	13.1149812324942090
17.9319861556898807	11.7366177587467817	12.2098968174449265
17.3227423248618422	14.5234538332319758	16.4454036235310816
15.9366487432131603	17.8135408957225252	14.5224518802976981
13.1191536203055144	15.0410320075915749	13.8531427994297687
6.8397901795608780	14.9223383837231243	15.0452408279830170
8.6994789106845349	18.2396209707410222	16.2822042770443396
9.0696381803446009	14.1401169831947264	14.0626013377242813
7.1688573244298821	18.0336040077712596	14.9391669921057719
11.0590527443058413	14.9892084403401924	14.9299008765994099
6.2981007497034760	13.7560285371502431	16.8182300312049087
28.6094240710720200	12.9486828069862128	13.5473653231568925
33.8810152697125773	12.1311891551862043	15.9297321189173129
36.2145851122270344	16.6875472757543157	17.7731723970515887
33.9854424208843540	18.9373990740134026	14.5418510855637244
26.5092240637898016	12.9952080575391609	15.8795375959666512
29.0841845771225920	18.2706419269956086	14.4334698072653715
26.8956767508676649	13.3072823420042923	18.1646510860069199
27.5801566749506613	17.2850401962177926	14.2604162822059077
27.7434013827443735	15.0435193832036340	13.5090893962829313
29.1160348487965486	14.1787248241238668	14.8246665585825621
26.1718616159778144	15.9684551219235189	13.6064572569861149
29.5199265593086757	17.0765378819293971	12.8100312023664031
28.2329708244835018	17.5176183449767393	16.3267592213223658
10.3116578494533613	15.3179000376056749	17.0373350989070609
28.8426862219597027	11.7865351928390929	14.9909982298549611
23.7750893123707314	17.1117557561155103	17.2200016427478850
27.1022137809355357	16.0992961887289212	17.7925510558493123
25.3549580179418435	11.7217327621254022	17.9288376969703727
29.2021112781132999	16.3617380642335242	14.8307336615090861
21.3619256504214761	17.5295248671476216	13.5815413808187646
23.1741214898401786	15.2170699062790717	12.7639663820449574
18.2441955399429894	12.2878322761489027	17.8502422906205567
22.2245053691203829	15.7940433388756905	14.2821487988967224
20.9645794180942353	16.3833176484166394	15.5273116715217245
24.3234031637989894	16.5740582386464439	13.8609428701556254
21.5769334230719636	13.9573733692284385	13.2094600103506004
35.2546118994853543	6.0465806332862249	15.7322045873011458
37.6318250592782988	8.8693964283283790	14.9209351018502243
40.9905637828606686	6.0296019932455431	11.7540918374788674
42.8900687947747272	7.1529276040322900	13.9110894326041130
35.6493479091067513	11.4766680933709253	16.1460847799293568
32.5334622797129072	6.5816098098600460	15.0187621126788500
34.3869953953160206	11.2949138625336118	17.6713017192368760
33.1005378742513017	7.8729904158350523	17.1284256844489846
35.2186081619920728	11.0157891175926519	14.3233376762732956
36.7088203274777740	7.0694777646266607	14.6097869174181270
34.2693742934675214	10.2435077218106354	15.7711172934171042
34.9219037807244064	9.5322679389949911	17.2931645247885690
33.4951519340676711	9.4684289314361436	18.7343441300906726
39.1417757658544758	9.9588915655726318	15.1879431777713947
34.0665785060967465	6.2781168503809663	17.8256618630422778
37.0019391934187354	10.7929249676379087	15.0806399482543902
32.1771278700504055	5.9695991523433021	16.9574861910088863
33.0034250725556575	6.3048921874154402	12.9491167095484485
35.7522823144614037	9.0672294932186581	15.3925703440013173
32.0313555482972134	8.0003313552498057	13.9383655018164685
31.2217603328969133	9.8433096960760800	14.3390331096965138
30.9142750628242453	8.1553521018021176	15.5925363033770878
24.6176355765269648	6.4368913095929718	16.7032147844994157
31.8148024529470845	11.2547212327375128	15.7688457516371727
27.2468288053383958	10.8463403110607342	14.4273705224967141
25.8397666323093134	9.2673148713231193	15.2709783125357088
6.4521725714837563	18.3962304270351780	16.5891747235086555
7.9450017159103927	13.4170723006344126	16.0385723400505533
9.7568164069382419	13.7253318088493419	15.9691510795750151
11.5206423097569157	14.4907607113023644	13.2056483323034843
1.4101140461444832	13.0705801367249226	14.3445269162282383
4.5508566054388000	13.1858638575854030	15.8802691062986874
1.0844246786440510	16.8318568261603936	13.4546922336602819
2.2146469005608642	18.1125891570599897	16.4814551094277988
5.0918375854139102	17.2571116111575975	15.2375571443253488
4.4472236874454998	14.4849313516658462	17.4326041318167313
4.8454098733589070	16.3778706687082405	17.1897782923328855
3.3092122819628531	11.4614792241584098	15.8737729714596103
3.1285344737217486	14.0957738288322432	14.5732255690707646
30.8115593579795117	15.0754763409585255	15.2584283271606598
1.7554626745317592	11.6898140430679565	17.4395829565228837
2.7340411443008015	15.9173833095379891	17.2594582232647191
4.1001107388120683	15.3582548785606789	15.7401778157030137
39.0411055899123127	8.3041676141816385	13.9840490293115280
40.8157243216816781	10.2624800308226796	18.1446357641853453
37.5489421145614557	7.6708997211952070	17.9602164316978197
37.8018281785011752	10.1483837083395443	13.5601254889646672
42.2743549966197421	8.7577151431690936	14.4890519644123348
39.0683687241465378	9.0508832559240489	18.5586346077492017
38.7564499328023544	10.7026070397411388	17.7388329748346969
39.6537525484075459	6.5180509627179379	16.5928175542124983
37.3136701265752961	12.0680286333161888	17.0348230424914746
17.6153267680492327	23.9901540088166243	15.7765039002662650
23.2805253216674721	19.2146323407122814	18.2076533853755969
21.4545411595330719	20.7382269891119186	14.0351284703587940
21.0249997800906279	22.5699742920287356	14.5197403013924209
22.8189796357679668	21.4564204733094073	13.0398369721251406
19.3035982062624356	22.3247938984693910	10.8428649027813169
19.1836491018818691	20.3889360850883747	17.6617603415967537
15.9297649261156877	19.5767798981002379	14.0540375193481761
15.3506546888613347	19.4359024963951335	16.1420102633485776
17.1497584997598516	19.7519182012999366	17.5905872653504574
14.9877350134957688	21.4859534788394875	14.0976807951153020
15.8667372533838584	23.3968988671683533	12.8253187537410724
16.4806254158908558	22.5129556324853333	14.5349918004450132
23.4499135437217276	20.8295879887031461	14.6459435530274913
14.7367976220863870	21.6489141026803331	15.8820276378190250
16.1924701316467363	21.2783456881289190	12.6850425423599535
13.7687667467731139	20.0277443081519522	15.0696889226289166
8.1713881488520528	20.4210964355819620	14.8279423000245796
9.0129728989356401	24.3451168442733419	16.2779336913118975
8.3927034302115402	23.2116198094609096	17.9033814961119688
10.3334880916325051	18.1711878858172788	12.8012167391954694
11.1752029130818755	24.6674980113794433	16.7107417755228873
9.9685290296973843	17.9642574015755585	18.9539304984651729
10.9171668923869039	23.7833335701104609	12.9950922663698805
9.8531238968918906	21.8470529581555333	18.4323325927377120
5.9223463881368250	24.8048619639626224	13.5842921835609687
28.4515520645250994	23.1836818496975710	17.5856698393949529
26.6469422355966721	20.5309331537286859	16.8214784812859754
28.5205542111884469	21.6181777321216018	18.7216733367966022
27.6577677076924076	20.9707990226013052	12.3770031959672213
29.7988686596348025	20.6378406017646938	15.5458227170635173
28.3201569921700340	23.1718752283939580	12.8289752605182947
29.9354252296842525	21.3161748615002153	17.2544164426579130
28.5181581712362586	19.5878532614393706	16.6783572015184838
26.1674013315818819	23.6635774628575106	13.5042768618870337
27.5989354063314956	19.5567178532774832	13.5942203300825994
26.6801324897711147	22.8023911453116135	11.7489859654367343
27.8309794177465406	20.9956731031541075	15.2861069375103078
26.4345573464337882	21.5872241653053649	13.9282752294276104
13.4207277841787693	19.7659093707065097	17.1699998736545716
26.2848377650450900	22.6562485045209669	17.6773227771659123
29.8817743959618305	22.9056411813912959	18.7557970006877923
29.3841819522534600	21.8719499273752547	13.9782270206661110
26.1460001247767373	22.2116569514212578	15.9226611503914839
20.5183632585689146	21.0181553393792768	15.9739643776367455
23.9310650686348367	18.7436003283746828	11.5409804969207297
22.5484050872112149	20.3316864437237257	16.6424013472334735
22.6385602706562423	19.2847031196785927	13.3143257598644968
22.4638156042725115	23.8063326038832876	15.4695619253027328
19.7861534439385096	23.8632645888609147	13.8671531936947385
24.4449676495737265	23.3066542329755428	16.5859753219620991
24.5181826191953611	22.5709536227360097	13.6697959366377706
34.9059212672068497	14.9830068102700800	13.1287007221840639
41.4364467088839632	12.4605038913548150	17.8553571371286566
42.4690870637392948	15.8165402573511624	14.3394733657600888
41.2092228911196727	15.1469916927121542	15.7308456158209928
41.1818673313048578	14.1506696645531438	13.9772449099048668
37.8263576161646782	13.2884090458454711	14.2970269779748858
40.4278046531981801	15.5076283507245840	17.6762395674988291
1.2868647783585088	15.0635523535566787	14.7282342790660046
39.5543819193798569	13.8606803124604916	12.8475959790201699
39.4961471004746940	16.0456843091728167	15.6918557389135955
37.6317186169771389	18.0479042462828545	17.0054554142290115
38.8323054068708444	12.6234619890205995	18.4716703712760157
38.8863013098846224	16.7043460244336863	13.5157721187327393
41.1948823043159109	13.0171225723972892	15.7932029648153414
33.2870775727023300	18.1703946985937499	17.1699056632001152
36.7351088764790532	12.0467736818107358	13.2343344120486286
36.6742231660401288	18.5200023338662021	18.6782509580560756
31.6155583671999736	11.7995377316919186	13.7819867811918826
35.3755336939691816	13.1168943231645425	16.8321799595931054
32.2006171082182178	11.8915023542645137	17.4235050292890357
35.6812589588558708	13.3132254269236618	14.6327722185565019
35.1154084367785515	17.7649624180310042	16.1306919180271358
34.6934541486939239	17.5625371229130174	18.1783241444799373
30.1376610230678494	18.6456545921073165	16.5597053180516909
31.0649280797192411	13.7963486474126569	13.3597504040913773
31.9484380436839182	13.6932265144650973	14.9554194035639085
1.0031403071944427	23.6401390579592672	17.2132349486256011
9.8576755804499854	19.0932859638948713	14.6758258545877514
10.3512024817101764	24.5072017528913548	15.0399432202155054
11.3842761233861509	23.3624411460097896	18.4264658023924817
8.0708674081906313	21.4809592845884438	13.1994902519878092
8.1733002645914965	22.5416666797179523	15.8358806933666560
10.3662239336154691	22.8852860672166543	16.6799293435525264
7.1841081532458135	24.0784922364259160	16.3888023100361373
9.6885612473021201	21.2358579851241522	15.3758477716945769
6.8239422719097655	19.6531764247451939	13.6378502823737531
3.0692853084981424	20.4758865132896695	16.7562418339255075
4.1967346301080459	24.5611290618760236	17.4836396775884957
5.5816178094565903	19.2160508755253971	15.2168435486890381
35.3586274863225682	32.7638247423642994	14.3299377030491435
1.3516438089151217	23.3561966840504631	13.6516536069828422
3.2016219225658862	19.3112128275505839	18.2781037398703425
2.3497753986752650	25.1214277542259339	13.5556003510478362
2.9901492883546648	22.9538572617238792	16.7427639415169338
3.3215600187200836	21.5912187212794358	15.0016935921000876
1.9364393793758423	19.8477533741746335	15.3183177041852936
4.8850501984097949	20.6417736209061147	13.8979168114967173
4.5641216313105906	23.3281899291873351	15.8597648530559781
3.0740735974597051	23.6294455774149732	14.8569490439044518
0.0710970729454488	12.8949330873110810	16.7987563760127330
42.0300190480124414	17.2230878820688318	15.6952490385955574
32.2017529218832408	9.4592292111706868	20.5090119152864965
35.0892556825490303	9.4083304924914781	22.6925834254095413
33.1457283398053022	7.9611966394242133	24.6355183508004281
35.6544553662457986	8.6797726253809699	20.7831966927955776
32.4842369862955280	8.5183273872947218	22.4719326276215625
35.2228503624206581	6.7721769917704480	19.4790033705463728
32.6588088444067282	7.8067525312067705	19.0888177678607356
31.7621084814654040	11.2860711933757276	19.6265909186478034
33.1226634287199317	10.3935152542634359	22.0724036628604949
31.7069613786498579	6.1639312804815276	18.8525800521870011
37.0285785917353110	9.5066870730464395	24.0924928210333391
34.9425253499280473	11.1814967671636527	21.8745908791849892
33.4732897030816829	5.8297449311423168	20.0540276976138401
31.1888649457649478	10.7768785582100257	21.6201381402469295
25.2393167074509996	6.7496483157213465	23.3627788980283206
30.6479873498832127	7.2650551639038508	19.8502440710839849
24.9671712075250802	10.0753503493705399	22.2832742710213481
30.4835963998116490	10.6482687388608923	23.5309014912583940
28.6133485403526571	5.5002682926384150	22.1199865846825006
28.9061929902595161	7.2158988899161578	23.3594590614734017
29.0930102835275122	8.7850510442585623	20.3839075783261663
25.2017964351799364	6.3353321670460829	21.0383653957646501
29.5896200246526568	11.8878555642808710	22.5364896734232154
24.8591090808275261	9.7595427183844699	18.7507833364484711
29.6322923183365532	7.4377617826939177	21.6688052484879421
27.4869927056795760	9.5956769227996190	20.7223941617106853
41.0805321337361349	10.2599851097813506	22.8779555873756735
1.7920872969145794	15.3535118161143114	20.6875934735099634
2.1433822860710521	19.0329094763013913	23.0298893252079431
5.8003766923123967	14.6889902732103490	20.4095610102917284
3.7448451261252140	15.9806305018547317	20.6793253554903274
2.9251295521872716	14.2346120728031327	21.8670789916566903
2.5652516467350468	16.7167283921753729	19.2605748195672426
4.7321263439030981	14.8666640929759275	22.1677656703884338
41.6632352686765088	11.6210696555633159	21.7229937845054870
41.4941348975500262	7.4974875119711752	21.2451021538992322
0.6082289353142212	5.4747049931228142	24.0035288576724604
39.2166490637878340	9.4485920139220880	23.1340493580980144
42.1807701068369028	6.4634525212925000	22.6244526224189144
24.9397035218183056	11.3438218023455999	20.4892413248842971
40.7820110775743885	8.9917232220696857	19.8044622830505084
39.4730505036998380	11.3366362797001834	22.0899661201928730
41.5030346868466040	11.1534184159193739	19.5440247854160667
40.8418758723492488	8.3774402582983019	24.0009743081601989
38.3662099605904601	10.8308375534995864	23.8955961636916143
42.6649647880357819	9.0239663697710650	20.5612652193673711
38.4005229697685166	5.7280442742114746	20.9886520384721074
39.0592534531749109	7.5156826824336047	19.6142152297899059
40.9015729541963893	5.8635949828647371	18.3856479720266250
30.1595208154787429	8.5839943044481828	23.5889727694761469
36.5722159373328140	10.2695018723473570	22.2972229960375294
37.0179096995391177	9.5495631299481225	18.2056523465209601
8.1597674185044013	7.3029950029837352	23.6386308779158441
14.1959129089477631	7.2563846468805995	22.4304323073148133
14.5687447733316571	9.0604310877794241	20.4415689449927669
15.4833008665042726	10.1431263432531971	21.7785141220482998
18.7369329246453553	11.9011964963888346	22.3138934116233258
14.0510350942438169	6.9707910298596971	20.4501213316574564
15.7308812563238121	7.7469921579188430	21.5438898911733396
15.1184670401386949	11.2824628337557034	20.4112641971677213
9.8878251959549779	10.3520210723465649	22.8325971921419821
11.5217154064972309	6.7948873631299751	22.5799783945641863
10.9465196437109746	7.9525517077866015	20.6487475859828038
9.0706707987492905	8.8112553852620437	21.3108935921898670
10.5611982247712231	13.5948541371320157	20.4729283113448268
16.7157641357270528	8.5217591946444653	20.1208189949148633
10.5226389630169574	9.9221338630701226	21.0084166637219205
11.2749986423450963	10.2966238287597438	17.1494639522393584
8.1827490082371384	7.5320175154361921	20.0093923947620702
7.0342638113238678	6.0812439863570242	19.8619827631918291
8.4942195334937303	8.3674179861218487	25.0886395278735392
7.0991108614758538	7.5469372675692536	21.7035094888391384
11.3452787965894792	11.4245031652558406	19.9120969197944895
5.4944020958191304	13.0464787064541223	21.6295556080468074
3.8073990958903692	12.4626498880183583	22.7270101103006290
4.8753726047376853	7.9830799135020980	22.5459586471366968
0.7148925786254078	12.7863150558903218	24.7451261016666884
2.6459252038662893	12.6459861419116795	25.5809195323580525
22.9675979777639014	11.2895393953612029	20.1569808000008734
24.5226770195313364	8.4990178856622638	22.9871363872801311
28.5412378361273511	8.8912236866611671	22.4732695872471240
24.9666385377349656	12.0852480504430240	23.3570932126362329
26.7306754916173155	9.4049682658429816	22.5559267108877854
26.7577875659052040	11.3267265754720317	21.4487811763474951
22.0622935047547024	10.0480103978536892	21.6994113558448163
19.0939778351783218	10.6923068139015349	19.5512316774806294
19.8821346908159065	7.9756389253912179	26.0704029308394105
21.2062502539424536	8.2034560292966798	21.4832260497972776
21.3907270374373688	6.5269096768841814	20.8770322714995942
24.8751831052265722	7.9041915784433954	19.7486043652566572
23.8443437332908914	9.6537332477245315	20.4873390481190611
5.7802523650840225	13.1144854372033333	23.5235011833466281
23.6880880844459725	11.1988308269380195	21.8080419326528308
23.7955729623617813	6.6085529430537111	22.1377710314259808
23.6057921792540242	7.4158877321213801	24.2057928800462001
21.0763692039036634	10.7965541626544681	19.7790644811748919
19.9087879484975758	12.4640675885709502	19.6121450026430466
21.7545074111492944	13.7291451475931403	21.6984960846167247
23.0162656595647839	10.5145888459985493	18.4835619371596458
21.1345747079172988	6.0370367691972913	22.6220418520548705
22.8850903314305967	7.7310966193107307	20.0115597239195324
23.8814578979949310	10.4656236735977455	23.8450191097945030
20.9700668885312673	9.8870686964338166	24.1881034918709403
20.2468117315944198	10.3124848455304612	21.4707633588594611
28.0952905194348084	13.5669386826106244	20.1136277898068201
34.6503260611930628	15.6436556519237335	19.1042715331784194
34.4361708620564997	13.1398182016242124	22.2589350906251724
34.3210783485051039	15.8959686230394937	23.1806047117829053
34.1311465928605600	14.9281565116899682	21.1052817771018049
32.6657323918524085	15.3437779695248029	20.0903296984370492
35.4145196269283815	14.4827864525422534	23.2781180370734653
36.3826550385347147	16.5394294826533823	22.9329171706733845
32.8815596811688096	14.6877767850706586	22.3987506484941257
32.6697765931606270	16.4310065611685729	21.8355428709565977
24.7988955240911793	13.4104027218337425	18.4355665621750902
23.6173632951607999	13.9333965258835111	23.5324117409130729
26.1403983193107194	18.3989591961389500	21.9843497537328467
29.9730586935201480	14.7911200999268075	24.9952708822067251
26.9374938360482794	15.2658850930227263	19.7595124941128084
26.3672312926895955	12.5333944203525274	19.7322117717889505
28.8995012014593762	13.7610974623458144	22.0492199123265564
29.0301237703999959	15.6778610944321368	23.0552110869043680
28.1423753521631923	17.7965604666647224	22.9277736404530117
24.4455250580181165	15.8945024178479510	23.6096116979311397
27.8775511809652627	15.2987923345379198	21.3177520437636652
21.7056417262182109	13.9992283893166967	23.7808927608298113
19.6459151996843424	13.3889857054546404	21.4048116475864951
19.8286401831836514	18.8578180015494432	23.4703603217634118
19.4714733134213738	17.0647917449493178	24.6156708566321747
21.4194747463672748	16.7281310810207451	23.5579422709210995
42.8760715738864775	23.3288131589797167	23.5012896090287029
6.4407299015755051	18.7136146788897975	19.5876768993053361
7.6856806002167239	22.9045538122120682	22.8636296213823975
2.9252504595537654	22.9126833730723085	21.7101190772156265
4.4273027536423468	23.7552442601805680	22.5943924985697073
3.1925932374676305	18.2569726602804856	21.7591203383289091
3.4217083075115329	20.0280733508688442	21.3871019518087415
4.6809163343370237	21.6519856336952046	21.8920905533599672
1.5102110346452886	23.6526478971263465	20.0767163481220159
5.1405487782802322	18.6450611316500350	21.0834996589235573
4.2755279542177949	22.4957737328735305	24.1385396627201096
1.3304204602443102	23.7473748381385938	22.1578387897302918
4.8844193425359856	20.4018465622658347	18.0028288125018499
20.7340511340672720	11.9375825729320084	22.1555449904815518
0.4862925500838076	24.8870764657390247	19.1870767897879730
0.0804658992145229	13.2369789342270519	22.6543493738814554
39.7665125084044035	15.0764028109879664	23.1239917882238295
40.2037031401116991	17.2158644029056376	21.1154886018003545
41.2781063938399342	14.2569464396693419	21.5002495271547218
40.9907207064184291	15.5960734424853271	19.8556848930919756
39.9520235856951089	16.9726110943435629	19.2247417821525168
38.3140529225641941	17.3535616063086273	23.5915354901370726
41.4883199624655461	17.8197130102441470	19.6960847729015818
40.6801138608474417	13.6408132057582971	19.4601344349883441
42.1611274591332901	16.3814883149338471	24.1309766427290455
33.9697578677627305	19.5200627489094245	18.7065747638040243
6.8554861226650887	13.2653076357632855	19.4346871499754883
18.1128415934145934	12.6683183156841501	19.7983488009816817
14.1864639129995282	19.9005104093414182	21.8665059511189384
8.5499509281085988	16.6305713217351503	20.6276695857344059
6.9548797662841801	18.0765543359535492	21.3718486502174443
10.7384912914893942	16.9582013263251490	20.5615296996866874
10.7916822712198730	19.0481644608415657	20.3188108415686735
8.9591088070025027	12.7703968416991742	20.1801125301695841
7.8981158292435039	12.4798438884909721	22.7687828863751562
5.5327943454462920	17.7567394055687302	24.4665380987427739
7.0156100467977973	16.0598738570802020	21.7196791543580616
12.6109334692086978	14.7469079012509638	20.6880974522439729
8.6494069899610011	18.7176431130185321	20.5446724568458627
13.7985306866875188	15.8485897200670962	23.4356114950822345
11.8609572717760727	14.6594050021128872	23.6726404858492359
9.4934274324249746	15.8391180875146098	19.1684670708622420
8.5780329816838705	14.7545830416074413	20.7115094574282637
3.6295151486860870	17.8302112951035738	23.8525192321855819
3.4974682431061326	17.6616316421722388	17.6669968867992111
5.4971848042294891	15.8642610328397051	18.8642552337498692
7.3689115123364948	15.4136441404339610	19.3065219547932365
4.4244944649653881	17.6910269268442057	19.3060053838513035
5.5248831437688111	16.8550269695761976	20.5165073861486853
0.7061359321775085	12.2647740412709414	18.8298040258663733
5.4593171255925892	15.2885831709436193	24.2230221133231431
3.8136542394556590	14.2387513290093377	23.7362151611818923
16.4054742885960358	12.3974700645987070	19.1731951501339957
19.6006412487759327	13.4953807684389471	23.5242346103069053
20.7345673692582366	16.9119797663554294	21.6148754265183385
22.3309545682590169	15.3613448688014689	22.2468657015174358
23.0380663224245943	14.5749835809710326	20.2314597069088364
21.4229019809598533	16.9534583999955402	19.7377117749030155
22.5453103800900934	17.5739585053880987	21.5673403172927358
13.6304923356573475	14.2284542669893401	22.4980281939780156
14.4813874272178396	12.4374041803127167	18.7078625458899630
14.2017083990650015	14.0078470639916972	20.2259334331817797
18.0153450149532084	18.3520655691940391	23.6385762654680462
13.9997520570605474	17.9034570638228416	23.1784495072971772
12.4360295244713281	16.8111906961195707	22.1901797446680078
0.3162708585600735	10.9368045053459220	22.1931667684573419
17.9588054822536023	16.1623775248728130	18.4959040220193316
16.7579105996230027	12.0221691956244481	21.3489017822551972
15.0624330940048949	16.9916350047367573	18.7310599394625115
14.7111580467304766	15.4097662431676419	21.5151868420085925
12.8113382338830526	13.6121132463290309	19.0922369019193496
15.0718324971649480	14.5660052104763746	23.5925647193427750
16.5735485910941875	16.3222468015109534	20.4108835034918279
11.8021176066978430	11.0513901322383354	22.1268955975220329
16.8536640036448375	17.9694111710884741	19.6326479817883524
16.6877900818925546	17.9886827936018712	21.8311453822508028
17.8248468160765405	13.5068136753633432	22.3739661389696849
19.6374617289449418	42.6160281310916886	16.1400784358534857
24.9378836197568496	37.9927216308344171	11.5640829016767981
25.8510103392633894	41.2317214805257137	16.1822133600982845
24.4392346985495905	1.0174950050818468	16.8915996098329799
27.0188349781630421	41.5340049882422733	17.5677884213533346
25.7054567576181796	42.8785450000296180	17.9808247234651368
29.6947067894497465	37.2923531151045964	17.9502650936622068
26.6179504549316661	36.3954236812860117	14.5121541901302855
25.6970847549319288	38.3134948266675650	13.5446994622209829
28.9571746878792844	36.6458465179389776	15.6488683927766505
29.6276047164244076	38.7473386355551312	16.4650463077787741
28.0222434890077103	38.0248680076062016	16.9341969082337833
21.5736482163808105	39.4305758093683210	18.0128973051877779
26.7891548085413120	38.2557297710664344	11.4778577975403522
19.9509453360998528	38.9786757271879694	16.4277807885174560
17.9479185878170142	38.7995340680800709	16.3747108964641690
21.7040971585826235	39.4669021021544140	11.0956461983455128
23.1259367847784283	40.3895060935461672	16.2366148719504331
22.8377920885336891	37.7591850833985276	18.9622613249789786
21.4291650600299164	41.7826618211047318	15.8973906078701113
19.1678712287393722	37.4702757807840499	15.2085771170593329
24.8580178926210422	39.6761363834968037	15.1139328613832422
23.1493277526537220	42.0064568568467820	13.4352370781097878
12.6909897923088213	37.7908419329179210	15.6751364006583973
14.8746923651797953	40.5366548699462754	14.4493367783951641
13.3269277660976009	39.5806853834554460	14.6841759991084224
33.8422720924994849	36.1767743470959289	17.8881548135842294
39.1438855831313361	41.3925096395618439	16.8775036252805712
38.2373954982618116	37.7748877902106983	16.1357953584892471
39.2066846646699929	0.1370279284094634	12.6431281005854768
36.5499083664166804	38.4959280586610362	17.3452912257093388
38.6973997427368062	39.7759445499852049	16.1294808070361526
38.3298540847330997	38.2577152510426401	14.3737061826166315
0.0708927649383709	35.5774169786286194	15.9524725597983252
40.7784885777194290	42.1413376725894153	17.3743057779586358
37.0891332699569460	42.2551259775876034	12.8699307650200829
31.9984675372067819	1.1752874794737167	16.3269214474496636
35.3626804851028709	0.0740326672148277	13.9638414797989832
31.6333487195580041	39.2694522657197211	18.6628441681594204
11.6170137665656323	42.7554354577567963	15.3023545730435071
33.4603133835536681	42.7521446552761546	12.9245105316576616
33.7077574513891420	38.5100317838800237	12.1286847890018343
34.5407858655351987	36.9120499986972348	16.0743321496478622
32.7190480756773923	38.1006389799051703	14.1099279310764398
32.1423595285587282	41.0335700390468290	14.2191539380431955
36.5044513579300514	40.0230494523824873	12.1841335159684867
33.6187072667933435	41.5430335928069994	15.9057518274617387
31.6603410008432036	39.1579881729864709	16.7491403035464543
25.0170808609236559	37.5627834680162636	15.1055461145775780
26.9869770853919597	40.7211919484522866	13.0739699944864398
27.5257589328910939	39.7280574139612810	16.4915028025635557
26.0797179054950554	38.8152369229404428	17.7233508088023086
42.2804698639902341	32.5794490724664740	14.1895242030338764
1.1399347904247339	38.2919265956328587	18.6567782159723521
5.1026405771725702	40.8161426798163731	15.5554462393273312
1.7234757606440767	39.9917827101831449	18.4173806250879935
4.3986613591874919	38.7760065384312185	15.5159884702428847
3.0913190723997284	42.4796899762049236	16.3010913164173132
2.4475794889387004	37.2930458233691837	13.5824432805404403
3.7093771492663001	38.7242263897489778	12.7202819604047850
0.5911029777071493	37.1134373743998864	14.5783777752977155
4.9900864928682100	37.0561473040854992	12.5164836572192399
3.1298510139870741	38.4634985689076530	19.3199010894992398
3.1416158257366633	40.2972348035043666	15.6801210742254771
39.4427685646253394	35.7215303962356003	15.9849089077897411
2.4110545435644610	38.7039650146173315	14.7147606422531023
39.2619079645370235	34.7950161409265064	13.9793625052990329
40.0584917739181847	33.2760745534108295	18.0166143516473340
41.2417537260649212	34.9671732580827239	17.2401129429843216
0.2968238531178526	34.4374995604504548	14.0818692672549304
37.8527250165246727	31.2242633764644779	17.3552433102989809
40.8364811043706624	36.7378055229514615	17.0311617171854017
36.9976471285260331	32.2164691167890709	15.7471512382621199
31.5418514654589366	36.1067336523264402	17.7146654087897453
34.6715942174389085	30.6310547589031650	17.0013812423509414
33.7640666858006639	31.2839576083138446	14.4293782184315145
31.6122067759305594	34.5281540867834451	15.8457402192368022
35.4710557322694342	35.3189131660345694	16.9921557405620121
8.4607267790431475	39.7878775044944106	13.5339069368526275
13.4958038851169260	42.0288672028191073	14.3948612752724152
18.1035529951316754	42.6660144978862661	17.6306286367553398
15.0232247165381754	39.1697179971803706	15.7471134446576801
14.8144731767236770	40.6155689849311869	16.8202433892287395
11.7907799901303854	37.9286764759462116	17.4027636485555028
18.4090988509691798	40.9928901342595680	16.3647029494278300
12.0714632802980457	41.1126297622446728	17.4630568694567749
15.4983149954430832	42.5946499383752979	14.1978295786855782
17.8611396696762128	40.3132012794560310	17.9451651379659012
15.1540874151636160	38.1015747441537087	14.2930971613801621
16.0490682850985635	41.0658078073824768	12.8133066709403405
9.6362881409244121	39.4900631814264784	15.3813991489824460
35.3545369887110184	38.8348332832532961	13.8652325752809631
10.5147178793413527	37.8491402366385259	15.8700562395557494
8.7686068882908188	41.1445749067926982	14.7606002995248620
6.0742831848097314	38.5428048785742519	12.5071704574010862
8.2183083907069605	39.5283754634141502	16.9542560034566243
11.5976834274547276	39.4916206136851216	16.1869769320914330
10.7177067496435203	39.9347024215955884	17.8371318702982506
10.3803081611845496	41.3224586874882860	16.3733010429797936
11.5393254431884458	39.0220661524666284	14.4202721669888536
9.5386499839979315	42.8488540139900849	15.7270070839319569
6.7073295811290476	40.9919024259675027	14.2110184375223501
1.4690059336241883	40.7258687874289080	14.4414023188353120
6.1832497225474343	42.0085658269836912	17.2169080447836045
28.7127983303819931	3.8816188264848210	23.6792672618156423
41.0371212648576176	3.5930334242557942	24.5156680755582350
42.9024866028588931	2.4109659843956659	19.5548678512721743
32.4298370243797152	4.2518679367653247	23.5527991354666284
35.3893177860034740	2.9438660320905643	20.8438799111526798
32.0344783929048589	2.0023828873116263	24.9220530087616794
32.9212186871040160	0.8015524671620777	23.5636816434654932
33.1066862671959186	3.9231735646086570	21.3370800942368213
34.8906325100534644	5.0577381268371857	20.9752754034705404
33.3736935379177737	1.7796018537908345	20.4597436607033849
37.0879849357479969	4.4646047404198148	21.0468925949804664
33.2488127245923337	2.5376426398026188	22.4946725782674264
33.9003758369778438	1.9617774577065510	24.5909061140730110
38.5692355224686239	4.5825662895636921	19.2593759389664427
25.9701245334848707	6.1606883611379759	19.0378011259814350
29.3622380323492536	2.9202437105077226	17.8887216725436282
30.0176755864332954	2.1075872746051867	23.8274016007744258
29.2443487536068076	0.8374909827278039	20.5518116460891882
29.8062750022905831	2.5228059682846857	19.6409013469451743
27.4326567401636687	5.2980073900924065	20.1582741841038953
29.7823145409137275	3.6856943735172525	22.2390977476576879
26.4392446171877431	1.8579193051092606	18.7221962271893503
27.9880256449283209	2.6580277359670017	19.7183440542042376
19.3715374789104224	0.1521309255180925	24.6435234136536856
18.1060594278103899	5.8881153165871973	17.9327330947691479
20.7074192031273654	0.9408820470951208	23.4281192704574472
5.6268288161119768	7.6620414224051920	18.7238575252578450
0.5386228663971399	7.4619852966516182	21.6171887717955400
0.6348185458555383	7.4237448793194742	23.6647382449753998
2.3104332992721446	10.5351846439749117	18.8181706362702457
6.8638322319875522	11.2805887527834443	23.6046957556026058
5.1264458005083968	8.0746801143915903	20.5790233922173229
2.3877274365984795	10.2318311487929456	24.9750292842681638
3.4426753015683587	10.2026672671595264	17.4313470924031577
6.2988051579243338	6.9066179656790814	23.3624949801287904
4.0502892421326324	6.4829408762057126	24.0792536086957121
4.1262546117288448	9.2326635979573179	19.2343943558157733
1.1963017935884703	9.0692682758590397	22.1743703142988551
2.2298710346338377	10.7348682755124063	22.8937867551933039
20.3359952513887308	4.8471670282002624	20.7280631596257727
42.0750606721644402	4.4012575811652423	19.6098290967607021
36.8719032458627183	1.3889273577017702	21.1163028449519352
41.5402455103700632	0.6363421943065399	18.8607861911433261
39.4688574561087435	3.0537042789142594	17.9523800882822115
42.6667019128585352	0.3415464720326710	24.8144612015767905
36.3992307804719033	3.1664914251059844	22.3450711223739340
40.9232529932383784	1.0873739828772180	22.4034691213324741
36.9475776597505714	3.6973276849123367	24.4139183410347655
37.7747418511460040	4.6497985071030481	23.0175383698498131
0.1083912350661428	5.5532475087111726	21.0534843458560630
39.3999731366430908	0.7214427723317917	23.5019606875911009
38.1260173290298567	0.3034475925515655	19.6384631394476656
5.5322983528877918	3.0639613629965758	19.0649757477168187
7.0388924932507786	2.0552919033449673	18.5420184229395950
10.5829308718291717	2.6657834678528300	19.3236382677145784
11.6602300597644426	4.9289925793467866	21.4682565022135492
9.0087402409489830	2.5951145813553906	23.2240121645026178
5.9574229152532983	0.8740340252909187	19.7354507940255175
4.6035776661993717	3.0753917624873703	21.9950168262655872
3.0068469599152241	4.1321617380751361	20.9541431946699319
4.0942557755413427	4.3571105914884862	24.3499401414419019
3.2126107257238865	1.3705230236534924	21.7839084098541811
2.6169748536400017	5.0217245164598516	23.3719125113212307
0.7137178366330840	3.8622855522446402	20.7177630541964426
3.4800474326820843	3.5935658438696794	19.0141538529921945
11.5234032803029862	6.0816661797689981	24.4074951059534833
2.6156384231088281	0.6079865567140741	19.7671765235305443
2.0732024987358688	2.4556579554744595	20.1586577651303500
5.3954206587364473	1.8028845684350230	22.9836030525847264
41.7837395711099973	38.0036273087158420	15.4179531987651881
39.4512222895833204	36.6362394272375056	13.0968236774054851
37.4446553181662694	0.9821295938018461	13.5078505056408087
40.6323084964179841	42.1062966821335820	15.3585744641169359
36.5178038119866670	37.4847475561851127	15.5152133559464289
40.1325172174986520	40.2247356437736130	17.9083230133934492
36.0514952834665721	41.7484489393490961	11.1619162725038201
37.0336965798969331	40.6509348923330975	17.2082774599993442
38.3292608883154031	36.4909758686858652	14.7725601640561344
11.8924689791883313	4.1743990918632710	18.8615654746800274
24.0760671652127698	0.3931071734901202	20.9352580532736461
23.5884812618402471	5.8669850810455682	19.9178449823621477
22.0359353406824177	4.6546008705596105	19.4360827272120495
15.2348716446180301	2.5375170483941369	19.7145032086648655
17.0726013815203679	4.8810480855236653	21.9150759752967588
17.2368710989588578	3.0315930318405075	20.6413223529951502
15.8224378278380957	3.1488916734792984	21.7584424559624594
13.4462864846085708	5.2760124567024311	21.9022352754470511
18.6228531097299665	0.8038234119883579	22.8729452509479216
16.0029893109416577	1.2237519966400821	22.4578653929854930
15.2897731465618651	5.7062309640628088	21.4187748198195322
17.3840076922474118	1.2706993245190021	24.4201788810304166
7.7221954403651631	29.1562141618957824	28.6428012806407146
16.3684798605440598	1.4198037026251089	20.5919686996595814
18.0897154846048167	0.7970356776865323	20.6969490653051942
13.7861214265646161	4.1772448129058057	20.4678404982003599
17.8360819238246542	6.7519800186850256	21.1383269271136527
7.4584924046051766	5.7992422249344191	22.0469780212790631
10.6087878373371201	3.1122158823904864	21.6064175515189021
10.9142766382071983	4.7307708038085714	23.1264204690711992
11.1490831334379248	1.4233612034395990	20.7025535676632870
6.9228695209890461	2.7632497584622877	22.6087370038928945
8.7772196389258443	2.3969300447609916	21.4636380752761085
8.7968726563456983	1.5912038646161641	18.3507491761299164
