Li F
 1.0000000000000000
    43.0000000000000000    0.0000000000000000    0.0000000000000000
    0.0000000000000000    43.0000000000000000    0.0000000000000000
    0.0000000000000000    0.0000000000000000    43.0000000000000000
Li F
 1500 1500
Cartesian
33.5457008686335030	35.2337640636208960	23.3920399154944931
8.2874947234777459	40.8737206854500172	17.0817613997672701
8.5049631271719921	39.8854384182817086	20.5750048406914452
0.7526840463003457	38.6133115561155122	21.9187174669875837
4.2954413343905573	41.8426298619869144	17.9679633308687201
5.8459526544887508	40.7105115937134556	27.1026061291437941
3.0424116513613462	41.5406321014101323	19.0170095422937742
1.8127115754366185	40.0771772342246848	20.4270721405843183
6.9436672262364709	41.2905953887404849	21.5110139611369817
38.6396533957215240	32.9336975466148019	18.7935003390304800
1.0845359234330882	31.5675423134641626	22.9326499984646119
37.5682759771103818	35.7841267837458190	22.2621804991162335
40.5843700236035119	32.3790815628422095	18.5359453234882174
0.2201608626373222	30.6971121131814009	24.0626784180741780
39.9005725037381396	34.4241337987332656	18.3859254301142521
37.6707866036419219	36.0104559584346688	20.6896789808731540
12.2736591650956726	41.9909191593132505	19.7002492151886699
35.3112298984642550	33.9813600584316760	23.6118721254625221
36.3235388211319687	32.8104695012155716	23.0962011853452616
36.2451434933826846	34.3222675761089917	21.5427551283311303
28.5708790124139078	33.2523627258450674	21.9130464077781575
24.3576968007105528	37.0884386001874375	21.4513210598292758
27.6876625185106029	33.0392055989818729	24.0809091956399541
29.3848800878869234	34.1027787242598563	18.6803108821760659
22.8608149620719097	35.4857123072228973	22.2852605815364058
21.9970684317036387	31.4734644605956682	22.0939274113822890
21.3529692415952965	33.6974769163571821	22.3121895877434540
20.3872441141668190	31.7896884753553586	22.2360410110636373
21.9561000812646334	33.7042739820998065	16.7786993969138898
19.3318793331454053	35.0908900894619933	20.2872601886813300
21.2025336259582282	34.7453618592019424	23.5084946175831462
14.6840293633441679	33.6425600993255998	25.1273564826901570
24.8765784212048047	38.6570369695061586	23.0406789689805720
18.8852506455163152	3.7086071787399657	26.6213299609977838
12.8411952049200888	1.2732148348509271	31.1757514594752436
16.8368267639322085	5.7392987733735570	23.3142985205556990
12.1567819179943584	4.7931490838128994	29.0456304935353593
10.5971342050698620	5.9286989856473360	28.3480852053687897
9.1466474436446372	5.7805853595885948	29.9880505495767871
5.9203534499815547	5.3116646583209821	25.4910315081132950
1.2024387341485028	5.0811603729648880	30.6889105224904064
0.3415842896251614	3.3713464527141084	25.3110206370714721
39.3798964552583897	36.3493484853381545	19.5740107592707098
33.1627104741455199	42.1904650138414254	20.7129789114315912
33.1822867556448529	41.4094077210245786	24.2445273247463042
32.2278288423865220	36.0975375464754933	23.6666000787040574
32.6084473546085931	40.4924525893676304	22.2585433065260432
26.8622446528915475	41.6177028195089420	20.1826208793796908
19.9754509484857401	30.2276785123835694	22.6408669190412795
30.0916318096896234	38.5947788412824977	18.5848810692013302
28.2546885590232790	39.1378617785614722	19.8675782521378252
26.4405885843816364	0.1742835053922050	20.4777477218987123
24.8841182175248399	42.4050546888000213	19.2273577672553806
19.3768391672200551	41.0216942438317673	21.0122011577870005
19.5917812696741969	41.3672895973437065	18.7714800156160742
25.5648991366137359	38.1343103748177583	20.9332759582636747
11.9650397991972390	40.2193302678468569	18.5989442890684593
14.6523138572780862	39.1530038204713122	25.5010683204829327
16.7081721067280640	39.7501199770696161	26.3277669433349288
12.3894515296688414	38.4555360822096759	19.2292830907619852
9.6709976983081773	40.2571506262686540	18.8192103798665293
10.4973068937169884	39.1268204854504091	19.6352839482765305
11.3640434284651075	42.4513181040219862	21.7860609697763472
41.2574798398633931	18.7277817990687723	23.5173493729688978
17.5038161324743307	29.3600181287872353	20.0733432483741296
18.3741707910533130	30.8510442277605463	21.5805610496092868
15.4674480861612622	24.3384851138577964	26.4911988041188202
17.7590035951691050	27.7951036688347202	18.4237960021771201
13.1852076646774794	28.7099638504071528	18.9824599986549103
18.0020957547276339	23.2289224546803830	21.4614325165028923
13.1395093197927277	29.8373842797663471	20.2331080950989737
13.0202004666391691	27.4849229956335606	20.0472067419951223
6.2791212237004794	31.3087351431705549	19.1466523088555718
6.5501821252164012	24.1232432916853412	18.5889046882780562
5.3382932131018839	23.3183670464280262	19.4024272290016562
1.0071141421030176	23.2612176271333304	20.4444516978653184
4.2346417038764690	30.5039247894114673	24.0858290583909920
4.6532310112686552	28.3686594552926969	23.8396873261532356
3.2299641554610226	26.4443532838572537	23.6929889403051988
21.4401691355220727	29.5659669502483879	22.3224319363855663
39.6098289781922546	21.9927183975505400	20.9854942545604075
3.5819409004489318	19.6613810485339080	19.3010617737588070
41.8068963484154850	22.4563232029498359	20.3501510975748907
37.1070814763803796	19.9746470764998776	17.1198364526016995
38.1133729013355733	22.1191372874316450	22.6788543891539973
36.9485229617447430	17.7283039652047663	16.8281392333590354
31.9386940457982540	19.6947306307869709	20.0695937018320443
33.1734783732510863	23.4656188359591660	23.8462868477071588
29.2676881088265226	17.3283524008012222	17.9649919030426268
27.2555553948411067	22.1104024207226324	25.1972260785395576
25.3992459778724964	21.8239721602390979	24.1537839425470509
30.8240864558290362	21.4115187964528673	19.0286320455689690
22.0586140080739597	20.3686083771429089	25.3378452979774451
20.2965439132867758	23.0894849976337007	21.3433905169369815
36.4518600465554243	27.3105385737177855	21.0359156300757490
13.3347333304193754	31.6586616888732237	21.4952551568779455
13.1594968192149206	32.9543417336208009	23.4648860419390672
13.5334936097965226	31.1094790068542650	19.3093602130377668
14.6976188595701185	32.2815565161254483	17.7879657593326819
19.3176378724214928	34.4381438505293929	22.4503256666883928
7.3528385886134959	30.7896418116425856	22.9881836610517638
7.7350396385598410	31.3976709480172822	20.9211327780639422
3.1779057605374272	33.3035254894394299	19.7970230770399738
2.4806192664078752	31.8282018686897779	21.1304949324128906
4.2338617071609912	32.0669759477518710	19.5934113219206338
4.8294286685783012	32.6797160422133359	18.1889060635204380
1.0152657422291687	30.3277928500193639	21.8863899842706289
1.6680993169452598	25.0209517451234760	21.9783994516177152
37.6952476973657369	31.1575206693402542	22.3159963125049821
37.8788679414266980	29.0281589611725011	21.5380450039880884
15.2673408155479748	1.9909851647055490	24.9138493246541302
33.1111941418933569	25.3660733089938617	20.3930743243794588
31.1054662175872529	27.9371256369567895	19.4972701250483880
31.4857182366372896	28.6586844783515744	20.9042018435967947
33.1608119575683915	27.5799570734256214	19.8763416959999937
34.2076623869246035	24.2203875712156602	21.9480217192116136
29.5298261515594902	26.9643401332461785	18.7842417086141467
34.4799187206225568	26.1123623024084779	20.7769973005864514
33.0919755996376850	31.1703389498179853	25.3372436684740947
28.4372127067071823	27.2678117352071183	22.9341484672636930
22.8304181950121432	28.6418949970379551	21.0651261204425282
30.0792349290680754	28.2585773995563585	21.6296920254474223
27.6931738280169668	26.4625605739428416	20.0873740399324099
26.1542861420986306	25.0629305896037415	20.7134412636007497
22.6038788633828283	26.5451425137035599	20.1420960736540877
42.5828525026762605	16.1186061208965654	28.9153228844515411
23.1438591772165445	22.2537720760958955	26.1520928170516669
22.6855685363224211	25.5191751220649401	28.3399798208422524
12.9371251839400685	21.7033862567555325	29.0604727776584753
16.8215018806643037	23.4144474536201059	26.4802683787121467
13.4058250753033548	19.6207598754473871	30.1202062950728759
14.2409268871769576	19.4069105567903257	25.9890303963834377
9.8119216258280204	18.9920330805069106	31.6958650245422575
12.2969891004133860	23.8870928262278461	29.0466772600104726
13.3073743332888448	21.3011953984489963	26.7394554484101832
13.7064641964521776	20.3891017181881473	28.4995425402871199
8.3488828100246373	17.2042486074878980	27.2963736625510869
2.3968355464327917	21.1143608565433318	30.4676289551330264
3.3463420183542478	22.3645887231178477	30.9235238064484932
3.1788029869636993	22.4445938275800714	24.9649627115469741
40.9262821367505722	13.8274982912297002	24.5881768738747404
18.3645889305548913	23.6705768008006352	27.6622009494993080
36.5186925454376521	13.3810253148731348	25.7991742591760165
39.1108856702911396	16.2691534409739518	29.4549086250498853
38.6793324324150660	14.0430691622350334	29.9416753205204600
35.2772263085883537	13.4701436771546259	26.8428530321887884
35.6354795768074695	14.9928176456137656	27.3215839543592764
30.6203008172202580	17.2333278219833730	30.1294074741240294
29.8208053562168374	13.1549955150025060	26.3774207315203455
29.6639241780562415	14.0375057875021820	27.7381194846949910
33.6393643607187585	14.7627678094650339	27.9054210455376221
35.7926454743370783	11.3270750714321569	26.2629903864924401
34.1823143201540702	18.1243677731209232	25.9508616709411939
30.8200798790183015	11.7223493336948650	31.4511784948175901
35.6577212812724653	17.1510326716575570	27.3407146151670162
26.2901360469560466	11.9620270665440618	30.8032249343376279
28.2531937682124692	12.5451310782673175	26.5743441189615019
40.4669640053929314	21.1453379317984940	31.2327066498541122
13.0348238741864044	28.2689940719037232	30.8180809734117318
15.5977263005498514	24.0989161829261640	24.5436388909592367
15.8523766969550515	25.8873007904381325	29.0647738957758328
16.6770839259895496	24.6721224236402392	28.2842883693820539
6.0601543044820065	28.4607752695992708	25.6842097295982974
8.4327066127470509	24.6961600471966030	25.3643658365613405
8.8418948046505470	25.3577461039325271	26.8017456863564512
10.3299931379361816	24.7935120408938445	28.1721785001912579
9.9840164915693972	24.2823647940272984	24.9876488607337777
42.3682359219293900	28.8230221609551052	25.0170585954564757
2.8515893364130362	24.7231080835094055	25.4015970233236708
5.6774075108485613	29.7177267373129297	24.1054697411927918
2.7373299675619682	26.2944443899469142	25.7396639216574847
41.0233519325689997	23.0625291214173629	27.4207283894436813
37.6228677089173118	22.4802966931042221	24.1606963467819433
26.5686812556295813	17.9322885526229427	29.4376305985600695
39.8526977076391233	18.4636176438053639	29.3580202202271963
39.9185577025455345	22.3834800197232688	29.2624981162278104
37.0374214707634906	22.4511457567259818	26.0460826640605347
32.8538240061727294	21.5323942076411683	32.2434069196305302
33.3867351788124935	19.9132093326032127	26.6906252260008934
35.2206798785370552	21.2352660974749199	26.8092735155507036
28.7748852412369942	18.3526903424937551	29.4082906701194062
27.8141015545666228	24.0525651672456391	29.0746622340155270
24.7570513180179681	23.1548414470388835	30.0888352112416939
24.0096762287956871	23.2019569145793483	24.5064555103677613
25.2872458138549909	22.5482448800413273	25.8875493001787866
26.0741038082686920	23.0129547979464277	29.1425012914317705
29.0843331803822345	23.2772251491801967	25.8407964233552221
23.8060132643120603	22.3173840773764560	29.0617643484671788
40.8738000332487061	4.2744811341725715	28.4552139401261144
24.6603169492362326	12.1322584354750642	30.5580975786420908
15.9327034939680416	11.1560317076120938	27.2317979074319858
13.2313027489984574	7.4332895922043729	25.6600552982466681
8.9872500307070435	10.9494568196403819	23.4987802639094454
7.3953428077671299	6.2044597904922263	28.6558604105982226
6.5981175545171986	8.1864414616030707	28.0167517056685611
7.8012401747823432	8.9731783310750561	23.7190456198121034
11.4573707513932579	7.0047503186721958	27.0645215474097256
2.5154812466886520	10.7423919585535703	24.8303513664773376
1.7367148357708424	9.8105027836071717	26.7544421310471172
1.1774212304453993	10.0359622027999080	28.9922136910444550
6.0998968890364162	7.0479438397970906	27.0071208484629857
5.6247602204308578	11.6612235090093375	31.6550555251588293
38.2977424856117210	3.1463335340067582	30.7666693325306966
41.7352932632854490	3.7349678009790974	26.4930626803717217
24.5988224552663048	10.9829535625561796	29.4459116760357560
42.7084467135718455	3.1550977241430744	27.6275776963786441
34.4771376441194448	0.3141866509676058	24.1233080741166503
35.7165639968687927	2.3743329831584647	31.8268726329150375
33.4400869506858456	5.9960415657578912	27.9961617056226224
31.5756377541710549	5.3875809327162205	27.2126367949960688
36.6645410177718745	4.4578761124023565	30.0548670303115024
28.0486341739279830	4.5617899990759048	28.6700982639582875
23.6265199123852412	41.6283840137268371	26.1336896311445237
21.5457375559424413	0.1702482123443233	24.2520150316955956
20.1688689016469311	5.7020990686173327	29.0817737745332998
18.3998149813522822	4.6385050905975236	30.3056967444784000
20.7330677874634404	4.5342552985416766	27.5780553470905936
16.8543838807561315	3.4977720898319142	25.5329226966001741
13.3424929736351814	3.2796508809436187	30.1125675119914646
4.6814849149066928	11.5864788137319099	29.5567557641506653
19.6084806736075947	16.6055671251184052	31.7772731408806060
18.9625395053182686	12.9297325616275014	27.5204637285576830
21.7243474336771349	18.2486976024037872	24.4430858098223993
11.4108910208505581	18.8138761427422239	30.0361326976849377
18.1104063032752407	16.0742067906639186	30.1795959729964771
12.5653805624123347	12.8325274953231023	30.3396573384925183
14.2339711699286653	18.2808081153386439	27.7441448164737494
13.6294463171912401	18.3951746627808284	29.2744460119670258
10.5372073029503817	16.6794659429740832	27.7558660636994787
11.1087754283303912	13.1791026376343741	22.7756452834563028
12.8060778113439948	16.7800460491399193	28.0855946628474591
10.6754631684401069	13.9653859404655947	31.0275091541508559
5.9164629568644678	18.7332184337239660	31.2086013848311481
42.8461819730596503	17.9648261186198219	25.0194008108912413
4.3781869541225387	20.3303799849792490	30.5458236153051885
21.8376830004046134	24.4023762816485323	20.3928652457442965
1.1298575142343714	19.4921590956004422	29.4920382638873058
0.4115394985169695	14.0309099033466929	29.6062280666155182
0.5660830923135821	11.7698021476082992	30.1004329279522800
42.7698727182409755	15.7867077394548687	30.4724859427490813
6.9863205728616204	17.2030286275620838	25.5133725649448131
42.6455604298057835	6.3183363883545445	30.9558776864867937
37.3581604304652473	7.8947409682876097	24.6909108120832776
32.6781233883042646	6.8236808714157391	26.3469264979113369
33.7644490416264063	7.9648591423533963	26.7126249215340579
32.2622028961990779	8.2467887518280154	24.9290452505358289
28.5447393021500453	11.4492883028047103	25.3019626200748817
19.1077981244955808	9.4557773750473135	24.0728213815221572
21.5260740419583350	6.5001637165178661	27.7463360784088628
22.9902299946941646	7.2033472628204231	26.0733664917300736
21.4332693623309147	29.4673681870276702	13.2899670871744924
39.7723459527720351	32.8911937693363967	13.5236159706058459
38.5202949570700781	35.2483198141201797	18.7394806603308055
38.4557260100522313	38.4155644834361212	14.7686918743094004
1.4850804863468725	34.9356376970332576	15.3020747343763066
37.3939225495268914	36.9741485350518460	13.4015522686852364
29.6417496345212967	33.7550964885572284	14.6946419082272293
34.5531505747920633	34.0054214408248754	12.3374316326391913
34.3556274974622866	35.2159278797045232	14.2816689820771270
34.6817784136427036	36.2862765453566993	15.5160507400130321
35.4488251830262655	36.2344170731246393	14.0632638300642316
29.8206643988250377	35.0318108719202357	16.5504484142239328
29.4027290625139806	35.9186346406171921	15.2386687257849651
26.2823544003418981	37.0733641795806719	14.0648527743483793
26.2568626796376243	32.8689364087262419	11.5443920466083494
21.8125076779167237	36.0201843029950695	13.5220287313174143
41.3350526611150499	33.0396148929501905	17.2430222611538007
18.7665369010931613	33.1510171981770441	13.3117878025079932
20.8228640127417854	34.0502652173587279	13.8772979269868593
17.3732684044943220	32.5095094369072584	12.8845670306254334
16.3378192299016050	33.5398691821536232	16.8167465560492779
6.7636159559563618	35.2545382025384910	15.8852020972267649
7.1061410441507835	32.1810896953874135	13.2261280154414855
8.7003456240829191	31.8551177407045749	14.3960349838524237
4.9100690073849318	34.0542809794248242	16.4850827780735756
3.1495189689148018	31.0605238728242945	15.2138377802605014
2.1641610741030801	35.1120331652891409	19.2937599670776301
3.5032721149871922	36.9796468023888707	11.2405006892193544
3.7754288007303027	32.9274640257871241	16.3126498105845350
41.5717704130224277	31.5203075188010047	16.6369406021911388
40.9717432060770435	28.2863123662079445	13.4441408882027424
31.9795973788165782	27.1673231185137958	15.6730897795243695
18.6078763976732944	39.0768923432841717	13.7103926171757102
39.6959405461135546	41.9614189980717143	16.4676073709463147
37.9202987736507566	42.0585852952145629	15.1121501296695833
34.4887768724366381	38.2343801873073943	15.3863165424785056
31.4329679231711978	0.4698786147854219	15.6835849722873153
31.7755217174488358	0.0985831706625491	19.0853324607016965
30.3894689909100997	37.1140923664181983	16.9298965239023929
29.1707142055676947	39.6929954541289547	12.7079151351420485
23.9778982549901052	36.8577803876690311	13.7338322897871805
29.1486625065851364	40.9830698723814209	14.6465456022250109
22.3140471021206288	41.7834329506700186	13.8648122808022656
20.8678532146936426	0.1254476804528028	18.3861938991847325
19.7741406768462618	35.0565513612296087	13.1964543966453256
23.0048737590311418	42.4396171903630375	17.8624829763109183
20.7665017275328694	34.8322979482633812	18.4679734922519785
20.7947524688636207	42.6800986927683539	17.1457588660135727
30.4174161896149826	27.1717554545175588	17.4094108299054824
16.4504748475276088	38.7134362856661554	13.0046297589868693
17.0670851743286569	0.1530335768896882	17.6791193603357044
15.5936632564717179	41.4518523685515561	18.2834802867010886
13.5760792517814206	40.4138940364115840	18.7375395565404688
14.1066484557742413	41.2272792644083168	12.2411369400126713
13.0565624572313173	39.7584965316968564	12.9001953736802921
5.2027405931562631	38.5538674494550051	11.1110476356595917
0.5498987164820454	0.4393019812459432	12.3078070244508044
2.7579484853436904	42.9179326078508581	17.2212192660554599
1.7732534499429207	35.9702937115772556	17.2020103086927385
3.1086844367035220	1.3788790029693321	17.8409696398159632
6.2063551971063990	41.3842404909810639	16.7713201814050059
0.2491061785662649	35.9414879351485510	15.4764712952627672
41.1838661870326206	32.0314824108158334	15.1251768594704146
41.9817634451131241	17.1093785283193967	16.1762380764875111
25.6814570815168217	23.8105542830001617	18.9310958119420008
21.3389872835109315	23.0978166537493870	13.4939083065399341
16.1920173306041768	18.1746986373674275	15.5830704871075625
14.3062763607134436	20.6849262387469111	17.7992685074840402
20.2255596626105856	21.3501047777370907	12.6576063379082147
13.1349491747481739	17.2128726164065071	19.7312105707221725
14.1932385821375497	22.1267226103188115	16.0731241295780833
11.5658521240337695	18.8717245010522134	19.3913378587284591
14.0779860548325502	20.5401506701932206	12.3647307421271453
10.3729238202256155	22.6326105207189485	16.3227628168474546
40.7139463668370283	17.6182882232370446	15.2891001831747548
40.6147029954629062	14.8123459086034845	12.3048652238039136
39.1190016753502192	17.4516097347309902	16.1403449115808719
41.8972202313704685	13.1894010029007394	12.5218876473286773
37.5040522965670391	16.2233941999114606	17.1406234011392868
29.2310176642183066	22.4549759514299758	17.7100003754626805
36.0822566213713074	15.7833530921736394	17.8946164507914105
36.8258078123556842	14.0250968736045962	13.4092368917544373
31.9564611231043685	17.4097933932671296	13.9386300349624843
29.7880487387169488	17.1180016430086184	13.9345694847786987
27.8680268389576113	16.3024902635548301	14.8031944511577134
27.8762757650475628	16.1383652381421463	17.0230652819471366
25.6255105388800004	11.6579934290074316	15.2697960925703562
20.2314443395993315	13.1620247590122261	15.7037241940271795
22.1560132497146256	16.7658358501175506	18.8491991892702835
21.5365347905677673	16.0710710250320510	13.4249593835702008
17.9600683936546339	17.3462110097342794	14.3053681598503939
11.7308551191359012	17.1490785386942619	13.8095138250308764
13.4344447698172846	18.4045025807741709	12.8962684031804624
9.6189091227824672	16.8439122972568498	14.7040751087993833
13.7141236314816997	29.8649152250872767	13.1275537064105787
33.5018376462126284	26.6525559079682672	13.9936370664608791
35.2916437409969674	24.8254819179248720	10.1179372024707241
38.2782850817131148	24.2976548567551909	16.2860006533555755
34.5443505160222486	25.7550763924762158	12.1166640617278549
25.6214260565943377	29.5058381640965663	12.7003649673726162
27.0675005023878903	23.0880709915478235	17.3246214002817815
28.1157403617767621	26.7510993775695880	18.0260029249982701
27.5023346874587773	28.8728563790704555	12.8595520791019666
26.8482587761842417	28.7320690050944556	15.0828327653526486
26.4231077056818187	27.5860726001409589	16.9925393316014279
18.5026385148060655	26.8798402491832391	17.3742482014634341
20.0945110784199272	27.7334828612747479	12.6446776061205917
23.6824245547890406	28.9769145345906232	12.6573349242393363
22.9070307115979759	32.2000211449849658	15.1799853777101941
17.8267010408162854	28.2578835956454633	12.5304510955104647
0.0950784353131576	1.7638491819370625	13.1229921556814695
13.5927576079633816	30.4247394280386523	17.7856141577231170
13.6307490564464420	30.0247947606078114	15.4701125241425448
13.4767878112258970	26.2986578485091442	12.6935482468613063
7.5115576620252185	24.9293424570279178	16.5890811866726580
8.1027034208396458	28.4848657441581175	13.4981572075654093
7.9054322645769286	25.0297490570723618	14.2948183950114895
5.9958696207412752	28.0640974956270171	14.1136225050741668
3.4702406020442185	25.5814571712775987	17.2756334902678397
4.0367147371047878	29.2532802092620301	14.1600632244003961
2.3747336689132097	26.5674467253228705	15.9082743310844652
1.7629896104545522	24.7887444550536102	16.4810589798599949
37.9721957269465591	22.1071305463161778	16.9828756927868376
29.3801179128993830	18.8026380513465909	16.1708856135589834
30.5934435056329868	18.8574763235815404	14.2875323951423798
41.0532514660344887	8.4728851093903934	18.5302440273200908
22.6543520186960166	10.9499169494811959	22.6721339664323871
20.6241995579011608	18.0211980521266817	20.0518842634382928
21.2065736249816865	10.3124157038228716	24.3136698048872830
22.0897209735562257	16.5259601216110319	20.4391355083400619
18.2623316249441281	13.1312271373576355	25.4449001945289943
14.6101452114499963	15.4864393595241943	20.2427472832270681
10.8628792549258630	15.8124725053754585	21.6395327862705535
11.0352296106047501	17.5350940294085440	20.1192107998764627
10.7390637393549238	14.6956602477905722	23.1242672003750727
9.7854106969994277	16.7520921844333088	23.0434698187798048
10.0701001319231978	19.0175278510721881	22.2919526283739593
9.0708409154542231	17.7673017144720227	22.0604177772567347
2.9129691884548836	18.1465577666983187	17.7487830784012282
1.4823125089772735	13.0060357918005600	22.5181690190617516
7.6123763632976127	16.7500742745049571	23.3604758398332741
21.8760713436789977	16.7001128115015725	22.7444870821817986
40.0769711611472772	11.4045643592292443	22.3597494394493559
41.4774125912661304	6.4138162807536503	19.0366744716440053
40.0456192885510163	9.1655489358290509	22.9082354693314016
40.5624551085775806	7.0523253589227544	20.2534270573049575
38.4263254401625858	7.7462579268054457	23.4444326652572563
39.2904399294495406	7.2299730880707331	22.1230035398549560
36.9523808015533106	7.2812664668705542	22.7914791689998282
34.7223700996137197	7.4933475312499223	17.9166915889535368
33.7387559459109312	11.0252118402348351	19.0299695882536888
30.8188913683618999	8.0704794373797295	23.1338881246604409
34.8104449667308984	9.8008837615034565	17.4116996355121394
33.5020076074571591	5.8800930746294320	18.9462097651129362
24.1865073121591614	7.3508967338128706	25.0629516956554959
28.8194631286958796	9.9180305602508785	20.6901469951792087
0.0764606798346066	14.0360438985407345	24.0157496067541345
21.7463393914260621	22.3615754175861241	21.3466822598062400
19.1811625933556336	19.7299827073298886	20.6735271364613702
19.4993677733410173	21.6829207985104695	21.6084395187789085
7.0448904627983042	21.9625357732554036	19.4855241240128443
5.3866699847203829	20.6104265685811043	19.7666249059767729
9.5505790276264957	23.1438459841670294	23.9077160231674206
9.7728115907295638	21.1977301979829988	22.9176635120814574
9.3811423784464054	18.9930081302940010	20.2034643529296005
7.7879765360301692	20.4958379032211653	19.6965407734541778
6.7016305937228866	22.8762599886369564	22.8500792992588480
2.3424650987680513	23.1941389755806107	21.3215232988834948
4.0231802070354385	20.2809125023850534	21.2784470210545571
3.5895116024277081	20.7672013064532663	23.4929462092543240
4.4693045057234260	22.9520820081039609	22.2150707782409995
3.2215140023493283	22.6787842053554698	19.7213509870116681
27.0962349664976472	10.7375903045039198	25.5940413329943510
1.1252239145653722	16.9404389805755997	17.1138564582554515
39.2152839931168700	13.1062980369850308	23.2286145519150118
38.4516846199902105	12.9598150960654959	21.8218833413480660
35.5605485281616538	14.2867449991366779	19.6675351058619547
37.3383909473023650	13.7783662468021966	23.6700092927656627
33.6570936807610792	12.8629708911436182	20.4554521547770740
33.7684066598846400	14.7282586991619162	21.7376470919638045
36.8718896471656734	14.5513270972936919	18.7291591258707406
28.7996068353900192	14.4636199554879479	20.5633209742086187
28.2756508125886015	15.9414663858667147	21.1072298235025997
28.9413345454466082	12.2002658520255061	20.2827495696473363
29.0292975223190624	16.1958461867954036	19.0922699649200247
23.5470227059944825	15.1253944012105190	19.5806965157784916
28.0354508521043257	15.4218105074818652	22.6013095185582813
11.7953613287953694	42.5627562759692353	23.9864898535811690
30.7431791732968627	3.1910461571416784	24.1297601799414565
31.3713397788382160	1.9742941325016119	18.2197767056940378
33.7054252818156854	41.6745688868988964	22.1996148162143818
34.4768977776770882	0.6154604112346825	22.0130668062458632
37.7666166279725886	5.8159644101174575	22.6730162539257130
25.3797054275825218	2.2002957368868721	20.9880676487951980
28.9623522375540929	5.8120912616883835	21.0352318379316081
20.0151390693004814	42.1866040233632518	22.8780381789807521
21.5566181466249418	3.7459821501505637	17.3766677786920454
24.0966339948574877	4.0219821708477559	20.4171279155967262
22.7624256849817499	4.7891275678994916	18.6366570041922728
15.0655091786335209	6.7425157984956776	24.4290540531405682
14.6830311532702353	5.0564569812670452	19.7185858133927248
18.8156239846037217	5.5171164181614314	22.1638332030727803
17.9752382600385943	2.1302224494767250	16.8368261494507472
32.5558215779415292	3.7842328847900846	18.6856894124443471
4.9939536352336971	42.7153157762339220	19.6712418084178537
6.2911759480517704	3.2525695949515745	21.9181209173599001
12.7636563126237821	3.7474523489535998	19.8165233160889613
7.1009984124521175	6.7837925561276426	23.3403506587180587
7.1326341961884454	5.3226477353009942	21.7695898386703952
6.4091797537344428	4.6867127262230168	23.3706299333793908
5.4770539029903054	3.5882253474463019	24.1356701403251037
3.4727539456902479	2.3137508633180985	19.7728309410044076
2.6271626864082473	3.2738873574688121	21.6466946978944428
42.6853089251922313	6.0755960232636337	17.0641015989490157
1.6313710966887447	3.5283994240132195	23.7262883795965571
4.6140928932473058	2.7101523045824845	20.8478896642587870
5.6048234206420897	1.4681071416029423	20.5075142736106457
38.3068281341797032	40.5272655016944228	15.3666189655836671
12.0457942471575592	11.4361998627313319	21.6229989159142519
28.1745103024181986	7.8615762716295281	20.2066088861558519
29.2757046335934383	7.8442184284178893	21.4243995579026603
24.3352715477156281	12.9797824098524863	19.3629750282719257
19.9781367333098423	6.5235233843246379	20.4811660013224923
23.7446601242459323	11.2391978248870004	20.6453297452111748
16.0667715781067670	11.6954485391072556	21.7762644599607214
14.8084211869142042	13.5594646532396954	21.0997211968431770
13.3385985344292415	10.3711504964525751	20.0833305053116504
17.3226415736896726	10.0268208832539472	22.7928995565063950
18.6454736476321301	7.2075762815074125	18.9726314040064210
16.5283114790941497	6.3690902619402925	19.1919220065509464
16.3507676359148846	12.0069391938742509	25.2372915066505925
12.5997942839075048	14.0167016665896877	21.7750285907864018
17.4821112321695580	10.8986360702075959	18.4152890382279786
6.4008383001637918	8.1709514190911499	18.5650354363402457
14.2318860248708390	25.3209664250548450	25.0330457946042984
5.3511497352391055	9.9414614806784893	19.7304983962701819
2.5401576078596468	10.8994446898558497	22.4253283907447205
5.7837441146454971	12.0959396061248050	19.7792412239822006
3.8208526345231717	9.7034699081680902	20.9608860148464764
2.6465515035497242	11.8844409319548188	23.7187761374432888
5.2942059327222459	8.3045427741206090	19.7367782222968593
40.3565188491316249	5.6559451904523961	21.0294455038295212
39.3242802735633887	4.5730097352340575	23.6238112226822352
42.4779923461640792	1.6591853146357440	18.7615121187575760
41.3183516827421471	3.5943128161612150	24.5000659239582035
41.4583799495306806	41.5243249342172405	22.5810387557597387
39.9210557686336429	4.2134307461169467	25.0995614716652327
38.6956669208004058	6.1324749014566553	24.8837650724175212
29.8059803848566283	4.0399862383955218	22.2152979192202444
26.8908850635437204	5.0064857237093143	37.6077698165078260
35.1769544924039295	5.5607831465733240	41.2849878185337786
35.7441191218448182	2.4256683377341632	41.9384004846007130
33.8481362763608473	2.1431581143186422	38.5603454909309207
34.1438236775388759	4.7858111051151431	35.7288188594541438
34.8335020163206650	1.0741768117157258	40.2742740468790217
34.2261627510009419	0.0395679870162960	39.1339634666838805
26.2920163087967822	3.9999703845749659	40.5861270517012400
29.0210477110678298	5.5467835564981947	40.3437984135092833
27.1466142559531072	2.8048494945932312	37.5866018277722347
30.4561431991007581	42.1842382350116978	42.8719763360601931
27.0490760232421508	5.8694147148613984	40.3881487312740859
26.8205699633117831	2.0662127632309248	39.6177798300448316
20.3959138280195909	5.0243985507399156	41.9916162227271030
23.0873476717155022	5.1151803552145747	40.0522709539902735
22.6349662377052567	4.5677693218958799	42.3216303813538630
0.2271803730997977	4.6495760603491716	0.4711557448486403
19.2717889215787253	1.4623971286354827	0.9184070553897182
21.6404225086905093	4.8622638596896479	40.9232565219946736
16.0846914876309341	5.7754801140176024	39.2446511199603734
12.5013601300135999	42.7737091594802550	0.0811980052867889
14.3756451712627218	41.2205301071939871	39.0851933606819699
17.5313664774410860	5.7127961540025458	39.8618579933945441
13.0068880723152631	0.0544191253055142	39.2605343865676275
8.7932706788681152	4.4299893766656018	39.0562298429719448
5.5351002904851399	5.9282705020436719	37.1340759862228396
12.2569613048599635	0.9207443019898537	41.1492409215581318
8.0083229811755157	2.3057829653802075	38.5355544532617671
2.2334227956301280	42.5500935209829123	41.1944392061550175
4.2665315206304886	2.9615017210047303	0.6578599040693099
3.7340112335749995	1.1017215805146423	42.2475082367345891
7.0481267014482620	1.0946503281303277	37.1549136881364390
8.3660123666047337	10.2684103043916544	37.5137812710941745
39.7651492089742646	10.0207140564310748	37.8549062777209571
31.1021642815100279	5.5916547250491417	41.4046952751381241
33.5252040335882810	8.6045794218794072	0.8896270310675680
28.5418211932888646	9.9435117202830305	41.9375249721518486
23.2452789744015966	5.9895039187658456	42.0806697777661753
20.9662246381554382	5.7319851025588884	39.7099252109080325
21.1811436446163057	7.4848464517643745	38.1901899839732835
21.8133239890107795	7.8449449833925913	41.9322030803823083
13.9018836337953964	6.9282087881339436	40.3244056271706768
17.4493056973393550	10.8054115412148608	38.7050007511923155
13.1145362362177629	8.7555493137663643	40.6591456766212573
14.4478537488734382	11.7169680848009996	41.9233774924714808
13.2935050105811872	10.6484279594564022	41.3971431468767435
13.3023012900358601	7.7489114787916602	38.6851884309445495
9.8243351671870709	8.9252303161515663	38.8444874305375265
1.4621085341197704	37.5340450768192539	33.5566952838959125
9.3116734434447874	6.6912689637940703	39.2663146696302690
11.9574035834510344	8.6764636204593977	38.7773991757915795
8.4253805038423515	8.2899815932277328	38.1418572007969487
6.9125506514972788	9.1945395265742231	37.4603856766168306
11.6451336995450596	9.9162466899636836	40.1158988142781112
10.8853191051937088	12.0081828745242802	39.4408093192827636
6.8135680905965375	10.8649722200580854	38.5455837743541210
4.8954091707180609	7.2655950106057734	38.8156166191582130
1.2674198262032110	9.7581266967613622	39.9380116752509977
1.9447935360390325	9.6098297348508783	38.5039201945357021
3.1352004589168585	8.3763113222266217	39.8431613597816536
36.7343606105595555	3.9184108801810673	0.3050065135292789
39.5009951628479854	42.8510554723782349	39.2718668838096079
1.9347246152512325	1.1212327369724995	40.9948328324139766
29.0746108478368406	32.6745786116107055	33.4399894639107842
42.6721401679240060	1.3464422662993349	28.9803949300974857
2.2162092517784777	36.4834413951134096	36.2917717317341086
38.6010689822813973	31.7119102641503225	29.6334866326315876
41.2216149997724202	31.1124063171331997	36.1158276036258599
42.5233991738466273	38.2691006673393659	34.5214753842631623
38.3910061227725734	35.7286365391445102	30.7739352952085952
40.5138240381207666	33.2013961143854033	36.7472684466023622
40.3422890530580176	33.9200145830514472	38.8576497580855431
32.6919752511823063	39.0882982523604170	34.3197087601226443
31.7259109909321779	32.8065890422347479	37.0869260260777196
36.5331771844703610	37.0772480133776625	30.9571347061797333
23.6728890442040800	37.9753272300511853	32.5394361049268497
28.4281537081219398	33.3231238440757025	32.0802653020962154
26.1914841396055635	34.2180896127694041	37.3839369008340654
28.9896427485791968	34.8047387599202835	32.4126844415807867
10.3899830513240534	37.3963114458248924	32.8037614177026953
24.5664096781924925	34.0862040327202322	37.6636014700097661
21.8134657468426951	31.8979290844081547	34.7932270152804577
27.6647367726800368	31.2857410643993212	32.2733825986773724
24.4362059954457962	35.6901412417801325	37.0310827081377028
22.8754162524466338	33.3451265982432048	36.2617201593191041
20.9403712456759727	31.1418753925469467	33.5523960981099520
22.8742663183903332	35.5263299682689251	35.7641845227835233
18.7096872913045722	32.0025282201287808	32.9624527331128547
19.4553095187468408	31.7147890151754339	34.4179110100656942
22.9648870057395378	34.4787444093853637	37.4269988309226207
14.8068972350112293	32.4304193425734013	36.6632658040878923
13.4164915772084079	33.9401571368490025	35.8495175406819158
18.8528603305093192	36.0483527946241722	30.2519246877872980
16.6794169532032832	32.4188085543997389	35.2389638538321677
22.8343459493630725	39.3551979922971711	32.5942687298855631
41.1194126575228438	1.7498645830530835	33.8108174171635127
40.2407996757778790	40.6412105503163161	28.8286624133724843
38.5205513723593995	40.4239640023798401	34.0389406260720619
1.9050120630987639	38.8896852010599616	31.7851653341775915
40.4335314545492679	39.2630537903747694	34.6715198199242423
40.6610168392058853	1.3782544509342813	37.9167423608010665
36.6199913514503237	40.6379883340237953	32.7555067811616496
35.6228563275308971	39.0793973563298422	31.4748949032235643
33.2814205275176818	39.1279315267580614	36.5436513400547938
32.4969796988990112	40.2978433784941288	32.3852698681685638
33.2088124723881464	42.0654914382593574	31.0953109102455407
25.2984951342734021	0.1505653558285574	30.4612276949967757
24.6911894754384313	38.3424341268437274	33.7693487491636262
22.7655821435638366	41.6011776783464313	32.2800164339871287
21.8296173188213380	41.8729098608416095	36.9987532854182817
38.0586412006768526	9.5985345046456860	39.3013869544005559
14.2117484899458866	40.8921867473902054	32.7913716112220541
15.6657774063438264	41.3363753632832456	34.2728354318490176
16.7992319226277083	38.2872439050803521	33.4190392232998548
17.2560382681243745	38.1677637986363507	35.0336224358534878
16.5979061041907379	39.6486355385459603	35.2956075712380439
13.9344482225386628	39.0918946803403031	33.6960079263480310
18.0176691719980866	37.2812391991120649	32.9696068179671826
10.4745721272412489	39.0464697756258730	32.6824181102734315
11.6184186843693045	39.0200888283870881	33.8989012483780812
8.2643987021818894	39.4806417270225154	31.7311681078325627
5.4856650655155441	38.2308167370904215	35.2352557059136089
12.4509330387056814	40.2065375736011177	33.1049353940224265
6.9723624915897151	38.6550113590063873	33.5020830242210153
9.0197437990020752	41.2880284441866365	30.5003238246556982
9.4910342822215430	32.2639444652161131	40.2821077142706301
33.3100550677309144	36.9108008428998176	39.3227326076061843
31.4631326193334395	28.5614930241904190	0.0696914607587228
36.5397018327457843	32.7545987099112210	42.4243887005792288
31.2420808635154614	36.0996610352535257	1.4997469613655956
25.9152520279611167	32.8042513694305171	39.0113395948954889
28.8903622894598122	31.4212464259489082	39.7468064903715614
28.1284628655919349	29.8552086352485908	41.0012898925354179
26.9384051417256032	31.2682049467574856	40.4218365305789007
19.6965074903909176	32.3432571822114951	40.3383427444598510
22.2981649510380393	34.9250243781919494	42.4780234492209914
18.4131175496942490	34.2386579644653892	40.7223043751695144
20.9634512084506319	30.8273605446199781	41.4998852993739504
16.3858080243328175	35.0254301351397856	41.4416792248083610
13.9129234511580702	33.4794481767130137	42.7311861240889286
12.9297523860691062	33.0267195464107104	1.0005505753368291
30.9955549273630986	31.8040163548962020	38.8954601782186984
12.7545375054914949	33.3170063370961813	37.2059065445360346
10.8147506610871762	33.1188670520708115	38.5685698759450446
7.2458741293013942	35.2386212713212217	37.8182440711382526
4.1697045812760614	34.1449584474618533	1.5118975637693080
40.7579948085066093	30.1878565639611338	41.1061192399587441
38.2650527967745191	28.0101191759816253	2.4010649945328706
40.1560846823316524	25.6013572012797148	41.2679639137861400
40.5344716022795453	27.8810863751178779	41.2638410938728413
32.5979052944422847	29.6641646901953067	1.7557178028189631
37.3409649730816824	24.8139645599048180	38.6474464980003205
35.2972114315931620	24.4633333506923911	39.0962225908175185
30.0508062251147443	28.6123040234677219	41.4024466435517695
31.5779916640793559	26.9139879540911515	37.9816022621176472
29.7084647729371341	27.5905651058237638	0.0231296000306621
25.5781369479534497	30.5120169689235610	42.0605798799810060
15.3263287895461371	39.1984346749228294	39.7123311162047727
1.8808079832959850	40.3480924726076964	41.6514804370490879
38.2802722020513144	39.8655364121362012	41.2019363847445419
31.9367821044311846	42.1686227272328509	0.5197754904897581
34.8889497994980502	41.5706356641255610	39.6136207285307620
35.8325580418025069	42.2739819226828644	40.7689602658336625
31.2737859075231661	37.9563065843747864	39.2928820607754403
27.9562239134568848	40.6298269153132736	41.0017215492374802
22.0070083331361559	37.2098831091952960	42.2665124960437240
29.4651681917730812	39.2428558626262713	39.9224030140500332
24.9853148677336527	39.2489102325747865	35.7521314600025093
23.7576446838812991	40.7020386942804109	37.0294514088022240
22.7819245397363481	41.1522620233580696	1.2616045948666610
20.2028621935786141	42.0191819491980141	36.8761032414195924
21.6766855185469964	40.3584563553974931	37.6270677270881109
20.5635305847188334	38.9967481491607018	42.4378566457795330
26.1459664081077143	25.4536848786910355	38.5626290436684300
15.9029644668818602	37.0559673742799305	40.4063768659428248
6.6344023676849408	36.9043957204621904	39.2939374014182761
7.6946667293301463	0.2789104098432844	38.9128499084075514
5.9314497263745496	0.1097694927787529	42.5146174661988709
10.9088239722673315	38.5116221207073437	40.5996888405830134
5.4158472269341269	38.5225147079173524	40.4309186575132102
3.6449908100461927	37.8407400627009949	36.6063409714399413
1.9834547707441577	37.8799961413751731	37.9133742885158469
1.7356595222537985	39.0044265025465577	39.9002307576848096
40.6701540349161590	32.4355297892707384	40.5726537166314287
28.4588525817170925	34.5690754048364042	37.0699512369554327
37.2826204223361160	37.8176586908103900	40.9840679795289873
35.4851109171050183	36.7602671184707646	40.0475312530172829
29.2425644436917374	35.0631926365923405	1.0693621082996865
24.8035376881575687	15.9800631254831362	38.9038796533224556
12.6335392085558560	22.1506423529788279	41.0270462711903221
9.3558158952199317	20.0514400415687284	40.8213860053356967
8.8330958287206602	26.2646793921510842	36.6494917275104299
42.3042896961931660	21.9228817219388752	42.4566207766367683
1.2416956988270729	22.7225484256845860	41.5117321371542829
5.7184057127436656	21.9221130596623048	40.2374927122781756
2.1232104980159217	23.3188016272717853	39.4306954966536836
7.5330860335727579	21.2464384570548219	41.4046898381061794
4.4835512808130185	21.4417068610112587	38.3304851687507124
38.6019335018241350	13.7455872806177180	42.8437967028989632
37.7611497044817241	13.9926551129193371	39.0699038120410407
38.0622309243305850	14.1413398644898205	40.6822415904788954
37.3449279372966387	14.8244220314282344	42.6504923148351978
36.2119860136370093	13.6506971416019454	39.2811783371684911
33.6660951428489312	20.0420470119135850	38.2834881100776983
15.9049411102861598	23.8591076471821140	40.3535419277212384
27.8134113674891488	14.2333727610173550	41.5680599643003177
28.6792318497344318	12.2513955247582143	42.1133051969746219
26.5535831189975511	15.7644399733902070	40.3833414486807811
23.4170171828649636	17.5121705472870630	34.9976066932967456
22.1348992514015137	17.2833815860242446	42.5895582039111531
18.8269929949543595	17.5531334773377665	38.8083722617021394
11.8270937596301060	17.7200868487110981	37.8462255559144580
8.7451462867628731	14.7710581736712925	41.5695735284392356
10.1562456845454445	18.7452301912682309	39.0524755183643109
9.4189649511127858	13.6661137449608638	39.6860229256603745
6.8492727531964963	16.4260388236681614	37.5084069665513553
0.2828824790529886	16.1007017531920198	40.1524848095666229
2.5337101198341481	15.6350068885911142	40.3286930746687062
4.3186050496092561	16.1719884924814252	41.5791279632129047
28.2515953157841579	19.8948612799128277	35.8742751481327744
27.1720257807967300	27.2648536216678856	37.5794550151746805
21.2868215173755750	28.5604889689394028	41.9895538840480924
13.2987689385099443	28.6284408220874447	37.0853864978532002
14.3221034076082052	30.4538077673356398	37.8024284453831214
8.1054233669977656	31.0261575791670090	41.6833678880331675
9.9568275475396355	26.3511727480929245	38.6677382101421898
11.7303746406996741	25.7075399614525502	39.9736662498580202
2.9353500346176622	31.2399488209224145	42.4991554866327093
4.8258089429691307	31.0272218974996079	41.2382400160302325
0.5794640511011041	27.5083194940126496	36.1795294453510436
37.3990521921156258	24.7786699411837006	36.3435504983586242
41.4211066024051888	20.8246027166912882	41.7000594310936421
35.7223451596189392	21.6100551432562256	41.7615414987945641
37.3568534990466219	24.4532452834962690	40.2152181012230017
37.7010127162908830	22.7749798525440355	41.7425009707295800
11.2414247260071374	33.9142593802151993	36.8032651538005808
27.7935564920315699	22.1535123749578844	41.5611689593531040
27.3887440377258571	20.2808408195737577	40.3127151195418421
25.4188759012892760	19.5323474105425738	39.7301638497472354
25.0999949408716887	23.4096048724784467	38.9128178853215800
18.6710150732142566	24.8608336112006327	38.7312299932412927
22.9915135865660787	21.5290882350329760	35.4066133753945351
18.3675278789942986	19.7264236490059837	39.5863404537070025
18.1638117961400560	24.2543788429757825	40.7399288426635025
24.2601122916370038	21.2785100143293171	39.2021079824310377
19.4828371359108665	25.2249382317415325	40.8560237629636660
22.4773700396910492	19.4816229218081212	35.4872127511756190
17.2755804471525707	17.9939738728280183	39.0257927392730224
13.8243281555422062	24.7156077402258489	40.1217617813043788
16.4083853322714894	19.7463498721697341	39.7812540370290293
23.9539634640724586	40.4025727838114221	27.2055667143574098
16.7389037081344085	4.0262693535428911	34.4217992689253549
14.7145182179524188	4.9358801421763623	35.0443798428273183
5.1660331363634961	4.2629954356095920	35.4157348833749523
8.1113072404558650	1.9371463262806985	31.6886880491973848
6.6419112558978588	0.9409295190910772	34.9260790986120142
6.8672980653758620	1.5935188884187059	33.4689835638153639
4.9148295573196226	2.1671037640953594	34.6423279181028789
3.5965643809943968	2.5767020160211107	35.4508268354086624
40.2215659362001148	39.1169609568395984	27.1467004658536091
42.8153515188099121	40.3675291206027680	23.9900037392752132
41.4620086393816578	42.4540184994010374	29.4913994746941910
31.3675100961319870	41.3705121271601612	25.6453529385144172
28.1564132411825376	0.1419695113263990	26.6809208044764894
24.4840699735740195	39.8063996920978056	25.0420359735584839
28.6782592241062098	42.4565299872075528	28.7924976343402257
16.2688770996113306	4.0048348181819717	30.1511251286617288
29.5644440689927812	42.2881826032889379	26.5924144675380560
27.3128946863592788	42.8029385622142655	30.4543848412450728
23.3272607299405301	39.0652924324303825	28.9343724804135434
21.0301057675990535	37.1658189247200355	27.4087845413062823
21.4761088181964155	38.1612190517912566	29.3642765170267381
20.0568124337878508	37.1589169723225439	30.5509706246676664
13.6590901827202256	0.3423131892929345	24.9819190784265324
18.3949403489595582	36.7752094474787867	28.8456592874299957
18.3645068189751122	40.1670076709214214	27.8908442390500682
7.9064991097994923	39.7919274466998658	26.6158366671808828
9.2089865187399749	0.5268878977235305	30.3895869511962502
10.1330295153503744	39.1835557563131616	26.4081308949591076
12.3725277486070357	38.9981912603596115	25.8443148309186697
4.0106891893959489	41.0918234535690985	28.4385750515857332
2.6832555091737831	40.3891654317861608	30.2018420140978385
0.5605841590200366	5.5353438081221693	32.5308734425736645
14.2220248812397632	4.8067461540344238	29.5492965687094049
13.5542772277303207	12.3438887024231416	33.9937100756622002
10.2166680554411169	10.2764851850636081	34.6242571485618527
8.3123387761576986	7.0857771443192332	30.4819940251961974
13.4429846053128337	8.7824383492449982	35.1404253331482579
9.8785764991353506	8.4137356299883717	33.7000112129050109
6.2969903604710238	11.1906140389012485	33.6658731809052369
9.2934978278851172	7.3821418032064816	31.7420280423104373
12.2694868888346083	7.9855753819807003	36.6805216638602900
8.8672142782816863	8.9656706323007462	31.8485908776540931
7.1141259029193318	10.3523702326343887	35.6666485381280367
6.6069567531809525	7.1628185061020604	37.3935543406929298
9.4580974743481701	10.9060435121183730	32.7410054875284686
6.1038772599502567	5.6073931887735906	35.6318705326769276
42.9918364441439991	10.1459770866398511	32.4801676347379313
1.0568625657799215	32.4964750578855472	25.0295604964653151
0.7755016990592156	10.2514081081806889	31.0783363062953981
42.3627300374545470	2.5767854132448034	37.8347677205017305
37.0594109173843194	4.0793135026326235	32.0258406613417677
41.5308756857893826	2.0108939076467043	36.0749005354477958
39.7458585939391256	1.8508159659862427	31.9815404463761226
34.5140634757087597	0.8784720572403810	30.5825575457071537
33.7819804851970602	3.5580267643021601	36.7757051382961109
32.6250162747039596	5.0226441670532660	35.2723373974756029
25.3213193049335779	2.1458825802247921	31.1792004927808009
28.5971686952214874	0.7237740795463646	30.6634822577785968
26.5878747695745155	4.3801337675785037	36.0953900502308045
26.4954813203668742	3.8999169654539849	30.2645398382967912
26.1977640494278319	5.8360421911648777	35.4990634257607951
12.7944008653752164	42.2847547152218866	32.3681553722324793
33.1586178780514444	24.1511139536277639	25.9846431158085771
38.4709975376887030	25.3999907773154270	34.4172301027439644
38.8217009622806799	23.4893367973239897	25.1367378844047735
0.7506722694207396	26.9755007223820833	30.8303889881889432
40.5263534917338220	24.6678478073391716	25.8144682381580957
37.5293712466437270	30.1508700013226836	30.9910545004287918
42.8200124411351695	28.2324094440244515	31.1711260118123654
34.3003637670268873	26.6692126446202415	29.6204049826049669
39.7093328722127552	25.5829194530121242	24.7826405427686005
32.6884324962271933	29.8049395333270226	28.5394933483689215
35.1626156338491498	32.3785116246203799	27.2613505712206532
31.6075324156998825	30.5555421677297723	26.8491871792718868
33.0917016360991525	28.4735337712717467	29.3375677929410088
28.9219511033511480	24.8223317136676087	30.0019081809037225
29.4341462094285049	24.3759820453032745	27.7817192490487841
33.8995402333546778	30.2603444160918862	30.3901542490352590
0.4074056003867916	24.9162901452688565	31.3569064769094688
34.0547733450312009	25.5163316814515078	27.6319918513590181
31.3045197770142956	28.6060115294650927	27.7454147075704718
29.9557768585765984	28.8894053366878332	26.9158314285966753
26.5903508033782394	24.3521725769424755	30.7831501232751243
24.0145946975342603	25.5356684086191130	24.4981724675055190
23.9553424011123290	27.1660765214871844	27.9967498134469572
22.7111462903384158	29.1957970786332233	30.4628660853485265
22.5776151166321988	23.5473620483649739	28.9026751996421787
19.8404001094268985	27.1230653988288175	28.4717585539581783
17.9497382545914270	25.7689557916553440	28.3136560362111922
21.9991063811058716	27.1229767841910636	31.0834227817615698
22.0935928955860810	27.5201137313134261	28.2534316807880472
13.5321824079279285	23.5006862649151529	30.0514244815389908
14.1210711000879456	25.3037477567230198	29.2047255565542336
22.1650363401947388	38.2517350671327421	30.8189169640303220
1.7735310282799348	33.6991559191647383	26.8929165577707963
41.3677409299579324	38.0860394666419921	25.4233847488690259
40.5317333757466969	34.8545278403433585	30.7108732447623787
40.4231611346470103	32.2691556287109265	28.2194283046445662
35.1401004459411297	32.3762061356881361	25.0098386866893989
38.9621813276091444	32.8732046542401619	28.4903246184705665
33.1057041550831457	31.1766307258047100	26.9784578711787688
34.4862219408017552	31.4134262202908552	26.1290947915032561
34.5630600569196886	35.8436009324402036	27.1356648185835461
36.8043158942972966	32.6873663152869227	28.7628061034368585
34.0727418308755716	35.3222992720340656	24.9538711716089168
26.3712955885458697	32.8494167370138612	26.0172709347509290
24.8964214558587997	32.1344333560262356	27.6860101516408861
23.6533827434756709	30.7817848959871263	29.1210912772091213
21.0601502829148011	35.6901642835867747	25.6405257142975564
16.3099586648183568	11.0254085364658465	34.4293893243683229
17.2956375014420374	35.5656898428703485	28.4801646498010861
16.7503421335412490	36.4052269989386090	27.1830922265829038
15.9264659427873898	34.4276798486065019	26.9485768907229328
9.2400707016130941	34.7668552006621567	24.9416360656510037
8.7969448945283055	33.2941917333509991	24.5455908060384829
8.6583193526869628	35.5213618451090696	30.3002371959162673
9.8695831525486977	37.2737259772877181	31.2242790111112924
4.7296881990197939	33.8196384687337996	29.7322949771486122
10.9643562564979717	33.6097496050984432	24.0187880497127146
5.5415715053645478	30.3741711697887808	25.9901309745556368
3.1653594961479175	34.4428925384194287	28.4851868612139647
42.9034337124103899	38.1903560884442825	23.8992497770995449
42.1509648471958727	26.8019067596904819	30.8315759336079331
41.5703105817370613	26.6616270531102302	25.3891406043926153
5.0532134835846474	30.7031680634721553	36.6245597774655423
29.4647261852452900	26.5134899890081037	34.0590434261718755
18.9890023648754536	30.5014744948955716	33.2793584379538530
18.2974373892050615	24.7033156674351133	37.1109480438715167
20.2595090140069374	30.3021314877370642	34.7914707990745029
13.6865312560689052	26.4415912301102978	31.8896945781949626
14.6066064031472571	26.7168264993848616	30.5700917567686865
12.8514198785109368	29.4728354085126760	32.6623156248469684
14.6397451517135693	25.2139154386224931	32.3741256729019184
12.7666977059145292	24.8812982305641412	33.3208021049598315
7.2275104988853824	30.0723689715733258	36.9098277901442557
8.7889024834765674	31.3069237410040451	33.8360990279210796
12.8980871507026027	28.7998126465209765	34.8819024390392727
6.3779323515261357	25.0717891703476958	32.9483873574406374
9.0732366349329006	30.9931371513508473	36.0181049078842008
7.4677437662496908	29.9574002781760278	32.5189730792438851
28.0206327695660207	24.9035601244497506	31.3790874056427462
7.8233816357307866	25.7470563418090066	34.6243708813412852
2.5624250752233584	27.4945777906582443	35.2906930541407746
39.2647973341100140	22.5042383850599066	30.7561335441197414
40.5413024761516425	20.8162043187008798	32.7707468600244951
40.9829693086505458	19.1852366571070867	31.1174342077723836
32.1390430944414121	19.4142400760758420	32.7017617277547359
33.7594554341442716	20.3840202994263429	35.6790574306782204
32.7351379914002507	21.3985113162625034	36.6858790622305477
24.3987597552204214	20.7222148651573121	35.1292026324534206
22.6925756970457968	23.4226772815173341	30.7266599303340726
21.9473560138157353	24.8301149414004669	30.8292517031543838
20.4759189585802623	19.3982219063226111	34.6186055085568540
15.6106749270739424	23.8141939643204061	30.0115124456854083
12.1745246584156988	22.7005695023949023	33.9052143177641128
40.2634123138518305	26.7525655030353811	34.0257847117976553
7.9897952010730569	34.3854695835328030	31.3385592407433862
6.5216000679576887	34.5659683018466595	30.6377540657596867
8.9394469721058609	34.2345232199943226	36.7548937467280510
9.9335620188647251	35.6058137882707157	31.3631353515367515
2.5713037260816294	35.7086455262758520	34.3152696031075308
1.6435350148904693	34.5555123698380342	28.9668794079691558
2.6844194501227272	35.6330463621036699	30.4474630834331208
2.3609199379801047	36.8268229155435876	32.4042250462115078
2.9651541150974015	34.5267401324130105	35.3471226690416032
1.0040736093931844	27.8824136909603197	32.8837063264945328
42.7246184905088242	34.3914665751901723	30.2426614788522663
5.6993959781901768	33.8476605111371924	31.8411435845903057
4.0613287500785855	34.2984209488476210	33.4081910862290457
3.6566870270899883	32.5015134824968541	36.2217582179572020
41.9198520740093485	27.6092775417243317	32.8825695436776115
17.4064974696785200	26.0563221690626960	37.1322122611628203
35.9624313320288564	30.4946175475799244	32.4650924856405041
42.2778272705600386	27.7138909339114043	34.4618908260323238
34.4623279001083560	29.3635478703136243	32.2212005875163143
34.5571330864204427	27.6159498461889754	30.8943653571812540
33.2765155422109444	25.3923904691802633	38.4585541832146376
35.9854560581298060	28.9027575507866921	32.1706522861617330
35.0409264258007127	25.4062676699705712	31.1514546911327379
34.0144094004447339	23.5039934891831415	31.9609378249527190
24.1956099717769781	29.6905139523956230	34.4945815710872949
28.6501149140423657	27.5948190720027746	35.9298055101475811
29.8696653967621373	25.4764517082969171	32.0398701295825177
23.8870166161356465	28.6149995743327992	33.3704772552602620
25.1875234703971600	22.1114359036592276	34.7805589857990043
22.1709876088025091	30.0448010037005950	33.8250698325897403
37.7892668845815720	5.6226489519993788	33.5501800195349418
16.8973707588759581	14.9036387170633517	33.8322198101988576
17.4582307463000532	11.7396685860629155	28.6650684153172506
16.9167973206676656	15.6895158430066157	31.7975693462142459
14.9206674526248637	13.9688204340646021	34.5915050108407556
7.9300979652210435	18.1716732833130798	32.1345727959843899
8.5630519481080185	14.0808801221500595	31.9961985103781892
42.6723128255916961	16.8499217444843090	33.6818655924578820
1.7686769795102337	17.5884618789417431	34.3207864362533357
4.6329834545585786	16.2756644648520101	37.4644535550037361
6.7091427280279152	12.9320391276669575	32.7769224185425756
3.3756195385134147	17.2910412016675288	35.8498410024476684
40.4120980014451447	10.0812254291464019	35.6766810337907003
41.4000514803869279	9.8314769690394428	34.1646285887251793
37.8166266075971151	7.4134182360404610	34.1466567354086905
39.8416868788846656	8.3072933312313832	34.6476249295718830
15.0035690421492003	18.4906640685575177	31.1660736688195961
38.3868482521270877	6.6743021632901289	35.3321339643701080
35.9036124226573108	7.4554163458465394	35.3918183507705848
37.2623230807334238	6.2599109200229783	32.1473084833510399
33.7666194917074804	8.2944687327464255	35.2460760766606072
32.4808359908548283	8.4828239259444640	33.8107620703702807
33.8776317075053157	6.7866379107970154	34.7314351926509488
32.2854941262382127	10.4668789340771760	32.6824812694141116
32.4294854615106090	10.0093911608673665	36.0979960812022256
21.8144185853412225	9.1517112848155211	36.6874155677795457
22.5816626011280697	10.9451303115007708	35.4186685437077742
19.3398942859572749	5.9826609360494984	30.4411034442097232
23.8024619978022756	12.4878116043846656	34.2022826632876971
13.4068871968605343	6.7772578844388605	35.4833897967555316
14.1812654489142833	10.5189669795136371	33.7736677129430944
36.0012678809593254	17.5198676672165163	34.2627737877466103
15.0413616563041046	19.2528347144664842	33.2522608259511614
13.8393522597070469	21.0439778817199254	34.0388290714698911
10.3511264294507992	21.3842962555594518	33.6645457892631654
8.9866604303154389	19.5291282207682215	33.3695521792345318
2.1317481295382934	23.3696527153729079	31.2929200970029200
2.6796512830354007	22.1768149901631766	37.5630924747222963
41.0610181597734467	17.1974517136854779	32.2284069157376010
38.6197920028210291	11.7801278952886008	30.4227542754044826
41.7681520695259394	15.7383562295023776	32.1437609629044303
40.3881032896458549	11.5337463257680319	36.3297161534877517
34.7056044499781109	13.0263659947113890	34.7946504690475464
41.4082582032450546	17.1910257423496766	30.6218408905952302
34.2438606403508246	11.5833667366309427	33.1469180054445047
31.6115803239531949	12.4656206677703789	32.7195241173058449
31.4354078205055529	18.0062277031147282	34.3285715374036755
4.4861235931608787	0.2056532163559355	5.3190791178857078
31.4105063938026134	13.9054538823114431	31.8660513753154575
35.1305887664017220	18.6577036465226165	34.9195654149051009
25.2657894819779472	12.9117186990143846	32.5285715666645174
30.9375524214118158	11.6539774483905063	36.8101125524235258
30.0462928412789196	18.5602871246045282	36.0323373158374736
26.4038107288404333	20.1694311729484603	34.5301930864651041
25.4448875302198978	17.3542437280987052	31.3357459885991965
26.1339671008252488	18.4822665130528065	32.9283642431283212
24.9257529674649305	17.0078905310897959	33.3915189220089914
28.5507628744724791	11.6839186219392186	31.1848877344798474
20.2012188435622058	15.3691359755039372	33.2533895118517719
19.2820644885375891	17.9408246867755921	33.2808046715012296
17.4516108897488493	11.1528172733197497	36.4161040330668655
18.3671914208023992	16.0131559231342173	33.1449163003119267
23.8152590885446962	30.6145401622263584	13.6727448647549608
27.5285849454745950	27.8839773845084267	5.7390685124569627
27.4256521715576795	27.3386492062268829	9.2448090078136627
27.2472539760138623	28.4394485388534051	11.2952716230442682
27.4143769001945188	27.0086607441700899	7.0817469249793534
26.3152937094120887	20.3939482856122538	2.8464130745101559
30.4075543368858376	22.4479989909452584	4.3598651958913965
25.7642743790774311	21.4951217278165743	6.3540409203830119
24.3302204137252538	26.3761267251903142	7.1443302237087964
27.4940436200875062	22.3822297744434486	2.9577718980592587
26.9225918499033234	21.9123932509668222	4.3858640366694628
27.7372236199984172	22.8970081752147259	0.7076129607698961
29.8216562661410620	24.7773722303385142	10.4133764856565332
22.0335453380569888	26.6612983097545460	7.5837374025275599
20.0346321448251317	26.2549015442400382	10.0583117500071211
22.2052015459149565	28.2854310474925477	12.5032162818384762
23.1942122980791581	27.6520091509259629	6.9450940585017342
34.2318601594950067	20.4751707518161652	40.4614214065733009
31.4739688771856763	20.6044901906474749	5.2005364557645581
38.8766264225226621	23.8543787864814654	41.4433136896311041
38.7831776624521325	21.4512875798178371	5.3896095538924174
39.6054644848901205	19.6865795220901276	6.0870015649959859
39.7442223516066804	20.2568050408442559	4.0713245914401783
42.3310889200643743	25.7285827844513477	9.6501999706181980
14.1960724440553445	19.7157461813171011	7.2266285882441030
17.2446913370560537	24.4893066531871710	6.0989979710095543
12.1296622777656502	19.8765390656420280	1.8838039751156763
17.2046918639316431	18.8325430614614717	3.3751231144881593
39.5789286935243325	27.6710599699017656	11.7023150337393531
1.3865248349489736	25.9139239270534567	10.5944610219309912
41.0008514650170710	25.6032896941125188	8.7340128154901819
37.8284847679495755	26.8037026412862076	7.5436802713376370
23.2773691099060542	22.7883449399498197	0.4380511996449842
38.3794786833713459	27.3685948850711007	9.7346165072162592
38.4186087779671297	18.6417044728803560	7.4195770690152241
21.8604386300159064	24.5771853297716483	0.4378805465206757
21.9121070387145913	24.2266062210066266	42.1715849071314537
24.6044767845001289	21.2431920133763370	1.5629395524637020
19.9443221028225963	24.6235728468466526	42.2984253737799207
18.9906765015709595	19.8469502543957041	3.3385971953895752
31.4398823993361951	29.5292541412456835	7.6735660257988743
36.6207649498884393	24.6605681655227542	8.3106428983030245
28.4657918290999312	23.6679818257706032	4.4587990593225859
28.2792058230205043	25.7918490650641736	5.4365256694778070
28.3854364870353280	29.9434956559806764	5.1076953081510110
14.0464138465338735	25.5287274828825197	6.1002329635089598
3.2953018416879494	25.8261175385551454	9.3609440999330165
5.2420797285631586	26.1770175425867890	5.1813806425890849
5.9693282019914502	27.9676358151357967	1.2745043316432791
8.6015117194713362	26.2238801677340447	2.9147415930578449
40.7763249658028499	19.1824546924286672	10.1095106459884594
41.4411494263507763	21.3904258140893440	10.1970520051866256
39.2374900234753738	20.3965159023052358	7.4496388713827679
38.8876555272778717	25.2013892115686886	8.2967826763427954
39.7658797173181853	19.0220785722078674	8.2681755351729613
10.7742195152975402	25.8888522030321262	2.2038086944540263
6.2667532379114057	26.7944149969313621	3.1760162743646325
12.8579383174499995	30.2247692380728701	4.3492376914812763
35.1318996115477304	24.0341117120750489	8.0140720655344992
33.7708224477452461	18.1002550846239103	12.7601765510142844
36.0336879612071925	24.7806239911101898	6.1385273293930274
34.8501223967534202	19.4737616950811372	9.2615926760943896
33.7173903529884171	18.2171181584593747	10.4572863352779279
33.9620517088447613	20.5239509900868491	7.5705829113831520
23.7955414468719830	30.1329859893904732	0.5405900051231031
21.7728037298963315	30.4507150665668505	42.8672324231810578
21.3239804011307577	26.2124789097071549	42.0018200165199573
16.8941525539786070	29.5652378562367240	8.7510491524646969
14.7558071074031041	27.0067660020428129	9.1407359100548806
17.5262874104565434	30.4431403511664058	6.8083333990418096
14.7188326812748009	27.5971003871645024	11.1530498822936703
12.7763523827199066	29.3335955307331915	6.4965869885291712
13.9334469885760353	29.5831601163254909	10.8194589395370766
14.8236413026539768	28.9740574116636402	9.0583413973571520
39.4026648644291129	18.3065828451207864	5.1936644269015035
40.0504068863756615	22.3454435690575792	41.8562626862633778
16.7111603453683557	28.3937201821810099	10.6698330240315578
14.5538266649614787	27.2088558513001395	7.5282751445126097
0.0393717501135452	29.8002499553182894	8.5180165858411314
13.7901532229852055	26.2446913244527167	11.1072737731655931
11.3197598408589144	23.5572068762863402	11.2705255028021245
5.9658725051895685	29.9934130850198883	10.5008289196050466
13.3419826831643782	28.7445070084321337	8.6369296958855770
9.8368253160063741	25.7848881240191545	9.2051716543332507
1.1662406141384885	28.7956950901754709	1.9043637224259617
7.8720239356712813	29.7117661468728720	11.7643710470915490
6.5383184546478379	29.8419536673119019	6.3244704156329119
2.9534182023502136	31.6537366283523269	3.6026348859663080
0.7418188270653120	29.8803626253048371	2.9937584962650208
36.8496944629553056	32.7620043418175868	8.5725051090526652
18.7702337555371628	17.8664291615163009	2.9241822777544910
22.2786786187804928	13.4856500612453463	4.7767732389811597
19.9949736194428667	16.9126345891163332	42.8211851192909023
23.3225911978467479	16.4579325622555217	1.3043213954419952
4.3104836199904240	37.5684669933067426	4.5395338197308828
42.4120156822743937	40.0820333469387009	9.8170928688925958
22.9465913937484984	14.9025838045191410	2.9932178748640954
21.3686882000184362	12.8894055136914520	0.1134727516961732
41.4312102921454155	29.8833116352618369	15.0286172422901103
41.2033460227381525	31.8354685848195160	8.0242695496540293
42.9949458171142425	37.9522483174517049	9.4470754916760651
39.6605981115985529	37.6105845180793281	10.0732695307154803
36.5045195398778048	36.6847104806677251	12.0650260051448619
18.6936137392986836	15.6547850036042231	1.2415538890075275
37.7517034540158249	36.8185092639073872	11.0148209219445956
27.6774916008584384	13.1190905805595275	0.3358463698557826
31.2742582584958235	17.2835742791992111	7.1969592429429268
29.4152507838170401	16.2943511195452970	6.3834762911671117
29.9655897673158975	31.0133832340061346	10.9648791325776696
26.6170082194677882	18.4236881378997310	3.9291281989823066
28.2444902510905500	17.7554178129082096	3.2159870967110700
7.9705389344159947	42.0671610168068213	10.6051812043782707
26.2507131409392933	42.4787255595791464	11.0147742132649427
13.2085317443992700	42.1038201569368482	13.2255495575383648
15.0698454365271068	39.3936750480324278	11.3437001499863417
16.0697398000829530	37.3051271802213620	5.9111485000960249
14.1259246322548346	36.1892353482221125	5.8750555597533127
14.2753990891675606	40.2565246601758062	10.2480819388657576
20.3472400757754492	0.6934089007334550	10.3082672633768500
17.2091561988381656	15.4974062336367737	6.1729801478190778
25.3486815721796042	13.0236397612781367	0.3593476653165568
6.9619772935132263	39.9996453592536625	10.6465623758286405
35.4201711071049630	33.3844470934944866	10.2810470063800832
6.7798506245925365	42.9200104230223403	5.4477611101709646
19.5825999054181779	13.5994977582019736	1.3427964185538488
4.6516561263580041	41.0005448386910416	7.2775335653218969
8.9655347007712827	36.1828840240074214	5.2067206115336706
12.3661414956478062	37.5790229486889373	12.5233436281629853
8.0489734135020665	1.3756057019794850	10.6832580446074896
3.9116569995143697	0.0204653243073707	7.8235098611802254
0.4214411890925304	41.9281576585280078	10.6488214972796822
42.6542579781779949	37.2451581831092753	8.0131920182558165
4.4524849304753262	39.0864831414119678	6.0106107988569981
8.5008295840876080	33.6632645247076354	13.5052128557418314
1.6435613218238116	19.2230156966567094	4.4983223840988247
5.9174130892200987	19.3399211772838626	5.3596408953249979
2.5705451145940281	20.4450781261813361	6.2168239876912645
11.6452947734130952	35.4292752810127638	12.0562958180062321
8.0771311604028657	35.6326915597076450	14.0910409363880795
6.5224522020967779	34.8389298173757354	10.4334537779258838
7.4657876821684228	34.3826049328781096	12.4667182561323209
6.6495580740095495	33.8514293162707105	8.3576056839395143
6.8876035965493587	32.0338401631237701	6.9534122999681847
10.0304314486159942	19.7219983467578395	5.7409691063607173
0.5362691152754968	20.8793597768288670	42.6425424292849371
11.4977895764473477	22.0905539253527294	1.6783941094027688
7.9558080817936343	20.0922593592333065	4.8177714309996187
1.7101915936308190	37.3400738716636980	8.0140310902300040
0.3896552399428316	31.6363954742225779	8.7162331389793959
2.0619129486097743	30.5590622526933373	8.0444192899389737
1.2994563453570405	33.4604276695560827	9.8740088238143464
3.9544235478925316	30.0942174961702662	9.3465807890426014
38.9586955790021392	32.3359902311974707	7.7485887974727481
42.0979249638174124	27.6797596681875149	8.8323551188307405
37.4748669068951941	26.5337033617326163	5.5249216388567950
26.3937883701035503	34.6645237148410175	7.8075934523258317
30.2022871900046788	16.5797644687932362	2.7624820449671685
36.3151557748091918	15.3401133128707468	5.7591142176353429
33.9779174510044157	10.2657376604271402	2.2895785427278215
31.2400974775436140	14.7297337268490072	2.0100153760349837
37.0476204956804551	14.4878848109657241	7.6961294129889710
27.0949882112146305	34.2236328780994441	9.8623981968984769
37.3599401580449211	15.1799346226060337	1.2170195781950111
30.3147500055760268	32.3661720106698851	9.2212526740703957
29.4761705277311528	33.5015053274430130	7.4906390839314865
29.8094946559664074	32.2565601476691199	12.9314022472350345
34.3100601956408369	23.7890088229524927	6.3017019722070122
30.3541904722373808	30.1726275202202210	9.6210286166482746
24.3012802323955697	33.9398227555238279	7.2959681528426232
37.8975827776522394	16.2160670230164570	4.4311102071571478
40.1246856751077203	16.4553018606024928	5.0202088187006204
39.8302087043815689	15.9595959870951329	3.5350100217935254
39.7364012898767953	17.8506588838704445	6.7424428161985066
40.5763245074058858	15.2818577983181818	1.7553086120095203
22.0901923297973184	34.1548801634614065	7.8062806793493467
17.7818755404011490	34.8373903682110324	12.8408730766143382
2.0869969211774158	19.2618239467206074	0.2050266435784649
36.6816357812132168	5.7034215399455670	8.7245982034964431
36.7411192441629240	9.2505343052199152	8.8389378564410279
41.0468840851586734	10.8499660475071522	9.6945469307562533
40.9107870423905666	9.9144713325530205	11.5358955089706452
36.3366590106878675	6.5978612394355718	6.6312649909825394
20.2439058984430780	41.6548918554276995	3.5757334148918893
23.7405740962327130	40.2294962507998122	3.0067198759699094
41.6582662455272015	6.0605664774236363	7.1819048592642369
37.2145779455962753	7.2379133697292524	9.8878885432608588
40.0996122265232628	12.7326493613272440	9.2370237551186101
39.1011940095018673	10.3680374905757908	12.9299108298464862
42.3699018371373270	9.5053366313152878	10.8906380030818699
16.7625655322212204	39.3275014808928560	1.9969046718645069
22.1298486969295745	40.3658594767488736	3.2763311696071868
22.0339827568378084	35.9272906416184910	5.6120061769701213
5.5501784446359510	15.5902017659911625	17.0863846883712682
24.9910506964470933	9.5318272628687115	10.8316231734433295
29.6962829775630759	11.3589158051366272	10.9160459147001365
27.9715369441473598	12.1561002784032297	10.3116620838006714
26.5634414585884642	10.5123338738938106	9.4178877145752207
21.4562903643549348	8.4228455843434151	12.5502015769072646
20.7994000095296343	7.1821082192971692	8.7936077510951414
20.5199842548115718	8.2287299103000269	7.0809562431340867
9.1922418263732837	35.7335590802570877	2.9936023384333557
36.8919163272403239	34.0227005517165466	0.2602782831137566
0.6975743624582073	39.8136747342439463	0.5691219842682387
42.0557129659380990	39.8538929702642051	2.1589756513633525
3.8711730015693169	13.2058546535472363	9.3286070235351310
5.4207009438829203	14.9586984923281410	6.1715484699182586
1.9112177874891687	14.5084353186022330	12.2149131889086018
2.8476965168568937	13.3016278567874409	7.5695805152443478
7.1874349462889748	42.2661169891252513	40.8997710996406951
10.7759774299325066	36.5328230244081880	1.4804714131454617
4.4623541610586184	36.0136882236409761	2.8303693682128586
25.9230709248747146	40.3661435899887664	3.9025278320269208
5.3198386923697418	17.2835043551753920	6.1366879473221694
4.3067939689139907	13.8791914589495544	7.1367619027722595
12.8195485675963550	40.5868903289806298	0.6965947539330132
3.4489497627382288	39.6157743197439345	41.0389614089661308
8.6478209757211868	0.5323256346637363	4.4309880848140883
11.2866293920530776	37.6854305598952593	42.7347118967657451
13.0048511323556291	35.3403150537972763	4.0495254198581643
13.1592701365297327	38.4673876512782584	1.5344438675900756
15.4053031619552652	38.4662816630826114	2.3412391270024799
14.4961172342384312	39.3919329208059992	1.2925700399054230
31.8646053997599203	2.3754561536573893	10.9828252260361108
41.8702477702454132	2.1627102356232717	12.1383828426836153
37.0303230596180484	3.3421223534949087	10.9185181661934152
38.4416385470293136	2.6103331738917843	11.2407252574241348
38.9352878848166242	4.0259164138231389	10.7074482787255718
6.6510107901717230	3.0664567130136335	11.1780999544159005
0.3950193568479820	42.9083811719560515	6.1259452654818638
2.5759493567869129	0.6629911933852396	6.4146613370915677
1.7235798141489234	5.5657814895802247	3.6183466571289258
33.1045994720790162	1.5647175340879487	12.7143106790893707
35.2162936865048053	4.3189437421266126	10.9936775408554652
41.7430551105489300	39.5236987373419097	4.5015550488015874
9.7339303774917294	4.8444187586411811	9.7949409336308477
10.6636509010591816	6.0785038238125289	8.0318842688224539
8.1116613983533110	3.6739919122788707	10.8308495135403540
30.3432667276586301	2.8406035251273551	9.3055844503088583
29.9941161984422457	3.6889023882749745	7.2976695235123472
26.4839447767684142	3.2108305160813391	6.3649709879440062
28.6332873780903121	0.4515124336649128	8.4639011097173622
17.1209090874917855	6.4081264336278450	11.4988271102061876
19.9407371887109726	6.3242147403654396	6.9931917743504330
21.9284616073681811	2.3374840057519140	10.4583233274870189
16.3745784290478120	11.1652343967087599	9.7554958182636220
24.0873544760210763	39.9291053399885101	4.5799368919570922
23.0638788677269204	8.3886220611481033	11.4547477749118425
16.7197313123251625	12.2543631158724917	7.7553022005698375
21.3408926567159156	10.3079458790929070	11.0782712122822105
30.7827022539536337	42.5869954998543108	7.9858919170865175
19.4050285551690145	6.5659376333809831	11.1981422808693996
21.2676997091659246	7.1253696931872703	11.0824159696615805
36.2346033070164282	40.2068657791502346	4.2638410969944269
35.3618022936470879	38.2490501371392284	4.8207723660520356
16.3258077424417785	11.2991702090305388	12.0593681329916205
11.9949399161367420	19.2729048540981545	6.8840149901720507
35.5505974304762660	41.3744366560598209	2.4413100069844784
4.9340153851549324	9.1440613041598500	10.5481229611873317
7.1068351816064874	12.3387492645241217	6.9542135039754314
5.9889583019856696	13.6631936887028544	8.0299590745842409
11.8573972830065291	7.8386731708057393	8.8137633082186930
4.8419172349095607	7.3461474086867442	11.0413282312788752
1.9071907450396752	12.7473416173983090	9.3741669449539380
3.0864940685387285	8.1911901435851959	10.3704055562602395
41.2309092554176004	40.5651631836675151	3.3568448593172731
41.7491322301291703	41.5564854670242596	5.2793892369608661
8.3608898509102225	20.4611089294597939	11.5417789374877930
15.8902766148609889	25.7907618408180745	7.4621987021903093
17.7934499517282205	19.8751358710902544	9.0364977833254887
14.0746264797524017	21.9477616337191073	13.8107984732005900
41.6523105533316951	24.9707796522348033	6.3523306439576634
42.2214286374719663	37.8388183587576208	6.0067257320222156
2.3823198389212852	31.1082113932572284	5.7875918455332416
10.8932413651702600	25.4019692424424690	10.3137708013508700
3.2948481112978589	37.5077473730266746	6.3503047909065140
3.1934631143064758	32.1072552433049765	1.4020365668064529
2.2537853983916425	30.8094124026007812	1.6767953422066197
16.2083812266254057	18.7965625557964522	7.7306215815962940
7.6717304629344394	24.2382310392108451	12.1110046870172550
7.2873164198631120	18.3769814298786400	11.4443680559965930
9.4152422698204354	24.0347401523064939	10.7426080814720972
9.1610212404391689	22.6345631825593685	11.5047468916463682
12.4342070982868442	33.5728007945659357	3.0119365331241776
12.8240738279949049	31.9174947621175740	3.1926728360753538
4.0639302448479855	22.4443363333745438	10.1182365651433432
4.3589805675865465	25.8197722339883207	7.3003294503127689
41.6424236052684691	23.6369817852426500	9.6728760990371505
5.5615754189840310	23.7084129334156017	11.3363325296323545
22.3098735320342456	24.4197332093834802	12.0279370183822660
28.5668484229221775	27.6075974353395353	2.0298863019378994
28.3324522421476139	28.8588011340001778	3.9105665220732648
25.5492941456015039	27.4306387150538029	6.8300131932829169
26.9628166409103791	23.7118338766700028	9.0252704550679450
26.3883042811462047	25.8011662588406594	8.0755893136522392
28.8064217783459355	23.1918724336558952	10.1997259573452173
32.5793679248336616	29.5746265302823872	5.6532260895935122
28.0918896208653273	24.9684185708958282	9.2206754262833801
32.2094147727665145	19.2074714741834889	6.8941423808566764
21.7158928357694982	24.9239047655483077	9.8773352410093125
3.3063844953826882	21.2944373300197469	8.2523524382337854
19.2259547085954559	20.4566183963514590	10.7685476837563829
25.8909245358458158	21.8503534367929397	8.5096475821428506
41.0293806633577560	26.6090819920699246	4.9454502303166192
38.9480314746778689	27.2293318872548120	5.5289474679006911
18.5694253493315031	27.3367807560764042	11.4241303145836479
14.5744178527920418	21.9262460669834383	6.4860104704647057
12.5961729365793094	24.5180097544877995	11.5884720345757799
12.9763804502866922	22.3506476843167938	12.1448660882256974
36.9500329451073739	29.3518046162644595	3.5960798732423651
39.1241669914607044	27.0055495275341180	3.9224451453985649
14.7006433491724895	17.7250480296822275	7.6469123031100663
23.0182791421031645	15.9436260161937842	11.8815003045494976
25.8415261382516306	11.9003217080278851	13.0104253995351566
27.0967182739874985	9.7524656193560446	7.2679930237907531
21.7688029154677913	12.4737038225775017	6.8722308048116405
21.1834393712456439	16.3525719836347889	11.4860856318735234
21.4610242531393176	11.5216252935090200	9.0202248825903393
19.9708282574599956	16.4605600765333087	13.5480312904516182
16.1664945952222752	16.5309427797808688	7.8130537634869190
27.0648221904384449	34.5123608814666909	1.6267407081939440
28.5462397527696616	31.9336196926093265	6.1961167928199892
26.3719357204398683	11.1292892767529139	10.8998676731280160
33.4984113746760315	30.3066998018328952	3.6583724396291628
9.3441913176610836	12.4364693080722066	10.5142603900099179
8.1407656430008775	16.7472214039809550	7.3395426355108873
34.1001100028998039	37.2169200275941847	5.0820362767790739
34.1693787537994993	31.1621724987515130	2.4761917168384584
35.3607217709609927	30.7738182652349259	4.3674488088393550
32.0994778472481599	36.6005283364307914	5.9355019673415681
7.2932032073963322	17.2977328280894334	9.4095926348149010
5.8611396844216941	17.2544787875981882	12.6400224100470666
7.7485623355464446	12.8556890831554327	8.8795920846024181
38.7271136392401303	13.4833219379546190	8.8140367853269197
6.8348446349296594	29.5244587126313576	42.8440758479665078
17.0096739389551210	33.9091045886687681	42.3914558757589504
16.8655330961879386	38.1074488689538029	3.9224714245033594
23.1186735005973993	34.7758770493168115	3.9448240881491676
16.7192470741912693	30.9019896471596596	4.7187575834123923
14.1351348150296605	32.1490989086127641	1.6380064618663477
14.6270621066953073	30.9392006756480455	3.9208167856260019
39.8503761459247912	17.4349111955236324	8.8759678080219100
38.3514102593756192	15.0161361930612642	12.1685579952682623
42.7042176816779389	14.9631880443303036	12.8012442789342931
29.1923955361782781	29.0337079050201723	11.2708489872299591
39.8420693689301899	15.1123737502191311	9.0336893325011349
31.1518997570976701	11.4890411109325061	9.1169982114371528
33.2245264112406957	18.8942093596356706	8.4045060758420504
35.1478023711414949	10.6323597649884221	7.9010255478769178
37.1216665926451412	12.3878014225567057	14.6022296322307419
32.9987786483439152	11.4758928245254612	7.8232770087296499
24.9746288675028012	34.3679609341745547	2.6255128049474106
21.8675818124683339	32.6410320812883512	42.4126407227793152
29.1066529261541369	13.8069925898217551	9.1339167424032883
27.8190220476548369	16.7339941896811446	4.8095173600227872
15.3800326447904112	1.7046818188858093	4.7252304870891573
33.5614558011897230	40.8190336231365833	10.0753180709199235
35.3845350291030982	41.8568348946127529	10.5290557706095882
33.5190777854140549	9.0903982737047961	18.1322181144442851
15.3550342783799376	10.2474175834836903	19.0380751756812820
11.7377634768367916	10.8831866744303927	14.1216706261915483
15.1211153520418780	5.6417777806002913	15.8069981568807432
19.2846354240045521	11.9398597465736707	17.4115209956671997
30.3629177320456840	0.3027092086859757	17.5872592371838614
16.4473661125234152	3.3095065117198783	3.5533601849848102
19.3790231823288046	42.8791834569776427	0.9364332981983254
8.9261777643314435	15.7014316406096857	0.6874634979802058
10.4305362793605987	1.6745098843052852	14.9730950423464098
4.4023087548387121	15.7091318729784639	5.1336576375453786
12.5999359586953208	8.9737385218847461	15.0444037555771324
13.4356900341549039	3.9886469753199947	4.1272660960346288
40.8537371886566163	40.9496842256428053	8.7191711993247818
42.1126577657835455	8.3802385776127437	14.9926206912510711
38.0854507851575761	9.1215189566896804	14.4191740655775753
41.1513191951968764	9.6235900055421411	16.6110229371227369
40.1094320803565338	39.6838305130968862	9.4226597576017408
33.0925632174899320	42.8129958436044760	7.8592719884827114
12.6530512551831400	10.0916061356953186	4.3421776973222235
29.6293144703865217	42.4375376646877172	16.4075867515189771
9.1995998783632000	16.4354695536785762	2.8719088265314432
29.9320992103730887	3.5982324646777677	15.6993518727972781
23.4859088349601031	42.7017289674163649	14.3731528963727087
10.1354338394839214	4.8896234212341465	5.5582591834963084
28.2786272562615544	0.7244430043849404	17.5050004661525023
8.9339139118780402	16.6504771760601606	5.1615494554830272
34.7502674995891070	39.4307722111817895	5.7323331471774539
31.7834122828356769	41.5442504218095863	8.7845510790758734
41.4824064711761196	38.6806707931875735	9.4522100786270293
21.2009272091140915	6.7887153488678917	14.5442024865499473
41.9157734091698089	4.6940117316680201	2.3039838761711020
19.8612899036501638	3.3172526475415203	16.2630764405152739
38.3979884887939704	8.0490857427274562	16.2987676519771121
36.0425292516686255	8.2535944735453057	14.4363522193454905
36.3359343853621226	10.6272156139923410	15.8636458191816185
35.1383350656305993	8.1834893452594279	16.4900229418709579
10.4785818477446391	2.3903729593045604	13.5580739221855140
8.5414344388603638	2.7710684790603297	14.7054489738410670
32.7332624680854352	6.3523477167650952	4.9953916267185559
38.1450942531917221	5.5583986730528201	1.1271789895474331
21.6602459976712041	5.6355456972658446	16.6440988550480107
42.7095853145927222	3.8320458048010058	13.5261764050200721
24.4355885069101468	42.2172829024568870	0.1362138624189687
18.9802998236837404	5.4851747056663687	5.0571279608185629
18.2316332062630586	4.5119260208256211	3.0583967993833210
34.5250488687498986	2.0422593870553132	14.3684136533285187
29.7406527697190128	13.1170555857385231	1.3862641480337952
1.6956652224923963	1.5322643225549091	18.6278216044682310
4.5471260792041770	0.9683901657967066	16.1781565727661381
32.9902390300833730	1.9157269514022899	14.8688059598256253
0.3538149189944627	4.5222915054511557	15.5874205857340815
6.4433441365853668	1.9146100383696565	15.2210041943678984
18.4786208549098419	2.7232752501910813	3.4669453076574732
15.8482146805323367	0.0551898837080488	6.2575065885412799
13.8383463393404558	11.8696338848224041	0.4239299598162526
13.7494085707214957	8.3155634561082508	3.9905188568307683
34.6622692619896284	7.3281413520166403	42.3816652110407830
34.8577470371251010	7.2478268336232698	5.0471545563658928
26.5535165717297836	41.9131073762333202	42.2975631748776451
42.0027295898146562	8.0959253431619693	0.8810191846675909
6.5566243000786946	1.8866723741164777	1.0543063833523587
13.8213858780747980	6.1341039975744378	4.7086294944780871
3.8367135410624198	17.7687337214403236	0.0593022577363663
8.3612526629220820	1.5235339494806679	2.4815273382882514
3.3248482849724716	14.5976798494875641	5.6169700593055669
29.7721032234791814	0.0172192187116616	1.1190228290024180
15.0737648681013763	6.4022197011869535	12.5758232369193372
36.7776949492786258	2.4611185386130296	14.9501143288369445
11.2589711267197181	3.4892229287824987	4.1753726674105716
37.2639153853464009	5.1989949150771135	10.5849346347867304
35.0938638235721854	0.2214407281966783	8.8182831432236579
36.7858072655341175	6.9486011715846399	17.1685638153515185
38.0383939862196172	11.0867531280360900	14.4938301549038844
33.2632562715558748	6.0929732305976874	42.0861736188583748
40.6829148047087514	13.6233733933640213	0.4989791008774487
39.9265730337322964	7.0576848518421205	1.1654629178505709
20.6964696903329752	6.6013611062657160	12.9814753179722402
35.1581786307821531	11.1696116112152382	2.8162972988763384
31.8761375917015748	3.2081836619640445	16.8565779337416295
34.9984321832073562	2.9731087707251938	15.6374737174053653
10.6671817434514455	11.8999985243131370	12.3463349979233481
29.3251247635299492	38.9535546187005863	10.5038643673343355
28.9095672227099527	38.3873089210628820	8.2708451495006372
1.3649277868313172	8.5894097354455461	3.6217801971728290
13.5139302085332389	7.2599771193564271	13.9444528417225051
27.9063232916644246	39.4425665216622932	8.9869578585076795
25.7204189273283497	39.8422411512925976	5.9135971258880629
25.7072181595137970	6.0305870867194198	2.4066019230568614
19.1406207605412781	4.8935440051219716	0.9435666067847835
27.5603428426846371	42.4348198690144898	10.1398859822463585
29.5622252999044086	42.2828111148818451	9.0950795574129604
26.7777840194547281	39.4258766865914225	7.7855872653798306
26.0819187187980113	40.6679867365591718	9.5826509151764530
24.3358609280480813	39.1274560852039102	9.9831943316807781
3.3755747560706886	16.6389321055171457	17.3508742051495801
16.9399082442024884	16.7353565406914768	2.8659522634801848
14.9996759500827093	16.8032723649431581	3.6957802090915202
15.3745572685844873	13.3257008505270562	0.3807549048885751
6.2368059233684674	13.7489849887009630	18.2644866419817511
4.9428354009234985	17.0953186436922522	17.0756048543034495
6.6466641754266762	8.8081543779654812	14.2768260526622868
0.6523453443188656	6.8155539862615093	4.9222322913001504
42.2780567260172404	10.9284829389277256	12.5936044567825256
16.5422343010121331	15.0399694615434196	1.4557344048316194
16.7141285698846680	16.0635581781087318	4.7357835759499682
24.2346672743067515	39.0424668420606267	6.6291044670770205
20.3657960768538118	5.0897055099016955	14.8073705931116937
20.0955483856140908	1.9051400312463593	17.0938010489856111
42.7596101117782439	5.1761321193177698	4.3851396326653083
3.5250628344068327	13.6791544815549582	10.8401014540317817
16.4275837210407865	3.8836873808683987	16.5707547800821438
21.6318312797909797	36.2792539275799726	7.6690837811009631
22.4657594606707889	37.5841794253047894	7.1003948526027143
20.6329709507836405	41.4896909025415326	10.0851483090656426
20.5872036473830811	40.2853986120859560	13.7035168895151163
4.3348768744240216	9.5547890725432616	1.6688318573970846
22.8085751573145572	37.6932550120404244	9.0991809059214575
2.2095218483443131	9.1652925243327754	1.5675720374823441
6.0231117381672661	10.1052431102679190	3.1493646391036312
5.2163487744373906	1.5493150265205791	0.0799610540458223
28.4973771506402862	8.5464267640825557	4.1617230893403194
6.3555075015873363	8.4932306108787206	12.0049066537390203
11.4274881852419696	6.8451627103958996	6.8311865106194087
12.7827761907444355	7.9250455825625528	5.2418595154125365
13.3001053640520723	11.5044319418553140	2.6115950392803851
3.1827885442546648	4.5918999173573454	2.0706122160981479
27.7093774056841511	7.8038348831796540	41.5460445405245125
36.9297102701124729	3.5870417862291779	16.4522469554878761
42.8872067385767295	6.1860306345693283	15.0303641869419664
40.7316168480269951	0.5153819814713128	17.8442743297390010
26.8601381522159102	8.7518267315751217	18.5525542456277925
27.2310648065609158	7.4026435052025921	3.5210814052437089
29.8198171242456276	8.6049335529819491	3.3180959095558245
29.9176563622295042	4.4822768979078624	13.5738911202522772
30.9383625621204494	5.1014067907716907	5.7598190447860187
13.3399576535580699	18.0759991301431668	2.6811622088025189
17.2825668602674263	17.0472534232630935	6.7385732285775664
25.9875045597004046	10.3181755099986585	17.0997167283599580
28.7557489740277141	1.2102908469802032	2.8569497906544621
6.9831342211763170	11.0522339628789066	5.0306298298509979
24.0676239353899142	5.3086368760303078	0.9781554115200678
19.3233267597533782	0.6329424133237583	3.0364397077655512
2.4522604262907439	4.0573301509108726	0.3686167911624704
27.6872240527941180	2.2371719023317294	4.6497926433802936
22.8222962866734456	18.3447134176116684	35.5326030744305399
23.5917453895264764	33.4431435791473390	37.2463229133126603
19.1166634102465807	15.2735675011302963	33.6854405773127752
23.9788064150725617	34.5014839181294164	3.2130323004177130
22.4157669601460086	35.2898588040923897	4.7194608408891696
17.2575585404307859	15.5699931675142871	32.9202038209091796
31.2638318454003610	12.8485303462008549	31.3674287807921139
24.5706749469099393	12.9499946805627015	33.4595609757832690
9.5988526695995109	14.0954421927485303	31.4910113637084841
20.4945035704171303	16.0767412396365827	32.3774547421602108
33.0733905429764974	36.6711697535315508	5.2947463788239322
27.3687879791282995	34.2743268391007234	37.2327812979571107
3.3707664614855024	0.3717825642911368	5.5528061093419883
4.4191973420575854	36.7764637344028955	3.7052400970770454
4.0514358607415204	38.0427489252607174	5.5935237963479079
40.4656190503453033	26.7268396742420933	41.2794961027679932
34.4952070272907960	31.0409384254157033	3.6070442717622986
13.3461245242874700	11.3354999545467088	33.4648463378834080
33.2964223192100022	30.3490094890888145	2.4222800283983639
23.8236927820665834	35.1245606612977284	37.9338138032615220
19.0578122994735217	33.3246714979676497	40.4021448620313564
22.5008954765056082	34.5431998612572073	36.3034834345424073
14.2477986798107139	18.7583579728777110	30.3154696733741709
26.5443690158173915	32.1194246053220382	39.6997746241801224
25.9891016960749361	34.4207983498056436	2.0577444284218105
25.3707710320943143	34.3926314081506206	7.3232863903106500
25.3824889920538652	12.5797878336867317	31.4111544274570136
24.1672275637839604	17.0133047804684274	34.2598186117793091
28.3782575179987617	30.8297053265906271	5.8928535560165107
17.0404417241754089	11.1502283340797845	35.3298362994105091
40.8331883660594670	31.3261641483339943	40.8883066489485785
25.5256506978558164	17.5365820562604426	32.5088018274692416
31.2219421191182427	16.2542427794656419	30.0819409205888277
23.1074018798639145	11.8176564459593578	34.8507589456646940
18.8481053934096252	17.0186751712333830	32.6942017419117050
28.1386106086468253	34.7490543238241898	1.2395700155304317
17.5823117296828713	3.4735762832160009	3.3024396448702742
25.5652177352347110	33.5656861392998493	38.1983149721198885
20.3054713303478955	31.4326205762343811	40.7247463619189389
21.3919504378760088	19.8568645800027355	35.1643376918153336
12.7966002389844533	34.6794421548048959	3.1147795452884974
29.7882019002021678	18.0121225113624348	29.8561263474192131
25.4920647237412332	20.9632327458493108	34.7025279447260502
27.3243489044950394	20.2448063528209659	35.2750509865031106
29.8035287148526358	26.0020015722630440	33.0679700703949635
26.2020902310156423	19.2972783497679359	33.7344427758168663
22.0068554021400971	23.9768307076753402	29.8889208578452745
23.2993729474744313	20.3746509253891084	35.4467671534950739
19.7646781515678072	18.7287858562107701	33.9807673853667396
24.0659574189451391	21.9888519428765221	35.1609894408593746
8.8665546866384659	35.8362049022412776	4.1346438851974092
9.9078300616216826	35.9863392862142675	2.0727828212497039
9.2561478010119007	36.6591996887363933	6.2058812770704685
13.0986919146838154	32.5209937732449816	2.1539689309743220
12.1531546756644993	32.6973072349011105	3.7482495845929575
14.4815579547108779	20.0926910696252001	33.8268419286978457
15.2272876174533902	18.6069118644284615	32.3004101202608567
3.8110757220924518	33.0765018230475576	1.2128135620288560
37.3602882295880505	4.7396655611540544	0.8593648395259711
42.1837472402330391	4.8260950728226266	3.4335326594050311
36.1114793193259942	18.6740697891730498	34.1573567008742529
35.0188764957251877	42.8567966307853254	40.1017829106513730
2.5897790350572620	37.3479724190915690	7.2479989719025761
37.8017735933598473	24.9947736717737214	35.2703354120681709
40.8599356588411879	20.1525927344009119	31.8272503228864601
39.1009993698758791	23.0835568428561189	29.7349518539342590
40.1104813003081517	21.7657024397538841	32.2233153897936972
40.0269367618151719	21.6918461269678886	30.2962884571416993
3.6103277783737360	21.4807906219932718	37.5603848943567726
2.8252504884263017	31.5687866260908514	2.4373718429265692
42.6263236292456895	27.8080721494035465	35.5791013252602895
36.1626109454628164	3.0044738365122310	42.8612593549758927
34.4636195345080338	19.5115182749390250	35.3887954450021738
33.3160584224608911	22.5838125085412535	32.0524484992792793
34.6068559966486120	24.4555131069069098	31.6468476066663129
32.4168975459146722	20.4578738598357397	32.2703439119746065
33.2643069472529262	20.5786970631444177	37.3282998913115236
33.0445828002046582	21.3175921359121290	35.5693427301522078
3.7771692866327227	31.1049756703608189	41.7006824135339969
4.3912452516730598	35.1099796715053785	2.1151141227069670
4.2532843832655445	31.5345702742554330	36.4753905957247682
15.6034372012586129	38.1405327636793885	40.1131654887228208
41.3309216203349692	18.0843547289888562	31.4673908590883968
42.2599383777818574	16.7415443243023532	29.8802498793279305
12.8069721872881015	33.7489515382869527	0.0618555678100741
21.5459863932793212	31.5204655923332879	42.3326034443474271
35.3388111129492017	1.6338329794428545	41.1729413323213222
11.6947915894328176	33.3029019391065688	37.7971199025830416
13.8541981800811431	33.2187861795748489	36.6832437654774495
22.0502257853003982	33.7845790654241682	42.4638533786023444
24.7127775651338659	30.3148152765457581	42.8254703679258668
14.6091925542960066	31.4912822001989454	37.3747992186074072
38.8648639812059784	15.1470857776837313	29.6400600701883690
22.2610014900118536	36.0927449360519645	42.4192091887039524
31.7046591200870083	13.6178137365048748	32.9712413957779447
30.7794341937038176	18.0566935107009137	35.2887577880824637
16.1552834344914977	36.0070977022639909	40.8433597262776189
14.0802079211029731	32.6264774897247776	0.5766849536479514
17.5397327202324327	34.4720824403999231	41.4877845055842513
34.7670570707079207	12.3163903890616044	33.8941751641139248
35.0783027075676799	17.4219907092815021	34.9638928422436308
31.7520233687855900	18.5224562189144599	33.3349468688382160
10.0636868555840699	33.9501791747677260	36.8287837365308448
8.9028613298002561	18.7774031386181335	32.4451793937014941
13.0384533742647832	21.8759542243285274	34.0521927217667937
11.0497693352861610	22.2835195132726227	33.8231334687062031
7.7727764097181176	16.8823143800206985	37.0027037339646157
32.1795593131598849	5.7700627919111742	41.8185103395724056
17.2919655248856188	30.7652797367545183	5.7131215562750590
1.2270056448436486	24.1150828849401506	31.4566245892858944
2.2979167503457245	22.9993721783764791	38.3080825307133352
3.3454156418594940	23.4354591224605819	31.4167723478396752
28.2096451230472276	1.7339292513990621	3.7492907212960014
2.1219368027789298	22.2272503341540926	30.8211009189014398
15.9042445244928583	34.2855250586589335	42.2931669628643832
7.8864304413250226	34.5775396555949470	37.1087354906222160
10.1245718195595966	32.7236038908208329	39.4236227870864653
11.4069472938668586	37.3066678217451866	0.8433055638118497
6.8327526442387185	35.9832431303028244	38.6073640541489240
15.7741215884148698	31.0231265881403466	4.0318659366723111
41.0090705436386926	16.3064922659535654	31.3758907935016360
41.7311291674129095	16.5909710117597164	33.0334523194084255
2.5475921188796868	5.1595512529774465	2.8796680135049604
41.3718711945624449	40.7162857693851166	4.5548604571557396
26.2736287723402455	4.7643494417334855	35.0255108637627046
27.5970727774765230	0.6517342238820276	31.2507626639704554
27.2622853662932556	4.3491604001334068	29.5132977504111658
28.4271831770282688	42.8943063543314196	29.8580265760370658
6.3173825433486774	0.9948729054146188	0.2737349082922768
4.8341145690386274	0.6403330482459265	42.3536534879969011
26.9495643918441807	3.8801424790436743	37.1413904599443185
25.8336399684308056	3.1365734432422165	30.8454454210138742
41.3517297361081262	40.8428260085827546	2.2220912491744613
24.5126981160804185	39.9900397496791697	36.5254136256210771
41.9410192527877044	38.7700727223983463	5.3814847811142847
41.7821242850746088	39.4553422738719561	3.3010381530442183
37.9431191541593407	38.7557990160955370	41.2076088030893715
21.1144671791315872	42.6773717641723209	36.5155877914934095
35.9125489142425423	33.3458828892716070	0.2349527647383076
13.0824113838934046	2.2704961486869348	30.6191384244252873
15.6954774151200844	4.3757040486542023	34.7502786439349336
13.9507387706143753	5.7897000796900642	35.2503813542618616
42.6807132539935523	37.1731945527190462	6.8424924658451047
42.9516084585007150	39.5886670790632138	1.4271925765548481
22.6392366885563696	40.9989873886250393	37.2805064870826257
35.6841099281964631	39.4396262056903524	4.9743390251696953
37.6296790664055862	6.8428255743502371	33.1122855044597983
40.5343735331395933	1.6800347965902904	32.8137118697702519
38.2360890384763508	5.7540419316053608	34.6278147855339142
41.4739546779361916	1.9865897012139333	37.2698470462465394
37.3639696836214981	5.1347525723387983	32.5188728744022839
38.8960642244211456	7.6176071496421702	34.7448702523549713
34.8167155082582980	41.4824835719783920	1.5671334221203281
34.3715394805928014	38.3337289631623861	5.5855258075044141
30.9511578427431289	42.6791843039643197	0.9524567061691851
30.2919153118370481	38.5348059772648099	39.5024058869251462
21.4152475073257591	38.2129400484469173	42.2047475968272678
19.7351339627022782	39.6449894790076556	42.8869139568316911
37.5529173399862017	40.6850774832836350	33.4502078930708819
33.1231971339283930	7.6708642754549583	34.3876530499986544
34.7919128813036309	4.1511824483222144	36.4643780257900190
33.0558768388826323	4.1750943931789521	35.9566121872831417
37.4015167529768462	3.9323195383521772	30.8304624036153108
33.6087675269198769	5.6663818486080739	35.0482106951171204
36.3374058058061067	3.2018053124497832	32.3412743644116247
9.1519724766305988	4.0609720050181766	10.4392806188703915
35.8442671058598350	37.9983672763042648	31.1028373835280121
30.5448169647846228	41.6629778839065992	26.4147568264555446
10.2315144713368582	5.5136886675677461	8.9821356858843906
28.7663612497937571	42.5329010451927942	27.6133321876606530
31.4922383930426300	41.6967155400812644	42.5321535257126371
35.7388360268048899	41.1814915764110623	40.3400597341701044
32.2881927918460576	37.4185681345039356	39.0887584601252200
26.2235693244826393	42.5345458436523245	30.1215735740860175
10.6388497156964590	5.8920064672082866	6.7931980789464887
7.6511760112521188	2.4596035930577842	10.9031836812473930
34.4994489309210550	35.5877878080476506	26.0254522781878386
7.0740753931598581	4.1504365814965540	11.2044705827604876
38.9916195855376699	41.9707526953224814	39.8343665499559449
22.5540375558831343	38.6215510915534210	29.7082701952738049
24.0920268570730549	40.4789087778395427	25.9259132189624246
23.8337165811617879	39.5196189444518566	27.9912801543478409
24.7191916441026898	39.2235942162831819	24.0504997953444857
21.1581679252597645	37.9494607560153909	28.2539065868636179
23.6465278797098719	41.5608268788452122	27.3066841428693543
15.4956855873444646	0.8301996462499965	5.4941577860418631
16.6647208164016476	14.9857419732192891	5.2583511058093340
5.8816644698666654	4.9243789376756171	34.7066738905692063
8.8483186089937114	1.5076455650037073	30.8912785758588768
7.4550427328299431	0.7309309843139472	34.0778346065518605
9.2350108190474867	6.4494566432220299	31.0079936351977210
28.6377442078879163	39.9009004199809780	40.4004872376528823
27.1306631442937984	41.2378677957409678	41.5449785411455892
5.6242041559590294	42.9533980252861767	5.3750629112545045
4.5178385786022774	42.0256833508805983	7.7998450974590305
4.5866915452209138	3.2199863744544053	35.3070002010686039
1.3001949862737965	4.9459171904339847	31.8465389625792170
6.6408270022017692	0.8679929632050856	36.1106861304313398
36.0817609612305787	40.9589490694181961	3.4008934954171517
5.9749789769428752	1.7645027830440498	34.3023308811459842
3.1887006723231996	0.8309658100538672	7.4459636656096810
42.5236936539436670	1.1760978706721872	12.2053936623855179
1.3597853746928510	4.4391854004999196	0.2429016855419396
3.4134737198957530	3.9444650765177278	1.0759209511126164
0.7913976430393092	42.6066990323668762	11.5112064046530218
40.0121123494164976	39.7790889721486565	28.0819848823463438
40.6854520600605696	38.4988375867048020	26.2803001244234906
32.1980048690216165	41.1366846892908313	24.8658086255967419
40.5607139942698680	33.3209334186815482	39.8263405904360326
37.0308277719455958	7.3886836136458811	35.0557389999183613
33.1599042831904995	9.2158082876504803	35.6507222846214162
34.7268161182692410	7.5147306160372853	35.2567243188430766
31.4593640489958233	11.3265975340476182	32.4230999194785525
33.3897318710484328	10.9623318033826820	32.6902194439305589
37.5203646527052683	33.4110697521774682	42.4593125142121508
12.6975392516215582	41.7275546495850449	0.5597813157964072
13.4790000117058337	35.8049124462696682	4.9932451508870503
13.3160377482829855	39.5677375745281381	1.0386318490516011
14.2673448287543785	38.3441439575881517	1.9744880294090594
36.4896092751955834	37.0841001161410375	40.5401797814911689
40.3507471572094616	33.8534355393515654	37.6928798620283203
21.4803616461050346	8.2925293029945841	37.3990931725101774
32.1670847989533684	9.3680109023520934	33.1380631384354913
26.5043021942412835	5.5674081843648606	36.6270764764651204
29.6930348451745516	11.5096300413941002	31.1677492888968182
4.4492280986441184	39.0691252569288068	40.7769122811617137
31.7197114080542129	10.8477639730292044	36.4727658903251850
23.7656265100066513	11.6400465798636503	29.9556090001019975
22.1489825057911602	10.0507190838933109	36.0247182140112159
1.6954853047013412	38.3931008759129142	38.9014633984294775
0.6933163409270604	17.2784040193549124	34.0176605870932889
9.6777452187774475	20.4502148232420531	33.4461444527361422
9.8136914580625572	11.0373250910386638	33.8394452179235756
6.8711864590877596	18.2658343015058229	31.6866554026702332
7.5320548295337861	13.6495796954718767	32.3867347870261781
28.0754431968558755	30.8314923216941565	40.3278342352725616
18.9074575304560959	1.6523369145471702	3.4925764666681731
25.5382227599116582	42.2290464465549533	42.7806696765296479
18.5488395575479501	4.9873093884158655	4.1031754687855786
42.7615385620963622	15.4327550244948846	31.5845008004388674
2.7663527530428476	17.6009790527522583	34.9119172166453069
2.5521561982070136	37.3901746447770336	36.9831055257973702
12.4214134184085978	3.4162084550249516	4.0559038998437957
15.6612368987687951	2.6265878317481248	4.0772590378743487
40.5490719035002769	9.2458455840199534	34.8167497740393088
40.7054752305872611	11.1629428901781829	35.2577547254708890
34.4183025387291437	36.6789611950489345	39.5846638610213617
7.9067427589086376	0.0915966117613388	5.2107816854656956
30.3130513062773730	35.5347937747918010	1.1353081241632450
29.9669281497105082	31.6843038165584154	39.4207373220100763
13.9132421405556013	5.0184215811584405	4.3994490158040866
10.6222339950964653	38.7894308868749675	39.5322324843483131
6.0899177500637824	37.7333027117221533	39.8997381922588801
6.5631296074929981	42.3413279824540965	41.8638397664944435
8.8877775491163540	1.0992132971508781	3.4417231916367528
10.4288571988889558	4.1067632658286879	4.7355274612337244
14.9018773481243052	40.2475932573872015	39.4451303124912727
24.7977593632201057	40.2234593074599829	3.5760108025324793
29.2605827518006798	0.6034041790632602	2.0143353835296445
25.8611822860821405	39.4326937800605251	7.0253267168013274
29.3454778643595233	42.5167961127975289	0.0965529924194675
26.3110015759351974	40.2940809667726754	4.9905754475453330
19.4817736858063562	0.6939434805185108	1.8240787356041501
13.7418141780668126	42.1929345419779764	39.0018508646876327
15.6530255644269776	39.4573851663670965	1.5912992576793543
1.1742228701455120	10.0239996180690696	32.1653968332140892
7.5465006544091908	1.8829312823689779	1.7322048473336169
6.6807590467688938	10.7775853263975456	34.6704794306496638
42.2750455928147488	9.8967376780128138	33.4043493576750095
6.1404693631838283	11.8788062878472616	32.7035241306895301
42.6574963509942506	10.5690864587111903	31.3524237895852451
6.4442570179910748	6.4414267288560154	36.4411566602608019
35.0900553533408015	37.1983658070570797	4.3753228504884243
22.8467975626986259	40.5534632330012741	2.2668777942331162
2.2907357204575982	39.5006149031484100	40.8081056281976728
16.5177355058048896	38.5118942288791715	2.8648016976696589
23.0393332845070482	40.0029774873698329	3.9907383724500600
2.3818463396015863	41.3879752340740481	41.3709003245638343
15.2912148920839446	10.9648067182730635	33.8775084111972902
18.4906338454949513	5.5220911419568992	31.1314316092151380
13.8618417297047465	9.5570090124864784	34.4121829608560930
1.3727270317884441	39.9101798669794334	42.6258663520052892
13.9559990393573177	13.3406524657438599	34.4380289696312190
12.9741161249242438	7.8563505539143872	35.7328623434024593
15.9263857026496147	14.4769676521599351	34.3054874686217275
24.5342620589555658	39.6442799830000823	5.6421329990162059
23.4307321306713874	41.8424902111506398	0.5911408752831957
21.0736714101867264	40.8655790171902211	3.4121030605798190
19.4936211111158961	42.5308035955076917	3.4590719890644168
8.9376202605113271	10.1256302808859520	32.0563261509558828
11.1514821777904949	38.1635487972808676	41.6915916091397989
7.5904074259367338	42.6515013920090240	39.8746250689483404
9.5182463416758143	8.1944056583270370	32.6048234103301340
10.2224863686798404	9.1077140141305453	34.5697723868110955
6.8078226500238834	19.9197164440118186	4.8952223684546841
38.7570033539849987	14.1317506728295204	39.6905597040639648
8.5235604633240207	20.6441724973895973	41.3670897920974809
5.2708731218739393	5.0292674522784413	36.4051721348011625
1.4066760528207118	0.1773533598739694	40.5721145560989243
41.4012503348129997	1.8528280760117575	34.9367512345199103
5.4053447879678789	2.4928361119214593	0.8438018772174306
3.8549971618780798	2.1752813302485259	42.8361760893447752
0.2799063439700081	3.2459681000975551	37.8989042406646846
6.5477065988284222	21.7468007039110809	40.9989672497557081
14.1223734438730038	17.3989458114219886	3.2196189837894869
0.8146575677222321	5.7575548955117535	4.3739123932461954
11.7426140422408167	20.9782440575401701	1.8236370065091325
41.4485701473099510	38.6828454277445033	34.6898488029871430
28.6811598563210950	12.9071606560327226	0.9441826477268100
39.4535293230677269	39.8481884679544507	34.4347515155254129
9.0625037357000195	19.9523500415540020	5.1409820574915663
33.3888545266606585	9.4446935929017410	1.6690330724017204
35.7864501784309752	7.0784740729100450	5.7312555032067403
0.5444025269770947	22.1399076787017073	42.2335867095303215
33.8994147178987220	7.8229152788432028	0.1021319223498636
33.7690585402252239	6.8617444095835083	4.8898257263177083
28.0691175324821032	13.2672229056099411	42.1763109488207988
39.6865232415356672	13.3106426822685684	0.0037194873777698
39.7306237596446508	15.7753574579513103	2.3833206410648651
38.0664636498404647	14.2694180063446296	41.8683019334331590
39.0454883035962936	16.4423210411382108	4.3661037229373107
36.8146265270519919	15.6737962084247027	0.3031099271665686
12.3350315531983803	0.5692377807342003	42.2553952476519754
19.1057382362750516	0.6472461462988209	0.0846366638966626
16.4684698001050123	5.3885001652725402	40.2951172083293727
25.6619262414466007	16.0045856263385708	39.6591012923127693
27.2496955203419304	15.0864440199855778	41.0205959413983905
34.3016260154920118	11.4292994628335478	2.0656279415639118
30.6553824710276395	13.7835612904800957	1.6599709173755683
36.9892894254464650	13.9952246611652420	40.0984800321383972
39.0066599324128305	6.3407962211632629	1.2345365217184079
9.0743536668334084	5.5552266598485431	39.1898437193433011
12.4554305349552532	0.7445249024917722	40.0187088490862877
5.6001822442414095	6.7714896429498941	38.0135802260340085
8.4329905828741349	3.3469047339544669	38.8117567255691043
7.6041837194834176	1.2353102920985370	38.2038678517916281
2.1038556022578434	19.9339988438562123	5.2725758139032948
34.8554861664134279	10.0870996910489321	3.1376905348208064
14.9224686898227414	41.6014685073605932	33.4182137730261388
26.4645530467206989	6.6529981149766462	3.0285712124014981
27.4187361995932264	8.1394187048851521	4.4263224732908890
12.7853517490440876	39.2979101629448238	33.9093939767194144
14.3227327004684337	39.7094951285642281	32.7923793929224914
26.7826053471326482	10.0283782149317684	8.3400504670795268
24.8714927608185370	5.4960401124084450	1.7951728818059631
11.2970967272576690	39.8508517620841047	33.0123452516089060
16.3562055080155986	38.8055176530014734	34.4010298518940587
13.0191867849539413	41.1847977007827595	32.7124906974263112
17.2225898969408355	37.9158923184261738	32.3693642351572493
29.5075365485738104	9.1796086728242923	4.2997155931214133
16.2406942274084223	40.7601030941867464	35.0970135514204813
25.8905693753716086	10.1262494459268275	10.3671499767123620
28.8437999167879866	7.9518983008597379	3.1420288193632389
24.4917174070860355	20.1573135630880671	39.4133071991457200
20.4088066594131838	25.5221824844072849	41.5601425034660963
24.5565861113216215	22.3853334753183333	39.0116611159548512
22.0689473828903395	25.3961764260233025	42.5339446263111469
18.8164926894711897	24.9152059200583054	39.9125968273088816
12.7411477210622497	0.2785020660078928	31.7674288295681606
8.6900388240462014	40.2751140752861119	30.9816447781153954
24.6777904250725548	37.4822210351664680	32.9193430560875484
17.5868469766233808	17.7562307638810211	3.0272627231498044
9.6997737169412428	19.3597042400653798	39.9358531643445502
5.0835023354134732	21.7769109553218918	39.2686590948771155
14.3992495926222119	20.8477487688009830	6.8566247126631685
32.5015076508019689	39.5368190034440161	33.2658288325212013
32.9950615180253024	38.9599730934038391	35.4422621353627676
35.8961927127355196	40.0335399690726135	32.0733084641223982
11.8247237197227850	21.4721622523306301	41.4283952730086114
18.9476735861207253	24.4324347093509218	41.6562278392835950
14.7506579921367855	24.0195109166629344	40.2195603510762112
23.0107264038255401	5.0858954913267338	41.2424903039030752
23.6640868835417280	38.9166008108170942	33.3460189473319062
25.2307320503882764	38.7266709097411379	34.7515033780555598
17.4185249321263846	20.3057950992597149	39.9215620252695587
10.9824150789751247	18.2623031630360657	38.3837962683764289
19.4501094404608494	18.7901590518677288	3.1064957274539173
21.0770319058144402	37.8014300003549835	30.4584137895966904
22.5460834653472801	40.4867256214508018	32.3812283880673490
20.8185130498449382	41.1299807835938651	37.3886764281505322
17.8212446728708898	19.8127142497530784	3.4198220026479804
20.8683584472927954	24.1114090917081043	42.8514596713258484
7.3262583072501926	8.0784763263486337	37.6969954750650942
40.9418654913582500	7.6241510588113091	1.0555576070392039
13.9260442179383190	6.8546996199297716	39.1515807545904551
12.9283851919462904	8.5946845228394295	39.4649101798014570
35.9683714882563379	4.7600924421887614	41.1081797177355313
3.5981485628862764	15.7213686171216978	40.7812940966068425
10.9514098696627560	9.0871086287268490	39.2439569962066912
5.7477913759086734	16.1019426957770264	37.7285655999901692
1.3961348410382504	15.8186674610527014	40.1331094030527140
8.9798009485308228	9.3661547234915510	38.0346694878918257
7.5390617967074611	9.8757429190784816	36.6538026646241164
39.0684546312489331	9.6957257112981061	38.7099381952252131
9.2618150949808804	7.7989472093036127	38.8782084933946095
10.2474304315559568	12.9644224378736155	39.2767792935744708
3.8296646474600027	16.7230467843835982	36.7536056317608910
11.3424585066570156	10.9992760928731652	39.7635753089230022
6.2979437566207590	9.8666526240644519	38.2188700550940936
9.1429650107706006	16.5990047625208241	4.0209299097183209
23.2903679870456735	15.7103510321360940	2.2077468148362565
18.9191056378027689	14.5415632526615184	1.5340523008132387
12.6773080030067060	18.8966057206877593	2.1888121581792928
21.6131679662573646	12.0724744050184949	7.9744725349656669
21.0187980431073278	8.6696807789793020	41.8553121519462223
27.3729700146816732	6.7988697303817336	41.0653225979047036
28.7121881411858055	11.0980694774296307	41.9777977034845549
30.1795136944386400	12.4480933293341458	37.1368329615214492
28.1332345051558619	8.8578553319807867	41.8148901317822990
16.1508606903279812	16.5612950451896310	3.7846148887471904
36.8834482818323934	13.6784358342849881	38.3126936555834945
42.3289710967569590	4.6651133644716136	1.2135199338117826
17.0742752178945203	15.9548135081147748	1.9705322270162910
20.5632672196931523	5.4338957573977336	40.8349096196093981
20.9604716031807214	6.5933310714432150	38.9008278439296262
7.8564522425841918	11.1556164596329364	38.1171477327621844
13.6808741163895373	11.9009482235461501	1.5916130595952118
40.1472586377588669	10.4532374063885509	36.8216456974554447
13.5471258031611121	7.7309518831488431	41.0820303458343403
13.4394394506244890	11.2439870651736644	42.4761681085687925
14.3307286390247857	11.0901008494526021	40.9230575508784824
36.9352846157347940	9.5361287369975383	39.5039801041870930
12.4033805533231529	8.0189663382679246	37.8360017325037035
17.4939172467563040	11.0183464001112572	37.5777290598767664
17.1382713684832417	6.0739192756880094	38.7940508679721674
12.5545381380463130	9.7920877298318612	40.9265158572103189
27.0424191320674190	2.0697623464793522	38.4721100042300392
33.5584818411958068	2.7818388931570861	37.6404966651895734
22.4001111146867089	13.1506069927621994	42.6674766157633201
20.9988108506644657	17.2458986941213226	42.3275778855999789
30.3668450541307031	16.5528943223486422	7.0120750119915263
30.9953709190810613	15.7861043924592099	2.4518473083486731
37.8869320488268855	14.2666037967968862	0.6834243412194030
31.7969577369046483	19.7453738885910433	5.9218667629368529
22.9920184200930571	17.0093294991513915	0.3285077268635936
26.1010546761550017	5.1288398156105179	40.3921187149007039
27.9957858623340563	5.3811147797073815	39.8034934298353704
34.1558023691717096	41.9170095571169838	38.7549407458266444
30.0663095762957759	5.5478911125540789	40.8681787794647704
26.4158915127091483	2.8658741096091065	40.3589000812779304
2.9792843005157734	18.5187974116739618	0.2905923026062567
1.3543601335557698	20.1485659658280944	0.0711901424042859
41.1432046212676994	14.5192169966596065	1.0843694333842704
23.3670142964749203	5.2206924226424967	0.0370960376491967
3.2286004842060620	15.7275271453023038	5.2119054668657290
21.9607768348191001	4.9856423851992595	39.7386001626966205
19.6396981277031486	4.9944855910667778	42.9013328649281434
21.4838737833814761	4.4264836712817495	42.0556118866072097
27.4130590187079832	17.5456032562753634	4.0491769852279118
8.9040346399281471	14.2676010595956111	40.5360062676897357
4.3760564654962053	16.9398879093065524	42.4500325819776663
8.7731787662380629	15.2408185505415883	42.6316537259155837
8.5402053140240817	16.6205643207017673	6.2555260610366066
4.0112861687281969	7.7900405608734600	39.3591116434643311
1.0228455464370159	10.2229141720980490	38.8829003679009588
2.2592099632958194	9.1272784703172078	39.5773056732849398
17.8149129378659445	17.0014628874385672	38.6387772229994297
29.2200393697413325	17.1412096815035184	3.0657867665708332
16.3634136202289646	18.6771433080749354	39.3234859571973985
7.6544099307522160	38.9430192429596147	32.5863782688974482
26.4887054496487337	13.1250778466931948	0.4514727491028880
14.7808902235112889	12.4542537068840335	42.8451779042439966
2.8209702316644796	0.6589854436817632	41.6150475060093754
40.0555243634836060	0.6414182529207283	38.5777068705172184
18.4596942145100016	18.6183725745390518	39.1893017831192054
19.2236559118893773	16.4666312184918979	0.5742579878442821
15.9215948975477417	14.2277927184537436	0.8847875696159947
9.0973566935606911	16.1160688751747330	1.7600082055103399
34.1561761812718956	1.2411809411014232	39.2575587125844834
34.4177274132645081	6.2948813706503790	41.8431920320014399
28.7744331514780392	29.9668432786712309	3.9688751307269441
42.9579077222627319	27.8995373524127146	33.4580936579013368
41.8858333278572701	27.6346453701595784	31.6980684066285470
36.7206581851056768	29.8316158579574449	31.7894104869847105
37.1751308180440745	24.8245144673823539	37.4777197418718089
39.3078021463356251	26.1016935422250640	34.0066862970284163
0.0401771729103047	26.0192053967823185	31.1537951339005019
41.2536179158078795	27.3666798485724385	33.8639075994130820
18.0187015515080482	25.6330886495373349	38.0387020379653080
13.8055795280561231	29.4092491204575595	37.7802578659147201
17.0357190818597388	23.9486366224555702	40.5686211431618986
25.5175265149352342	26.2787736731301784	7.3754626581325082
34.8970118488361578	26.4699650312838379	30.6779250086274615
35.0081262520240841	28.4096281763923280	31.6597196572769413
5.2905912782722453	9.7833245074369124	2.3025619910470985
21.2359805407789715	29.7405678037798609	42.0185510672624716
18.9544664541940016	24.0783528597923819	37.8604987245038842
27.9868664786955499	28.7614169364451016	5.0899426912841905
29.5890336314810689	23.2550233526469192	4.3175593698106240
29.1132258062207576	27.4818573057466331	1.0016235998204324
28.0225085455704530	26.7637112493729070	6.0621318410231249
28.2626576545195149	28.0474757218049753	3.0529271943234928
13.9255009709352837	24.3805358522045772	6.0734366699270561
6.8995803348183067	34.0400597353155021	31.6999598388568522
5.7265093468289878	26.5793972976094182	4.2218364703251900
11.6622065103174499	25.5786265137132318	1.5968338208957700
2.4361036864077557	35.6279008995929019	35.5335393145743126
4.8807334187472637	33.8965172010571933	32.6886188694938369
3.2000491733751875	33.5246541052574329	35.9131187417205808
6.0711864995150595	30.1837237339399493	36.8419380533556691
10.7828797296185890	26.1483032421691846	39.4593656022621033
3.2835438383539675	34.7363749430862470	34.1782828545319290
17.7711889132971272	23.7001280116684114	5.4570703092167072
28.2540366853976828	24.7261332463939674	4.9920788898302293
13.4649430228210960	30.9786330657926250	3.6250937806213290
8.3166437890952256	30.3976266904627366	36.6726866889256229
8.7893368466660622	31.6872285653515071	41.0136018193707841
14.3016869546248540	26.5841483840817610	6.5507941441179103
12.1094075255164011	7.3550807210107099	6.0082354523718529
7.1688535063582695	11.6673603295887105	6.0110034094671017
12.9529224936790524	28.4541069984020680	35.9878077388730517
12.7441933533111911	25.1444721261586466	40.0827177929771921
24.3620831702099849	27.5568881049889001	6.7316729053677262
22.6398251875912209	30.2273473445235972	0.6220146088503045
12.4353431997639046	23.8570267417280881	33.7114529203277229
32.4038371898980202	26.1108586840525518	38.1841704817459231
30.7884291300199706	27.7425610540026781	37.8956244579344599
14.8266923370803791	26.0563900383939462	31.5622204212100002
12.8438565150820114	29.1931583519601361	33.7895792918995923
31.7194304303881793	32.2771531413163331	38.1244377926575169
38.1421481663216895	27.0103422075669251	4.6287409632058738
41.5973702207294309	25.7795774120903189	5.5409624421207138
0.4306707289232685	28.7633351587918860	2.8162377546035531
13.5244954611659782	25.5579959264167762	32.7124129415978686
7.1400517096657738	25.4642896494115192	33.7144898583352699
1.8792436130915442	9.0434716464206897	2.6839434723023734
39.1449409282351937	27.3708399835001366	2.8088093948089368
39.9465005332925003	27.0482823612180816	4.8583028441008951
29.0258409648285856	29.1252031261064204	41.2343638383750530
2.6589286987220513	31.2914086448172846	0.6381081162833340
2.6256277033255859	31.3196035061139426	4.6612727808067680
1.7357223939864956	27.4103596504509142	36.1119534419924051
0.8629949893765881	27.8446454027835486	31.6968718147826323
8.3397914605254311	26.0910535228565656	35.6065779672371221
2.8282410789787367	27.7644796876140703	34.2030368504594975
40.7024479836958690	29.0332220403657786	41.1994600023001354
27.7929594908510751	27.7138760188204749	36.7074041015596464
29.0909142631098128	27.1782349288320546	34.9324417204085833
24.9021672003462129	29.0148331466439870	33.8330214338851718
21.3122660808568227	27.3992844668791058	41.9813221090439015
36.0468913902463228	24.3722460200489763	7.2918897999660741
34.2173978889558441	23.5455054785400151	7.4426352403079052
32.1302290331182689	29.1247631971030927	0.8360194434796339
37.5006537257681956	28.8295131282230876	2.7163114003054685
36.2906245234610552	30.1012780882570716	4.1930210884352670
33.1326822934200322	29.8306897896420686	4.6569621775369789
30.5495116525820336	28.1794663398523184	42.4028770073276391
9.1798793268680878	31.3799234672311123	34.9251103555360842
23.1571783656685390	29.3771907741644966	33.9653193053284426
20.9751602296458870	29.9084429925333666	33.9084379990934650
22.5239885140727907	24.1541122811776034	31.6393440927584280
21.7991535534934044	26.0127326744097154	30.7981169502607877
26.4799175050996176	30.6077895025041649	41.3153292346723973
26.6104759891047067	26.4520331000048294	38.1925393353973703
3.3028190924652820	9.3595005753437572	1.1644018052876273
17.5840977418888968	25.2410643171460656	36.3115094011213770
0.0821390693383721	8.4543338597911220	0.6736329995462971
13.5641252836723982	27.2307292298691657	30.9825642875565137
34.3290055163172383	30.2843739310328282	31.4771059466445706
36.8950334750136406	15.8938717521024930	4.9152854084733608
23.8938893658373921	21.9370949162424900	0.9364488534062869
29.1607019037334290	19.2814102048284788	36.2576920172253310
27.7691558550782744	22.7589575369917405	42.5497401235029784
27.7090295854375412	21.2912409360589194	40.7854969089191925
18.7048827426631021	4.5473800590726432	1.9717751990737438
22.6107107219898538	6.9758090797599142	41.9739950207815866
20.3991619743104131	13.0090224613707193	0.7633179972614532
31.2306408702245299	33.3448144199564780	36.1984624673116855
35.3762702997103204	29.6138204984423545	32.9858646915083611
31.0811796171409860	21.5436379003992471	4.6665117575068376
36.4212509301650869	24.4611675793718213	39.4175256518874093
33.8560839865211918	20.0989485266372689	39.4285032157752866
39.0426303693916807	20.7763765952268002	6.3243132993485531
34.2283831215008618	24.8127975891050738	38.7920883884787031
34.8133877260777140	21.0815503877638939	41.2627072130874097
36.7373235536169034	22.1327056764483565	41.9601434919571403
20.3251485235991431	9.3285121836449072	6.8922585372415703
28.3436930027584957	32.1866770934362663	32.5775335494995701
28.4164950420721567	34.3398799296337813	31.4956936917517396
29.1171262500077077	33.7842922705885798	33.0479428960083865
2.2277908093861631	39.6960458174475264	31.0198947363269859
10.8219505279464663	38.1904284242092800	33.5692733120548326
9.9730793771391557	38.2363839829508976	31.9382059337384341
22.6377425722520940	23.6856096311651960	0.0251344265089905
27.6885126707574898	22.7468561938229854	1.8508308516792082
26.8789327002927898	21.3743014226720192	3.2893234003470768
26.3335094962712368	21.5649306336111799	5.3528025216860007
26.6957808784297583	19.2963538238129360	3.1921894433583664
27.6303688928837836	22.8569566331705971	4.0751836760779634
25.3347315574108194	20.5725915540124440	2.1670099306629886
22.6195862536813692	14.1492904461546196	3.8460989962200114
39.8017737297054808	19.4044976618711473	4.8867129333779475
1.8274959705914402	37.9315851775030950	32.4600731567567991
3.8469679889346389	1.6272706521332296	34.8269335016165940
0.5847020257353176	37.8463470335008481	34.2767264699818170
4.5854940441411189	37.9993858750027087	35.9520266543883196
2.1892807181906924	36.5505209881381319	33.5863599885042632
26.5525496603485287	19.5443104986908942	39.9742354529967656
38.1152958692972987	30.9342195636609993	30.3769218738543252
40.8651740808107249	32.1893993258931488	36.2732109670432052
25.6598656683360105	24.4128244233609877	38.7425838894844219
35.0901558597048364	24.2756933844174476	5.5967142371478662
19.1187753898933153	30.4825045745351524	34.4862283712751747
12.9718870632026739	10.8539155375928758	3.5271693149912178
5.7847080778500919	27.3695222927986315	2.2376666713336530
1.5102379850649581	29.9570739707054940	2.0418812761201548
1.8383426461401702	23.1947182562583762	40.5762274775976053
6.1917200049928747	28.7665226575468793	0.4487803942853628
17.3493818206944219	38.9459884435914674	35.9175144053731543
17.6621101053439311	37.5499014922139551	34.0819459243480054
15.6870716765087241	32.5500517224305099	35.8324321733331743
18.5241536137371838	32.4090044401781867	34.0872179036282077
12.7943801390593528	29.1356543812302782	31.5502465619754311
13.6573126037126045	7.2936394085968983	4.5805983070083212
7.4871569171814905	26.5189672779201366	3.0662646021551820
7.2448484270205409	30.3797928107314981	42.1536379565850368
9.7042806329213072	26.0661972698790265	2.6546814131561991
12.7896259154830432	29.7279236934061046	5.3909563017881670
8.1512292359378993	30.6886729077478400	33.0721388189262342
6.6279806855275964	10.5149159470110369	4.0609841619475846
9.3090707837688171	26.4044936912997983	37.7012436349279554
10.3521460573608319	36.4523282052952595	32.0804308952465860
6.2491928241208132	38.3548285885337350	34.3774497546860829
12.2968441754433098	34.0201005950193576	36.2275512245253850
19.8443823309639349	31.4610444516614400	33.1275777415402999
39.2569652520172383	21.2789165427358853	4.3392850668197713
39.8459169010319556	24.5144627074208188	41.5272196221760765
36.7605269617680790	25.6949728205351242	5.9086835820891794
38.9333809240229627	22.7007106902029747	41.8404737106080944
22.0053586826931600	12.9630539348257088	5.8158734065606250
41.1371559329267527	21.9909430763527354	42.1640768112291582
41.1995824050916113	20.6657171911113906	40.5766823030878285
42.3675704059496780	20.7066151462347960	42.4740797528755820
37.6949721294647730	23.8798027865614806	41.1989345775896822
12.9485968072861226	8.9720633878009846	4.5804562707047589
38.1638874325147270	24.9771932115490287	39.4969182456091374
23.0724134212679886	30.1630363341928458	29.9234790193909355
20.6299708367849561	31.5039049738172920	34.8074358328087072
19.4684864217103168	36.3370711094828067	31.2217875865536740
18.1423549799273296	31.0078430975183537	32.6173805672206356
22.7593125010765327	38.3938261240768313	31.8387121710170504
22.4623376830858703	32.4913128719533404	35.5689203213939678
23.7060968054894872	36.1874846679860980	36.2324671189526910
25.2814075403888907	34.8273696556893881	36.9017752944540263
22.1526763876524377	31.2614488661315484	33.7942314008725759
15.9246391076553095	6.1850363834381312	23.8799128460119832
31.5847281312908805	8.2709153591900435	23.9911290656033387
30.0510758990548759	7.8012414072051239	22.3049650152734209
4.3225616854450122	37.8124990431540553	11.2724241208227607
28.7474180736649672	8.7587935478977457	20.8228638431787374
27.4195048064227649	8.1332831149478917	19.3486419402873899
4.6596688680759488	40.0048430580549237	6.6723693132482147
23.1922695687314402	11.0349593224370111	21.6456632149025552
22.0112728301125919	10.7939261974070195	23.6240292996598349
19.6809391175118762	7.0273203305050709	19.4739607791165028
18.4761098968771407	11.3675597429038024	18.0168255422741801
14.2759278707987693	10.1229484415260451	19.4445114287644358
14.1750971553589764	7.1930521653466855	25.0254728876583954
11.4328685007264426	12.1453453688498989	22.3143130993735852
36.7000308664984800	6.1642357899312206	23.0963590830965622
16.6445898757818256	10.7949662234256376	22.2446036438354753
6.1342686046394661	39.2190652091948593	10.8771719341801472
7.6344608895734440	40.9535965503053134	10.5974702324665415
15.0808179427573101	39.4251296370824065	10.1421047611194961
7.4476437781801055	7.8712035311111839	23.5363776084346341
14.2264648815117489	40.3663321849657066	11.4324967776091739
16.6212931080859079	37.8263725878880877	5.0186229493841772
5.9367261641693210	9.1544576795131398	19.0426861961780887
4.6250002427496586	9.1278637930005146	20.3193337895854498
2.9810996536301380	10.2771794877249238	21.5225176928646000
2.6756651038065353	10.6670271556576814	23.6135470821738238
2.2122643580220775	3.4863207189459207	22.7072448000634957
2.6106138623879493	11.9558462747314866	24.8918652454282459
6.1985456134138985	12.9517603265107901	19.1150541439979804
10.4110839304798279	15.7787651283374757	22.7413403101252953
10.9234631615628501	16.5346687644605410	20.7302642423103087
11.5643364837995541	14.2532085867110823	22.2990567648995111
10.0902216020488886	17.8811690740384002	22.7710910220151952
7.1016307842779547	16.9353743354135915	24.3872569074858490
37.8376958043887726	32.4925990525236443	8.0156571571139974
36.0459494727979930	32.9956216891867982	9.3786330389662531
37.7133151509113844	36.8315529383644815	12.2541092947472183
34.9514358165136159	33.5973146577140156	11.3254741569531738
2.2489617715566070	12.1130369595736802	22.5961577164299996
0.3634228181118177	17.7175595003587318	26.0149096243442948
0.7657472225947305	13.6619326814968911	23.1508574813393651
5.4141209459462258	11.0477356266164914	20.1096509081342774
2.2521794362371148	17.1207131764149842	17.4632021712092147
39.4068048475307577	12.3701145045038103	22.2497786081701854
39.4815880788752338	8.1364699419560100	22.9390259116917861
39.9846277028539063	6.7705805808574171	21.2845180058510230
41.0196693815488018	7.5624141442790016	19.2736038762750965
38.1472723590196452	7.0048839090841071	22.4400765887074307
0.8474387067395385	32.5899457765519998	9.2812261676530863
42.2475768471047957	31.4528132737259867	8.3734582157757913
40.1022576091061538	32.1091380100326589	7.7584516467162743
33.7015808004376183	11.9359009815076185	19.7572250497442354
34.0220835349719550	10.2181435345875506	18.2271668596889249
32.6626251853451137	8.5997126528609265	18.7258261632046619
3.4319116217641144	2.9564237184554227	20.8344766526715510
13.7250922051377753	4.4134541542566534	19.8385863395002318
15.5869330151948713	5.7274671604684748	19.4212039304579065
14.5568467038661229	1.0772403780091295	24.9771253834188940
17.8104221877600288	5.4604123965722211	22.7455067046116426
11.7355029108043070	42.1985227561378125	20.7111609923409610
6.8816580036228991	4.2239515448779708	21.5365686972639914
5.6829690663461214	2.4110283146118059	21.3070189267512582
11.8565619297811686	3.0680277151905337	19.6450032028089474
32.7017684201610237	41.0727492445571158	9.3353807303921243
34.5150912075869627	41.0949398876068130	10.6801231916871178
31.1045667369432834	36.6786738915970432	6.5100593996252574
5.7398860294775025	0.2897670080837094	20.3638710131048626
4.6127980970124582	1.9095765849190374	19.9228480296435109
15.9658686811715693	2.8922908725693417	25.1052700529144666
36.5586599233386877	36.6869236045312093	10.8818233595331204
0.7177446985055876	37.4359111930431254	8.6280008381000268
38.7624902864719374	36.9726728429467215	10.4185008560967614
41.9315252294217871	37.7207483427296424	8.8446522812409434
41.3606330985581607	39.9554318672623978	9.1757495157766567
40.2978221277613073	38.5625493983446219	9.7997076135532666
37.9000630009568695	37.5047035794725190	14.3190124205272102
40.1903240804693311	42.7397648988079482	17.1625254792675683
38.8583307839537326	41.6208394235893948	15.7092550882820827
38.6933147625401404	39.4215247279512440	15.2960280552127657
39.7298640620827399	40.6966749422814829	8.9381989378830440
42.6165769560060497	38.9191659975909090	10.0260489399934780
25.8145013436674198	1.1521659268857851	20.7125965418323759
40.2577956767630738	3.8881611001172702	23.9556502739416857
23.3103192579489047	38.4001773309224674	6.9817429252610843
32.9906521100205197	4.8204151043636960	18.9455160011387065
38.7565557610524181	5.1702597345976082	22.7778044669828716
25.1241422458567811	39.9903832375656734	9.8917508866388566
29.7258175277040912	0.1413237374167067	8.1444064582330249
30.5877809585348217	41.7214457783703025	8.8800839117035650
28.7081977850414987	6.9348927381534562	20.8141283888287667
24.7875639235564194	3.2089454747427499	20.8969999452198536
29.3415007371791212	4.8028574147915331	21.4742341082104424
32.0428879475239370	2.9328804446572856	18.0216358700583221
28.0456529472421998	1.8070121412519689	17.2196000740265802
30.3061744764249887	31.3824006887475164	9.8572609957197166
30.3545286163721570	3.5031593979771500	23.0975774317483662
29.2726687064277762	39.3083425154259345	11.6084753330551553
28.9251075863477354	38.8830663301242510	9.3906804325387991
23.3838716695983422	4.4719486262434200	19.5806054701566659
22.4833850018305377	42.9106021413707879	24.8770996473411117
20.6253267713920287	42.8880203790694239	23.5757599507014710
19.5802680725282130	5.8993317103778375	21.3746898740541624
28.4350937330093387	42.6698967783547829	9.3473787050246901
23.4610382166354974	38.3631015785708627	9.7955708031919198
26.8856760038130496	40.0479764275580195	8.8844691685701136
27.8947845743446514	38.8854438701106204	7.8944593950567148
17.6734168937932878	1.0722043867153497	17.3159563050075533
19.1101278215539132	22.8887489588443955	21.4830710301443730
36.7520793233896939	18.8831251685483394	16.9606442673828148
38.6567191962529009	21.9310090011250374	21.6444577853423965
40.7135983833817932	22.1397083055711477	20.6247076781738947
40.9040344744643818	23.8726751595108873	26.5825307703103704
33.5727726045035055	23.7286106128196401	22.7863023456294265
34.0089692005295632	25.0069624681388554	21.0855591051981293
37.1107514075299179	22.6802875733521603	23.1044599731014948
31.4685403538504005	20.6503830964643740	19.6381369882094781
35.1402890067619964	17.7698657908470672	26.5084464376865903
38.2283523195905488	26.9666229334839720	6.4465413384688457
38.9409188454005388	27.5254733861646521	10.7405162047256546
20.6772893614255686	21.9517566134496072	21.6412497552789205
21.3921710473242719	23.4396856189488645	20.9174113980193077
38.6485287281212990	21.9905397630197221	23.7922748820076251
22.2498824443118686	25.4346183041205549	20.0846553623095794
19.8790967389156670	18.8774722624153313	20.2899213713814497
25.6601852643747925	24.2977553714478987	19.9877711312194322
24.5269304471384615	22.4454757222518175	23.7307496090605312
6.4826068228598803	34.4543975308095298	9.3355154871799151
2.1539545924253742	30.8345571847307127	6.8818713114157894
14.8530367877465821	24.8956692258949275	24.1298430700396800
14.2473718008650163	19.5934173592244569	18.1440526670938809
16.0529448099167986	23.7372034774094409	25.5678001075914096
18.9372681668821414	20.7763027275528032	21.1275125107601163
2.8220642774538658	36.0751083810329050	11.0162469988013694
8.4608884514723339	19.5234286472211274	19.6803439380817160
29.8370288783764970	29.8222437965760641	10.6866771638866709
28.4580204869951352	26.6444859748252547	19.2223291003333046
23.2886925661245776	27.9234818073103774	12.2597925525035887
20.8819111057292588	25.6580491195609142	9.5183655027984315
22.8445217074476865	27.6265974655741324	20.4949815815844758
26.9804146253303863	26.9422290478738944	17.7830765596756528
22.4125271917802031	29.5710263180254991	21.6471466067341467
21.1034281808483932	30.7849963410891121	22.4960671429199692
20.3579461304032669	29.1281038848189660	22.5343135369949863
23.9054947731723004	24.3744864168888036	24.4507160332339879
13.0557237075849848	28.6618775845837774	20.2764032733950472
17.3856996410432885	28.5530985486294711	19.2550192831910749
27.4064361024286498	27.9426450895758336	10.2417514153265667
28.2820930646639930	28.7029235852692715	11.9382572071764912
9.2480427190635215	22.1702039840104561	23.2986076127644530
26.6480491471501502	27.8056562730715271	6.5903504988186343
26.9088038170036121	24.8746147521472416	8.6495178278199756
6.6082760096249205	30.3811015125248289	23.7746264377400003
8.8472380100270662	23.9752051645678215	24.4937563248065331
4.5915739174353751	29.5709434590607430	23.4738160915499492
2.1709369064811352	25.8641721129809845	22.6165776693408560
3.8568285135995652	27.4814257658636869	23.8174592273400982
1.7098817848589372	31.3256831693491300	21.8806094305294039
5.6235988167578537	28.5927789133933850	24.5974255282757213
30.8852735198003288	29.7114632939473182	8.6788845387662246
32.0850372730607418	29.5011366392723957	6.7022226053364511
38.1513355986626834	27.0907464697005622	8.6293515030562116
21.4651662481165886	17.2854299291564750	19.6673002943563660
33.9549966857708512	13.8875619089127706	20.9325211752956193
36.6804950648680546	13.8920335625744418	19.7116913968775656
17.5601016146302769	30.1029747746783656	7.9082861176493973
19.7256475333038743	33.8444288526849633	13.4899538500176313
21.9143404685895717	36.6542132448050992	6.5265390563073202
22.1504202430374981	37.2231826213160559	8.2448551186588936
23.1641846815116068	33.8225853817692865	7.5123247411389693
28.9407022547559727	13.3559654845523372	20.1943485385801935
28.5186916194475089	16.3377370784122640	17.9773481524183794
27.7591347762570706	16.4324149184644241	22.0680275536494577
28.6428146883830657	15.5696335709972491	20.0296246533544924
28.5053005782338289	14.8315726637068686	21.6925978308284435
28.8379435313485502	11.0579902304453750	20.4748213130664460
33.7368150335891528	15.5406427746801921	22.5431320852310719
21.9748118433651776	16.5129231254759681	21.5984942655937111
22.7790620837593600	16.0231086329696950	19.5416638107039731
24.0477968100279931	14.1099935517685431	19.3531567315204782
21.7708795339533872	17.3554390215748704	23.6982506313660224
27.0141724130544354	34.6807911644233471	8.7931855630265581
26.7679227886874429	33.6169723540855472	10.8001942057134297
28.8643496545917984	32.9536549617740135	6.6644208647515599
30.0133337613033717	33.2082074718840161	8.4836506640581888
13.9201129277000764	16.3886196279720053	19.9667448125677147
15.4202406244634602	12.5717651017651839	21.3905827503464749
13.6345782685182613	13.7042573641515357	21.3795031202458432
15.2175404095705371	14.5537205129450484	20.5558931195000270
3.8586896148020342	20.3845174658777175	22.4258130883248867
8.1692356024993593	21.6283853480242421	19.6394508740097429
9.2949149606580050	18.7071172654678826	21.3783841672261339
10.4925298071659920	18.5978460354353778	19.8161975933102177
10.6128264468048936	23.5293229453994321	24.3356986814838550
10.1628317044767993	20.1238371812161994	22.6893335231092266
1.4489026270116419	24.0113691068884627	21.3741936500864007
3.3762890691352454	22.9360634328328352	21.8133255557844983
6.4789356201909980	22.9482278779756896	19.1358860233157628
5.5783290040789755	22.8404272270306272	22.5854616261725347
4.3294965119680926	20.1438650669671979	20.1227110094468209
2.1355912765849081	22.7853713619843958	20.1916168900102733
5.5194965813736987	24.4698206795320736	19.1008042183397997
42.8315012605236092	41.1648329720241861	9.9969795116379281
6.9715911683087208	30.0109084717903265	11.0865370851183691
6.8066138298158112	33.0178328382228230	7.5588222425423686
12.0305751503284259	36.4788466632880741	12.3074160198319369
13.7356891485163057	29.8259362094311591	11.9567002162975928
15.0972471008463742	36.7410446099183758	6.2098864370718392
38.1279264661096633	13.5190884063858388	22.8274939226323994
37.2579946323046798	15.2994256413663852	17.8773379943688369
36.9859497059070961	13.4564065882056347	24.7241739126476894
18.3812026720792083	32.0216560658787373	13.2260777375223721
18.7434344691351598	35.4904327694160315	12.8461694398328490
21.4588569928002002	35.1314725057073503	7.8589019790011170
29.7623888230520635	17.1463497648953442	19.0307431820391493
32.9415984133426107	17.8455624808960813	13.5346637681004385
41.4689681129173735	32.6575341413601947	16.1211702784103394
1.5759827550610852	25.7234385941478934	15.8019444197609644
4.9356129308228498	28.5330186224081395	14.0254072459237822
3.3926462898368195	30.1391700542738725	14.5460764343389215
3.2942337774119670	26.5478109334184147	16.6264777720489363
21.2258923712265677	7.5678108723779385	13.5129898744006240
21.3999426102936887	9.5005597984846499	11.9456855140741425
21.3852019370289810	10.9576542114090696	10.0804600342765340
39.5548315961109935	17.8336183262849737	15.1181296400002587
37.4960077309249442	21.0678866412742636	17.1981203076833111
38.2331283046658044	23.1864092037061162	16.6464451523075354
38.0615620649074771	17.1726357979206483	16.6506565052497457
21.3990358760996031	6.2364839662316038	15.6454402354291684
0.2670364963119270	25.8389230872082045	10.3321393356160822
29.8812551680181322	19.1069604530031256	15.1622624666217209
30.0899192999726921	22.0208527858403826	18.3665978897647442
26.1306443676333870	23.3718197269356658	17.9545906924009380
28.1848857449232781	22.7657844536788723	17.3116419099829351
17.5246523017578006	6.9034484901838411	18.9203579533933706
19.7264372458460429	20.8291418297461099	11.7495015129995419
22.6156139548890138	15.9496122333134736	12.9703640027255318
20.7106539495267867	22.1279564420666155	13.3732439367161380
26.3461638415411734	9.4856146677256525	17.8175775872327442
17.0579279005801894	17.8095926118298848	14.9121215382109966
14.3873209438531333	21.6132010662397569	17.0963118487796173
14.3442337025319802	22.1375981395152266	14.9123534726122280
13.3060233613107375	25.4279933362158630	11.8876595064288662
21.9314984977636662	23.9884931687704892	13.0434142657700836
23.2490828194285442	31.3673765192310832	14.4254231528606880
19.4900092440777470	26.7521549728318675	10.9698890474192705
21.0481610450200058	28.3963513389047115	12.8876971517426320
18.3131023977044798	26.6887806423281688	18.5112826332021783
18.9253949318188042	27.8063993932399214	12.5727740809002420
13.0545072776386828	7.9321445219528934	14.7697724098641192
13.5748272566671790	30.1808463580727313	16.6329284249759759
17.9730189237461886	27.9062903090006351	17.2163131188015335
13.6726001496991838	29.9423204266480809	14.3010860989424948
14.0244773026628149	27.0888021875553093	12.0166572582159503
16.4015709346778067	11.6039320998466913	13.1607773193849500
14.2995672648216843	6.5652966528853751	13.4370342712982449
28.6013205932681913	11.5943716466682005	11.1784693894380798
8.4438165205604108	29.1504242182248241	12.6061281719186908
7.1538290380686327	28.0655570348230050	14.0160219715695007
7.1449955856551020	31.3188623577970446	19.9226662185137613
7.1686067690058373	24.5674724534704296	17.6494919671207242
7.8286799736878887	25.0722338360531118	15.4745135629275570
13.1165860342432445	27.5362166240618116	18.8788188337951688
7.6856369872224546	31.4812857890180489	13.9560527479274636
11.5624299515940816	24.7271482562054778	11.0239888693815882
12.1525279547480523	10.0061212811608886	14.7655952064267932
16.4508145293789845	10.4508867294986310	18.7137202506673859
6.5324939633712091	24.1902802503019743	11.7409151841640949
41.3548004354402536	29.0181769218735681	14.2647796018410222
19.8956141078806290	12.5643344566364821	16.6310040947421243
36.3592308472295898	16.7289037479892144	17.2112436014654371
36.4652986549745393	13.3025178440306870	14.2444444775329853
33.8501037681080490	18.2025781859013271	11.6026548613713576
25.6982662737295016	11.0877890137937580	16.2799243774152380
29.2116623282381163	18.0438254483854656	17.0263923500800196
27.5530312558978352	16.1167142189008672	15.9057096319013311
28.7370623185443641	16.6784266293352879	14.1186380163865639
40.9870231290087830	9.2866656099863256	17.7130528798564058
42.5229444427864749	7.2845333977546938	14.9522772268712938
38.5006438542519334	8.8951952054644678	15.5187317927226740
20.7896042381872128	15.9505294907179671	14.3300877225741150
24.1509554272979621	11.9190238963633988	19.7947133647254212
18.9182442450095394	16.9289373896075119	13.8163682603433067
35.6568247438071921	15.0199358486554075	18.7268677629335905
20.7015443653404958	16.4177196667586607	12.5576237919063285
25.6579858232759328	11.9851212166537060	14.1562946658913642
41.6964970185935186	9.2355413402342244	15.6612105018450816
38.4507624575531253	10.1459751862171981	13.8851200928204914
38.2062290139589820	12.2001037478882477	14.1172796999218857
12.1565083251723109	17.8696521165443372	19.6567330400546858
12.6839128697540406	17.6627963446617819	13.3839968906703142
6.0598467776978939	14.6086047720017120	17.5098546248363682
4.3712995190634878	15.9763852462308051	17.2438023290814648
5.9805191224882108	16.6657032240102261	16.7257786781748017
10.6843302737040968	16.9254995918109934	14.2816744797477053
2.9141195752925695	14.2202587061927677	11.7029199533253809
2.9546093515497369	19.0376352545240053	18.5680572943315525
35.6677112626229942	10.1099784852573649	16.6689710489043534
37.0084714981312288	11.2680246515797347	15.1431508627597005
11.3737531432523156	22.5101049346974023	15.8036051577882102
8.9034239546352154	21.4890896377479557	11.6193089119851489
12.4359011539889543	23.3105523995332859	11.7652198136736619
10.2163864519587282	23.1719211355074926	11.1143285033052646
8.0179451536567576	24.7518408317877991	13.1601530988098663
35.6881121340628482	7.3355412308247905	17.1893587876279348
6.7710150532595881	17.9061661981419959	12.4331525253407555
3.9744667001390099	17.7349702880201860	17.3479492849570001
4.3902799930691634	22.6006055516583153	19.6383811307136256
42.9015000761444583	22.8607091364449673	20.3094600087032759
12.5346790197742823	10.7297545602337312	20.8430291536995007
6.5297382596161819	20.8502184468958021	19.7119252597868844
2.6744178953769326	24.7203526016262565	17.2084278893793581
4.6884764871347793	23.1480371570831736	10.7987889026254571
41.8595196785008881	17.4299769742902519	15.0055267233396048
40.7674969006192143	17.2097639911427081	16.4429365599621136
0.0280339913016508	16.8904561294977107	16.7396380969992400
41.6935121935240076	14.3689376879178301	12.5547742611805742
37.8925239397488625	7.2289985619170025	16.9557520610970336
34.3168039953913109	6.6306089786975342	18.6014705468167740
35.3007848156861357	8.1811335855544822	15.3267350719562536
34.4303620155098571	8.6144692054699110	17.4273434156419817
30.8109657783521413	17.7277585550871493	13.9512931957060218
20.2105068893389230	4.2983769795344173	15.6662515579536077
7.4819364405577247	2.3534991378299290	14.9120649553496172
11.1417180858660565	1.5510635201365943	14.0465163695034789
15.7376964159564601	4.7672418977101607	16.2181075562778787
10.8333512611664009	39.9578919394012573	18.7923288732625799
12.6185430018381251	41.1858368475513430	18.9218747534724905
12.6265063617886835	38.6920990211345739	12.7264955244758564
7.2999017548576486	41.0894889369550782	16.5131530363862424
8.9662439785204722	40.7107217191463562	18.0048775084557597
5.3483903518891420	41.7693923089932113	17.4488798842435706
8.1469823090554332	0.2178994812750739	10.6952760984913553
3.1166881935424922	41.8961194607374452	17.7388253087803029
17.1926662597876714	3.0353762777153941	16.7397693255650921
13.9866139230474094	42.3984335651661510	12.4001593480340784
9.6675316300518279	2.4848579768414925	14.4669978139721565
20.5518895403555284	5.8957682871330173	13.9552917562971697
36.2091833279251603	36.6457556793668928	13.2677509395613651
0.4562513922411080	35.0615291530197197	14.7327094388199171
41.3755464577612884	31.8971646462081004	17.7602787764726671
40.4688157088848470	32.3223402342950052	14.2300989237854036
21.4272874404031484	41.0638634476526647	13.5487949148029330
20.4937942881167139	0.8477308422164731	17.4728620922068565
20.1551890797157292	42.1474441596500853	18.1029776025879769
22.5839522708751801	42.2610275655784591	14.9803916413964693
20.7636637841219631	2.9538825567936899	17.0686973464712324
22.0602179377508314	4.8122271859216035	17.6106952262733536
19.1341153135221802	2.3820944748856334	16.5272333383972274
0.0855510674944148	4.4443731714658252	14.4524809543360355
34.2482937415964699	36.4893887517676347	14.3390606251138824
31.1527609641902536	0.8164731435069050	18.3589024433749088
29.9672742080185941	36.2480284092993017	16.2535589201545712
37.3249808656351476	41.0761572991401849	14.9245761492364668
32.5638955440494371	42.7267678103397941	19.8434715528123107
30.5280176577080518	37.9690197981372819	17.7028012060710829
27.4121199155051301	36.9617888430564321	14.2973629658469310
30.7531278517981299	42.9637926266819434	16.4926948100520612
24.9498818268155098	37.2590716839983784	20.4312675734633054
29.3206225990543388	41.7195465760419495	15.5329832488313713
23.2702949135618127	42.2923743948515281	13.3003494344000117
25.1179478416907642	37.0566951195278946	13.8813986765658104
29.1818960678544137	40.2985192537230077	13.7041202391776160
35.3526578611623066	35.4077211368557556	15.0062740720805348
1.0100642197225707	1.0484947241304921	13.2544388730559657
5.4746631130482228	1.4095890427865463	15.6249064508524551
23.9796454887555015	42.4208614231049452	18.4960696294304192
22.8630821342135597	36.5022505256465806	13.6288482116379157
19.6446405095200411	39.6023809341209017	13.7187452814023132
3.6882818993471091	0.7719788476292346	16.9618384318501008
2.8274856357305946	2.0236354352705050	18.8202625057825408
2.0806246708828788	0.7194889972730515	17.8131429088675972
0.0873089738937492	5.5796277294623478	16.0577569220047636
16.4027594597576183	42.2414018560169566	17.9968847424401055
13.2414455571439760	40.9080480824386328	13.0999573911593394
17.5018832171967347	38.8037522537417061	13.4857383654067871
40.3589953802688299	27.9295192190871262	12.5232885975935950
33.5444766267543457	1.6122380316597675	13.8072371531633475
33.8983616710453148	2.5783987876063148	15.3185450958869982
30.8080741724482152	3.3203007464502781	16.4210833738587141
6.9457307926447847	34.8256210107934336	11.5162954342501020
3.8062375008330891	34.0880524755142815	15.9899566445460604
1.9388601832946881	35.7039233151569775	18.3167723699369098
1.2483077315655504	35.8038644119969476	16.1565229961799197
4.7691771441145336	32.9590404541224373	17.0452952709861947
3.1945505621483119	31.9722738961050368	15.9281795171988581
41.4875372721848521	1.2855609255287963	18.2884943578570827
0.6099631445710733	1.8907899587201868	18.8916851568512918
41.4393825377314613	30.9079781349181637	15.6047832426665991
38.1881877628042545	25.4025960553759909	15.9975204040132795
7.5369438461900069	35.6650856254819857	15.1149222605287914
40.9665411975845615	5.9054699095738412	20.0307541187042553
42.4694234696385067	2.8150448337622902	12.9854323083672902
32.7841691004501925	26.9651973900812330	14.8563307571758951
31.2176499685577866	27.2223625953559747	16.5480841682726059
5.9303119644053277	7.3832546238859500	19.3240635919477128
6.6464720856585862	8.6405535827767590	15.4107221876908191
42.1283521284159335	6.2611761273166806	18.0626306957889540
29.2260814171582162	26.9508147048816404	17.5944917985385842
30.6840087744781123	27.2526016133796176	18.6321417090610382
26.4792420619770255	28.8850811762577173	12.1563568405232711
11.2150122583910523	11.5146583346656879	13.2958466264824153
6.6041594412569848	8.7330987736793269	13.1041354910747430
35.6217692111067805	2.2815464707977391	14.7863510034791297
34.3276478331319268	34.4967035193557123	13.3659059038455066
29.8608617509256611	31.5883595267806712	11.9841162555503846
29.2086385262447266	42.9938743485860542	17.4267402707168912
25.6970246401347033	32.1034601613279023	12.2015454441711331
29.6737608906696053	34.5360833254107717	17.6146790413897918
29.5780200642574940	34.7297294965760841	15.3577878720878935
29.1131702982357901	33.7298091553858868	19.7540767366437855
27.2013532832331038	28.9677863525987966	14.0011342685480127
29.7897990165894306	32.9656610956799625	13.8590346613287707
22.3801911501865156	33.0076954106412899	15.8915068141631135
21.3908037761881502	34.3230655264634166	17.6194165925242388
32.1055196476699791	1.3804552115407933	15.4323223832573770
29.1821752560985814	27.7185004992409674	22.1978141280316592
20.9584429466156834	35.1974784019275901	13.5567432021395007
13.9516421229990861	31.5075575368078837	18.2680084252889046
15.5464536985401125	33.0070091944920563	17.4961853483939400
17.6848423699629578	33.6632637882110686	12.8722489706285526
16.9350323508506690	33.9438318010141344	15.9266230810883229
15.5386146750425578	38.9661745958807302	12.3320084336148685
37.5175915960686055	2.8411534614227194	15.7700485228055403
35.7736036822512773	3.5857675002019578	16.2798732086963120
8.3108194684197425	34.8396061972977691	13.2576941112987150
9.1316883944037137	32.9138843540499906	14.1558871150394374
5.9306844884058449	34.6492173022285996	16.4095342814540999
7.5079925488692654	33.2437638666422615	12.9112923890453768
24.1481858929414912	22.6727356138795244	25.6421543729724881
25.8420669129485674	23.6561658193216111	30.1781089634889348
25.0151088544368854	22.4361366454552744	29.0845317821313394
28.9575511543295718	24.4694664380707785	28.8531988935696901
27.0685907727491397	23.3034432508227241	28.5738058136888924
27.7261611866338882	24.5218683609257440	30.2074539180334583
26.0724001871391557	22.0484733818055609	25.1211628822752999
37.1054972461589685	8.5388823332988242	14.0782976381213221
36.0004857663147888	9.9702486365923910	8.3069136712767371
41.2997648946017364	9.9253775051258710	10.3787359299374184
38.4232201832469613	5.0973168387570187	10.7928267401002724
40.9761161728020227	11.9990568780154074	9.5465046247514422
19.0559522897996025	16.4336939307120424	30.7456776127419715
22.5326871737943044	21.3731351100387990	25.6793387148600054
28.2785212202921876	22.6372570459820537	25.2924904057049496
23.5968163265559490	22.8925704166013695	30.1494197844700160
22.8670659684851820	22.4889459590371992	28.3689112324326942
21.8228463947910107	19.3185564881676228	24.8901676965383238
23.1387028252790010	24.4632092271799024	28.3734566197847222
14.6100739754192972	23.5466091983131349	30.5384852401972360
13.2261677973679888	21.3382998385296609	27.9159600497904847
16.2250025247492076	24.0165121122748495	27.3681099176017071
12.5323670720795590	18.8496540528055867	29.7155446604826956
13.3534677355965687	20.7053465020373615	29.6265093741716043
14.3820854582554176	18.4188695360674188	26.5856803697305999
13.8396397120817323	20.4973710307622561	26.0876066025817295
17.9471585333698087	23.1347817702983178	26.7133243704419208
42.8805207395178201	27.5461194566203993	30.1756031427391527
13.2642946234006729	24.5458719311902449	29.4546265161683003
25.9307037228927726	11.5348882073476080	11.9138106136788959
27.0173303736772787	11.5227586612450690	9.9457413127550431
30.4847214776489075	11.4457156579918280	10.0648454277136494
24.0615579100163011	8.9054100905367317	11.1540677095075260
9.5610626655373459	24.9545891517248180	25.8767259450513549
7.8007205381044225	25.2356416819499003	26.2074635496315373
9.3632341520461555	25.3592980526403764	27.8683056185133680
36.9303108462791343	6.0896017539097000	9.8113028274997287
31.9364239437124233	11.6714077254491375	8.2831911772977591
34.1162195047272192	11.1541722842621329	7.7689508655792059
3.0889581907881944	25.8063488141632007	24.7213950813267402
6.0103678999702206	29.3908504601532705	26.3993681395154738
15.8436689882967148	24.6701743834845644	29.2474632886508239
2.4139373665396060	25.3563295514329035	26.3471764958790615
40.5603909498503086	19.1122486813089765	30.0091342608878939
37.7640612181761171	22.9628558637802698	25.2741948177360776
40.6590099822748314	22.4261960350417553	28.3262619797983888
37.0909835913740551	8.2792756315942775	9.3872603002421506
34.1754892510255317	20.7386850180421156	26.9172027969670467
32.9299733359305264	23.6383841188618362	24.9675447812578213
36.1854823975881672	21.7925982483703500	26.4715778716754961
42.0403435255162350	9.9399491683785737	12.0158645900209820
39.9680418554434240	10.2017708930204005	12.1750590647014914
38.9930440166733661	12.3417520814192585	8.9713721813197314
42.2214435011424243	12.0898153982271825	12.6751863985408608
17.2867004622669320	12.6624793128015742	25.0192804898796943
30.5600829761794124	13.8534831089357002	26.9963563702690195
34.6000177505806477	14.2740680517540124	27.4641295544977631
6.9693863633459197	12.9553218599442612	7.9767528082053714
17.3410052712732572	16.6342343976131062	5.6139936425069834
16.5152680077814864	17.6628113736600092	7.4155548532828233
16.5189949017786617	11.6101219320212650	8.6809602111831374
13.9357240869740728	19.4290048507975435	12.6429707157107920
15.0086950684376372	18.8650203611778302	7.5534530217715803
17.0758041653042838	15.9252075428239674	7.2829600710523792
28.8109928498844319	13.4064387479654457	27.1955778053367183
25.8330353375824799	17.5941465863393276	30.2761891563479928
27.6386159708985915	18.2870202848841359	29.1614230803021819
18.9052482398372419	13.2628213051451045	26.4062418462675872
33.3226480186272340	18.8839652446888522	26.1514361069631072
22.2367331828365984	16.1373071533293597	11.0365425237821828
13.6773860517621024	17.4583147710553810	28.4700392496321335
17.0876574473596037	15.7581318855766064	30.6539859251463689
28.5050312304859084	13.0722309915603425	9.7572036821980017
10.5314115347664430	18.8349511426425700	30.8029227437039204
8.5895974016041379	16.8655435869261190	22.7192345285225556
7.4339493510608969	17.2764036212775238	26.5860936911916426
9.4071468589189227	16.9448901483597538	27.7046306290539164
10.3784859494178168	13.6613238884034409	23.5769815027403560
11.6744777672653868	16.5479280603994674	27.9574702193421061
11.6594763538982935	13.4575172801376564	30.6156789582372468
28.4761568683834163	16.3641531895725407	5.6832859829814639
3.3701496578827110	21.4314698541214241	24.4134744523228662
14.0166812137697363	19.2525002564125565	28.4347708195203417
5.2796919613180231	16.1405610642073505	5.8800340220467735
2.8627530857038752	13.0440288200683643	9.9964284970191208
4.5788846744657770	14.5290148945909987	5.4209032994735429
4.5572987515077745	13.6721626422008047	10.1829958755632877
12.7450761149580618	22.8093693297909645	29.4460443931208147
11.2844456298117226	24.2854293373902053	28.6049238305920923
3.2185735034330802	13.9786612889057569	6.6382249223607168
5.4677971988993619	14.2486973443727543	7.1488422311324538
4.0041148218572822	13.2672848070341640	8.1353033855035886
0.8189582236486156	14.7624030431965760	12.5471511125335820
3.0383782864122164	23.5688099881522426	25.2192830863746806
14.5681818862670518	24.9938774696740005	26.1019272525805626
3.6304971494227893	21.2255639065836128	30.6100800846686774
5.1366204691634527	19.4895667762874254	30.8049259038407364
1.9141016179647279	20.1170326351727411	30.0441607323052686
42.0505580554386356	14.1120243281555542	24.5824570529610789
39.5211434470408420	17.3464087972193504	29.2840635961187843
42.0783914217053123	18.2948312260110910	24.1887024511107498
0.0611961526465311	15.1534381331415826	29.4502654870295544
14.9893434632862963	16.6265277261935616	7.9188383105954214
7.6005005390410796	16.8865100809794697	8.3586864493815352
8.5813592324706889	12.6296000396990831	9.6479282023675399
36.2144945982211155	14.2310745094281454	26.6078455525796933
35.6000901275193371	16.0724096489278132	27.7683867379032208
34.1647456853556548	0.1726676580734088	8.1128360070433132
37.9373982610885321	32.5895047333655015	29.0510365522909915
37.3763167789004029	36.2904401810039303	30.8346430172517785
34.0262861120353222	31.8951521657605888	25.0488802416227543
33.7308630573467525	30.4613172186521020	26.1320325978327119
35.8130340782848648	32.7578480446778286	28.1794461793217899
35.6658380336472547	32.9405666857619295	24.1029934957158289
32.1360305137422628	31.3049235040920664	26.0660725031888276
31.7811198465280036	5.7613613146806335	5.3139965956418447
31.9752658564078729	42.4512939828264280	7.9396532459521048
32.3279228243830516	1.8131063175220463	11.8917744669101104
31.0042301180461983	2.6367819581740024	10.2354731476248695
25.6281770874422605	32.5757989707114177	26.8812302485393637
27.0688714147071039	32.9677277576087562	25.0778080567511950
34.0473928101619379	31.9153587658956290	27.1936344261372902
37.3636157959274726	2.5678590741098319	11.7695827474844545
35.5414804429597524	42.7200051414034405	9.7659609270604300
20.8914336342168347	36.3799935842890321	26.5591850337308593
21.1070792960213609	35.1948464686199927	24.5870904767935308
18.0494703180156222	35.6933242300163016	29.3966697342714269
24.2417072855552895	31.5527484800528910	28.4590509984146109
19.2888793114632691	37.0389555453385029	29.5730676718852017
36.5884872869214561	6.0379250919654632	7.6205593338216842
34.1136318264266549	4.0281381029800460	11.1308275817688607
15.3205515630670952	34.0585874444856387	26.0272984175503659
14.0226509727301618	33.2810370794356061	24.2473921874425002
16.5231408726309077	35.2757112942932238	27.5335715843569879
2.6632679077699795	36.1618940230821337	31.4776314135202036
12.6794897304017251	42.7856129229562683	24.7112794840208920
17.5585544483371265	36.7163269568621189	27.9740489346259622
17.5512427902544914	39.9856043867796345	27.1011366903291169
13.5065160777240987	38.9913420636533772	25.5831624131279618
22.8529036146894526	2.9591928950052124	10.1933313052773578
20.2155838024942760	42.5564131471474028	10.0606851065869876
20.9830641876125448	1.6456282710401100	10.4686819145919046
19.4168482485168425	5.8633645807993924	6.0724947594314349
6.8529516482030663	40.2644141311797554	26.7244162445298130
11.2496117167608354	38.9998113202824257	26.1434154375804404
9.4449322270010292	36.4027340449343342	30.5039943829143816
8.9937028065363851	39.3913706119267317	26.5003481245707526
9.2726054694606628	42.3822437896782276	30.1850777159510066
9.1210356153899426	34.7461062787610260	31.2136379726434576
0.1883557632511497	39.3083590144190893	24.2701524238019317
26.4774176229533715	41.7704060429888600	10.0668244221974401
29.7926328272148417	4.0770010274354007	14.6361480736560701
41.6376068383801154	34.5115755897274497	30.6310617472144493
35.5203363701288026	32.0794712010960836	26.1249956793705707
39.4320358126753518	35.2121381487075382	30.7724387318312722
39.8235504356356032	33.1445701035397136	27.7235882707844965
39.6440324978044814	31.9326029780131222	29.0528038622833229
29.8264753167016501	3.1089367979933318	8.2952420779321443
27.1090245045651272	2.6677622996605992	5.5753350537757980
27.2752976822954807	0.0344685842144969	11.1355223419996978
30.2920304210171878	4.4023505650305923	6.4346827344919388
30.9145201099812077	29.5788306647386747	26.9966698160902787
33.3489872626516259	29.6696186327453511	29.5448412759814900
33.6269653931494119	24.8357653254618427	26.7949891936232447
32.3761429208031117	30.6453278681457704	27.7886985498992267
32.2551717790200883	28.6667445321088259	28.4717784148271740
12.3110826661769224	8.6275133672221216	9.5095823025534152
11.4130462838244195	7.0588454923573964	8.0350521342333447
18.2451279997151232	6.4508270034926456	11.1991330461238352
16.0633081993852436	6.3199330375838736	11.9748538388306347
16.3499326354970123	11.0775817931264395	10.9099241226633286
26.9526068493565027	24.7723791899177108	31.8363648348585180
29.4699961265135677	23.9552317771176355	26.7010203971159861
24.0897456432465411	28.2123964321344971	28.4455111649936434
29.1970795361804214	25.1197979207142410	31.1402668453609053
34.3032347011581678	26.0753264969521652	28.6155148706669138
30.2739044812226830	27.9957714753733882	27.5973226981775461
20.9362600063519864	27.5157260905656038	28.3822444058879206
22.8823440863851850	26.6488167245063678	28.0586387601562421
22.3946130006554185	28.2271968652080290	31.0408962053678295
18.8620383191328962	26.5083970243589668	28.3690073368758746
24.3110792474434483	26.6436543887107824	24.5023065873005379
20.4008729664530115	6.6748810968039880	11.8239206230948088
20.8782154087545457	7.0882991456443625	9.9483029584662113
22.0857425441352255	7.7666528921416491	11.6851848410711785
16.7472015407924353	25.9403225344666311	28.2941971607402856
17.9143602801182027	24.5372407550672698	28.3169346873201029
14.7803108608134171	26.2510348691042701	29.4888783923175630
5.4337334455213133	34.0694869190799920	30.6328359651886721
7.5665480686468340	35.0280804184978720	30.3131754855114934
8.2390832582766489	34.1753049817858212	25.0820219485343188
39.4995047782321436	3.1664111276717724	11.3559564683120282
42.4515513442563019	42.2760117054289637	5.8581205006792310
42.2658783125654054	6.0147050719427693	6.2137762222204520
36.3866747518266038	4.3676199159160269	10.8099821810692749
1.4103479731043296	0.4150582632052047	6.3529274439322911
38.0431561003927712	3.2947294235064222	10.2597109637122994
2.1220848146579483	34.1628816362713863	27.9050528827518463
0.7148645038763263	34.3492390362047004	29.6436954183844570
4.1597611406750730	33.8759470018382842	28.7315063011031597
1.4540430753253064	33.0911996443807226	25.9447150193711344
32.0347018901076623	18.1453768629932242	7.4756299250964453
2.6640819724743943	35.0512564869563903	29.4316224283296215
5.5643787738419412	8.3067803121356807	11.1362630052504468
39.4577790511036071	24.4925071449327731	25.1695052603385072
41.9601410316191092	27.7418368593752049	25.1958839196096847
40.7373673187744316	25.8143185124667163	25.3449557940791372
0.3396489067817008	8.9650290937104593	10.5451619454059919
3.8507376903098578	9.0711583595565877	10.1614422251424550
3.7142344056797372	7.2772428488122891	10.7957007060507912
1.0607707057365787	7.7871635123282577	4.4165842039391476
1.9644095838648858	12.9001914956007795	8.2235774259142982
10.0109800600456218	12.2330945998281351	11.4433628666687657
33.7922396357695334	27.7278595139378936	29.9535477441491480
40.0474056752117207	25.2831090536387322	8.1193017101957690
11.2924563457785343	42.4542658868857714	22.9431037202478905
11.3700453944432738	38.3427795824264805	19.7748864261704327
38.8371198599453251	18.6447314846180809	6.2650865805526648
0.2953105992082597	37.9781512876534606	22.7777898809447343
4.1903292195162942	42.0166948020214335	19.1784652545420684
42.2051037235698701	41.1646571910433252	23.4069612804720784
2.4548532225631985	40.8183070241655912	19.7697520946827723
1.3001345434131579	39.2660262558900470	21.1066543055311122
37.7484062981809103	25.0028670216918805	8.4210427689530984
41.1444294059223736	20.2687081738138843	10.2719149237638288
41.6777890914636657	24.7564711048246977	9.3087100102127600
40.1578013119614923	19.5784745511047973	7.2202481882369902
38.6282515676026534	19.6022520923631660	8.1160478700901528
9.3908952063334290	39.6226499222984359	19.8503779588640938
36.9667144806453791	35.2349972887921226	21.3644694763809255
40.6556030059807370	33.5585385040948694	18.0839620689534826
42.7975631829223175	29.8850494061364564	24.7980448274942091
38.7023454189134597	34.0830980554932523	18.5442187231039668
0.4024419837024839	30.5465530603431823	22.8654975142826089
37.1097890747806503	32.1360038466599534	22.5396015439673612
39.5179357334886348	32.2121380333767036	19.0089951985648966
41.5780373930987466	22.4989837285844558	9.8647775422680777
41.7573045394291356	26.5492869034666690	8.9314651352896881
3.0252021184680284	30.2835997844280413	8.6903897728668973
4.9962332187566831	29.9983580690732730	9.8607939202123926
2.4588054991602970	25.9086285131147989	10.1582254028932741
21.8608643651053498	42.6818296897902627	17.8038574422634923
32.7090519826387833	35.6877635497908159	22.6763929474620589
33.2889220711130847	40.9828658020355405	23.0974233189689784
33.9490275986790522	42.6631755619633353	21.5540508529967667
34.6088229908085410	37.3213249775057250	16.0696249671266358
33.0397351501094292	35.7158851553134440	24.4437015083232261
25.5470585689834593	21.4120772338663095	7.4946688973001105
29.0686547332504404	25.4087355857222619	9.7760247350976073
26.4652463406741241	22.6440557840028447	9.1203451515643650
27.4559434107855260	42.5409324182467188	20.6063075921786591
25.8647084283739375	42.2106957675665413	19.8386886836896146
27.2067479898325608	39.3580316894278539	20.3157919101810975
25.0042176418681876	38.0936446319670949	22.0132226935730166
19.5763781623333450	41.4721012061597776	22.0659831712468062
35.9341521086984415	33.8741707873907245	22.5723196634573107
23.5643712476327529	36.3501169071685979	21.9557225222567283
19.3729402600669403	40.9856939602183559	19.8481596417070101
34.0498917203458689	26.2240910093666457	13.0601839114933593
34.9268203026435629	25.2664072881476756	11.1294191478765718
29.7562642784937985	23.6419980280118409	10.7040468716744908
14.6761167552104066	40.7861730039004087	18.5487363755089802
15.7658084191793026	39.3119035376389050	25.8005375679914764
33.8947086422542228	18.7505183423416568	9.4162464222982489
35.6372702684836611	24.4623512046886269	9.0567869277567503
34.7781448272771527	20.1644992288256439	8.3344905892852292
33.0646247594527907	19.7429321752316440	7.5886796501456439
7.7128721151840853	40.4991326476451192	21.1808474346000111
15.2600605146595694	26.4414484406736747	8.2138561494898639
3.2809241117908718	32.1858152810130278	20.3586390582665153
4.0619238320003817	33.1265852381350570	19.0136852955080577
0.8967548862008824	31.7725802667676192	24.1189033979098397
2.4152144441570438	34.1786964772215995	19.9429176717805419
5.2035005164339587	31.7361475371509805	18.9458813218112851
4.9462870099572127	30.6155632015715895	25.0098425122948598
17.1801419868588710	28.9235364901313403	9.7304210042505925
13.8071063834854382	29.2454587219357229	9.6879293905250314
15.6952265339736066	29.5738149453608301	8.5828535951794844
16.6346872073372865	25.1529814517250152	6.8453562691949799
37.3115328396843466	28.0542847041198478	21.2660414410491896
38.0165926930375306	30.0975572662896838	21.9660735425953071
14.2917792683250546	27.9598934845790303	8.4940308068708816
14.4320341426248113	26.7856105281078989	10.2651188939466902
17.4647569337191868	27.8493781424950022	11.4851355633384422
35.4323015685915408	26.7646840373316444	20.9328862368179820
33.4601759376642676	26.4752486415903121	20.1549333184270978
32.1863934318766454	28.2185223731732258	20.0039772614521283
24.5037066479845258	29.7416243163560736	13.1090999865365632
23.1484719348043093	26.3242774896149747	7.3396126675386348
22.5690289998663225	29.4310383188436262	12.9812540881958327
27.2490909630040008	26.7409755786375278	8.2390053824316407
22.0733142479114868	27.7972800474475221	7.2944744669115344
26.9922648615541867	25.8704560124780443	20.8060230158504353
26.4064412141934923	28.2799182086667464	16.0617554642820863
30.4092287164172248	28.2049127031100326	20.4394416682185955
6.7649142870472767	30.9437855261530217	6.5425718135638444
34.5275502545511230	34.8055578309152409	23.9335247233125372
31.1105179980714084	28.7494487852088163	22.0146702027537451
0.9399621252661632	30.5655676209698974	8.5187850300039241
3.8591318225347386	25.7834141208384260	8.3482074545815710
42.5499745978612296	28.7343798434559972	8.6250894178166391
28.1689754531967829	33.1178006537002219	23.0019321084155202
20.3472957852595826	34.0724173422210583	22.8963546723302009
19.3390071167402766	31.1705057073252796	22.1904998686868318
21.3593795909860908	32.5163395323966711	22.0384005918548098
20.0583774311434233	35.0720367939904847	19.3647696425575546
22.0533608823754399	34.6650192736296674	22.6334355105239950
9.7738435993655255	24.9241459868999300	10.0276295068745558
29.2897810495789912	38.9720075213508039	19.3411819981231439
10.8579381537571731	26.2746674185751630	9.5020148163382636
13.2967537891469050	29.9314165339579858	18.9361006053096368
13.3256019327963173	30.9996974920475132	20.4959716363452209
19.0088172479970545	34.8002435229810629	21.3853182145905230
13.3068835697554064	32.2904429760966138	22.4601438412566132
17.7619543877551074	30.1885010419828994	20.8573077015572288
12.8658413088723549	39.3996601803724005	18.7120264675850940
12.8197402449907667	29.0780444085973038	7.6285961229069024
12.0304932506946169	33.3077040447750079	23.7263963404397522
9.8717242997500669	33.8669391043228529	24.4084983791613404
7.8544285326701111	31.3195104640933799	22.0787885938154602
15.5314040348496771	28.4090236598678416	10.9343658333686413
8.3705527341935522	9.9993768677465571	23.6833549737792310
23.3120207346889110	6.5787876096550590	25.0618988541007859
18.3668669985482040	12.4024036392664581	28.3708798524639434
20.1495412816790918	9.8383589939096403	24.4128341504849296
22.1899514064660650	6.9491559143789043	26.9128969403222129
20.1295504627688935	6.6287729877652488	29.8238670290858927
40.2525771523349292	18.5380398381821010	9.2744635187290374
39.5114187424109673	15.0496840899899755	12.0612372081825079
37.9521106546211797	14.2701438749656706	8.3864300093246928
11.7651085593596072	5.6020333559071158	28.3158543877674340
16.4525240014963856	11.3066148268215780	28.2622182862781877
12.3094606849704373	7.3936913584064348	26.3650311330892961
15.8235532858894530	11.4415071063197900	26.1108652183492467
5.1982956828263704	11.6516945766300992	30.5792839556695313
18.1250226605115010	9.5010486055488812	23.4503018970613297
10.4263850986360200	6.8210934976518089	27.5780897035712655
2.9704607995111130	20.8901372929997322	7.2117885367467034
5.4246922423716946	18.3991656869542339	5.8320994241622248
3.6171341183743246	21.8317872074351911	9.2340437051074851
7.0715096869887857	17.6925526708930079	10.4731069782659620
0.6117400646712063	12.8974513064202796	29.7831600922330111
5.9973422411196449	8.2483313993069522	27.0248481865975521
1.0507041337705254	10.6841472042085091	29.9687801498488042
0.4377128191916232	5.8438254996380943	30.2386055042129271
1.4501322757014012	3.4746079892810942	24.8734062123780220
1.4770936458662505	9.8395567587420700	27.8931704165696850
41.6462800091303436	3.8052585625742741	27.7012429126311162
32.9306752266408225	7.9269112874949075	25.8507380702324561
36.3831362932731324	14.9033573300503530	6.8330024192406000
2.1414446451661702	10.0402713921007312	25.7005371440843646
35.8401617481155839	5.1751010033126850	29.7055683051842152
39.9797661706261493	13.4080847458063595	24.0663925643962671
37.2441855204721932	8.1808904190659071	23.5499744346759030
35.8386550187833564	10.1937547826658879	26.4427677038763562
38.3514619648445318	7.2256211212313275	24.6103355397930308
38.6155204022057532	12.9033760802390063	30.2004940300590086
40.2126503828419217	10.2840497574242580	22.6394524662890788
39.9496843272085584	16.2753318460135503	9.0387711927047487
40.0846420875274703	17.4395989148191894	5.6899569292863905
35.7475862773154134	12.5095819361848939	26.2812481174563679
39.1173585755439603	5.0507260858833858	24.7755721334508898
40.7858667389565568	15.8813507464417132	4.2350261726491860
39.8450800248009216	13.9427339758230886	9.1140653641660414
37.3201540745324749	14.7319002802462187	12.6241703874870268
27.5203642603167538	11.7005979705515184	26.1489808633080543
29.2090013492487337	12.3252740633173730	25.7707265532609924
27.9624603542152954	10.5317633056002364	24.8314340831067781
27.4177029555243763	11.9409212454176430	31.1246338399391043
28.8857049375575876	4.5137569434917344	27.8815645547109838
25.5567237488837478	11.4490096471864931	29.9821149373755667
39.3112902638049988	17.8837467895291375	7.8569698992621708
20.8952634894128053	5.5655980363206972	28.1232895747288190
23.8983054892882265	8.0315237507352322	25.9688921265599078
4.8879658151782897	41.0285905129577273	27.6778660101953058
13.1325630231884531	4.3229012176880035	29.5589268929084312
15.1249671252298512	4.2214431447697729	29.9859150085637509
17.4207154671169491	3.9724513365539553	30.1893088040384079
13.7634294393198324	21.6465239201860022	12.6963284466872075
18.5325127019450377	20.1641907585350637	9.8870310445774212
8.4683050349152875	8.0993980314474339	31.1080301072353684
5.9771899843529424	3.5731746624135590	23.0659238547655043
8.0668890492852565	6.3026320711920132	29.6095540683880429
9.9497930197649502	5.4269698961202160	29.2089136497164930
22.1629011188353893	24.5477912481057103	10.8827824506881576
7.2534818083400010	2.0601209399014087	32.4505132571253583
3.2997758284182912	40.8139035328175908	29.3151494647153079
6.7300162312321490	7.0110378966319242	28.1245201728998886
17.8409758925481015	3.6894874442514425	26.1067750152449989
6.0646619147717074	6.0834480532166326	26.3334084882734345
42.4886906482868554	3.4848550907804965	24.4648189061878973
6.9070270859425991	5.6935521081691558	22.8887247904251758
5.9328701083686353	4.6319532365509382	24.5272995454663274
42.9521080672256232	2.3324014573039373	28.4394585826756305
38.2284652968695511	35.9858287184707279	19.6373876621637251
39.7367471961392980	35.5749885075977588	18.7356833016358841
42.0913498777802388	37.6695692355295719	24.6205166697333766
40.7482326062474911	41.6997964081181252	21.6982095637746504
38.2590570976977631	36.4705701741292501	21.6217784212532820
28.0550760203195964	23.7875363752741045	9.5424692601075201
32.9468363686681016	41.1573644482418786	21.3331762142437213
31.8071202639445048	6.0473425771117695	26.2647842386552206
38.9416125791171837	2.3228012470021149	31.2865830182164686
40.0164028409267729	4.7493844365664701	29.0538175930874978
40.7761194734554380	41.5220490832843296	29.3649775912510940
40.9071841115207135	3.8693129761469871	25.6580100722548181
42.8657300614199741	3.3162538583295498	26.4280870293163233
42.7037062331155326	6.2161562555013825	32.1202618362444525
42.1540947838989268	0.3770759976893076	29.3674447798824261
10.9616457859451550	19.4243222419321278	6.3685233932502827
8.4893737368166189	23.6556847086108242	11.4012326482951458
7.8937486591377928	19.4058491012719152	11.4209707306753980
33.7915532648989725	42.9736724375472932	30.6760844665067118
32.7363873586264944	41.1496247566241564	31.6313179529722923
20.4735372429885061	7.1682844518230802	7.6410174286008239
32.4747910980182226	5.3421754761218905	27.9670022259191349
34.6478292545811897	0.8901965291143468	23.1209125553068482
35.2223076523638028	1.6621569478202833	31.0539215393886359
33.9106311093358812	42.3404593425492521	24.4044076958807494
33.5574585830542631	6.9056366479079427	27.2257706180511150
13.1041780820968459	19.2153305593488817	7.2067945732086551
4.7900286231861884	26.0138272506856900	6.2355764499429176
28.9274507652957844	42.9533074632185432	25.8306646203425743
19.3357892130047695	4.9998845941446195	29.6005810626594013
24.8712399155872319	1.0763835008621843	31.0248681425129078
19.9549148525066329	3.8826233186848094	27.0292375414922965
16.9552803054980501	19.4552897304564674	8.3619461453190915
