Li F
 1.0000000000000000
    43.0000000000000000    0.0000000000000000    0.0000000000000000
    0.0000000000000000    43.0000000000000000    0.0000000000000000
    0.0000000000000000    0.0000000000000000    43.0000000000000000
Li F
 500 500
Cartesian
12.1407243979318054	25.5581070187473038	22.8106071471790166
28.7075311403064894	21.0417579433230060	19.6102129750149743
29.4195849456687313	21.7543198755746090	21.7050284588608946
36.2119134119405288	22.2846648277727333	21.2086914611535207
34.8617253512772791	20.9072732742765588	22.5034139228194441
37.7523025820130798	23.7521901341657546	20.2683246672555661
39.8916198286149566	24.5143082998887785	20.3397170750947360
41.5458406066647967	20.5943941992206447	21.0696132782369574
41.3441093343078165	20.9355732250675892	23.3367812296988966
2.2789135182262918	28.1920666662939894	19.0661409689465344
0.1389269045260526	28.9579465279917549	18.7618129319367561
21.7765996511660447	22.1617814409110352	21.8816699347951662
8.8584477943245510	29.6129629181469625	27.4776326162981022
20.8694631818943535	25.2615425314703401	23.4474441181003961
20.5943930466594018	22.1122262948829373	20.1852726284078265
37.9605916029642287	25.3749150021173442	25.3117496325221474
35.7246215174494850	30.6989286253409261	23.6025816668841628
42.0041555490820855	29.8977082015910796	17.0010876708273422
0.6202538682885371	34.0958691057097241	24.4925363737520172
42.9606471792864824	34.4658977699158058	26.2600978125798967
6.2620248640618446	36.4520193779469395	22.4688840323741310
31.6916044512196358	18.9963311442503127	24.6557543484220787
29.5532876837156415	8.8107192454583014	17.4042321054220146
31.2720443767194745	11.0262945878707281	24.7898735995963904
36.7344582027624540	7.8374142992928135	21.5012912715194631
33.2762848464781769	9.0255689940287844	19.3792034803631239
4.1926548779441735	15.0521925583771061	23.2158225313137336
12.4552797016275623	14.4645918850263531	24.1746087314345530
17.7849435916978109	17.3569320474899662	26.0948022904520478
19.7249279980160495	12.6448977583066817	24.8044327412966972
21.8086898447293400	16.0187308724346451	20.9947172506583009
21.0786659064384558	13.0089106985366048	26.6277458096794177
7.9295520038539387	37.6206400578171696	18.4751546068061003
37.7294080336206079	13.3220425369258884	24.6221936026639625
40.7854847843970134	12.7968614963481162	25.3116129416038902
5.0169215026793257	22.8189644908560467	25.7884971093386000
7.5221085615152266	22.7479823822982752	21.2600551129913953
7.3828931969162257	20.7505066648739778	20.9945061097887127
9.1614951409108922	21.6788743813382219	21.0172067079508338
14.2115578355938386	18.2938083985912812	27.0927570391778723
21.3359987102117969	23.7342223581033167	21.8694618081525611
21.5588692549135779	20.5803308772284019	23.3806025840217124
37.5750423380972407	5.1873291086778357	27.7155555870575654
42.2264992165384641	1.7927726302873843	26.0853728944381444
7.3808950262186208	5.9300083202324387	31.0418352188063906
4.4948950932002081	4.8281531233386685	24.8499096836787992
18.6404902230693033	4.7725233582267119	28.8262597126286835
10.8388108750296368	6.5888162901160392	33.3014412879339616
15.2455584803212769	3.0265276660675062	26.3181327085179646
20.5282793349555099	2.3224695700216840	28.8724055038482383
27.6834627190291798	2.3757530907076743	23.5149512501691405
31.0414690699072082	4.7668610777807814	26.8471583158213356
30.0829156389368926	3.9094408444169222	28.3959755334138713
41.8153687889180148	42.5897055480441296	26.5401692327927705
38.7244096585418021	3.2429357662538503	27.8228166375067225
37.1864376311678839	6.4195598951342934	25.8649635997315634
3.6908395579582156	7.1634882761814760	29.0897300239908603
8.9345543752968180	8.1245315422897058	26.2550817223892423
29.8096438635202823	5.8402441426610219	27.9905852154086361
30.1469400944977899	12.0777241651677212	26.5330450859774878
38.6418815947640510	12.0541946990054409	25.7172250704150898
41.3857045699477126	15.5288580134828766	28.3313755826039539
7.3527862434196836	15.8922043963696602	31.2943303544828098
37.5479415118261670	35.9952998091792367	20.2581943287750406
7.1034666571415022	36.4865930663184486	24.6003303604804628
13.4808488942722811	34.3521286180307257	21.2721979173671976
18.0683788677867767	30.9022517878291865	20.6784391915434043
23.1701455478984748	31.5689609244079250	23.3155995835227579
21.0973466655586073	32.7203779968847854	20.8124659943245902
24.3620210612376908	31.6997449160947191	21.7966308719962107
25.1929158184224491	31.3668627532075881	23.5805098181758090
35.1477156100713799	29.9564757629097222	21.4941871161422640
36.7992148575716129	31.4739815281686148	25.4817050957035782
41.7127143725276213	34.9400789920126371	24.6663838017918522
11.0257603449051178	8.4619492529271447	19.9462826017935200
4.8087984972301916	0.3683322471684371	23.8922033504160929
5.6270447614789321	41.2962354786361061	24.5381893512885263
10.8062116909235506	38.1941812068981505	16.2176111240304657
6.5499193595771104	37.0649389955616044	20.2677167915363832
20.0109510096963099	40.6056452191419055	19.0571359244391303
19.6766994008039937	40.8329276247047872	21.3316647258924590
32.5127400396121971	38.0365058466333323	22.7210990854419421
38.3422877246999718	35.9686580820860797	21.6039768412625115
37.4236619364529872	42.8512089069847093	21.5140221013920900
7.1828440594830241	31.8743865582723274	15.4723736806721295
11.5689215572544644	22.2745575090402710	11.3664634139678959
19.9603330854890721	20.6079928412797422	18.4720605091535290
11.7768884407947052	14.3898252101369373	16.7249955867594267
27.6107524660240671	20.2016111367829971	17.7487990966099431
32.8427415877711439	20.5754104957112141	13.5906550162605928
35.0538550114265490	20.6913765869000343	14.2736932799596481
41.6138626713353048	29.0427045881803672	15.1117209654312852
11.4400639363495706	24.5952526105982585	11.4108350900507993
6.5695766529918789	30.1206069088829089	16.7828380097405585
9.5341275137687536	30.2515575833309853	11.1830131693135826
12.0284031681561920	20.0368807035067675	10.9381719716756685
15.5419027876140312	29.5062245037412723	17.3407367277280784
20.6600505016825124	26.1192756839159870	11.0885339878494467
26.3041785619802511	26.4660024445938866	12.6479206964302531
27.5236411719436909	27.4284889306353818	12.7585291514986920
30.9299930447072704	31.1589370821301550	15.6575140833862658
32.4835263694509209	25.5671403046505858	16.2977412133547013
41.3409424042574472	29.8553854453562977	13.3110182725542590
7.2795619465232404	33.6656620074560209	14.4042249859182832
8.4912135658137480	34.6022709143789626	14.0508674581519823
6.5532629873021380	12.0362004064546522	16.9762334735726093
32.7727869152304407	7.5564561153577685	14.7335264185008263
38.0257020671439676	3.9273616340657522	14.1198595078466234
35.4757916044137858	8.6840775719360366	19.7639992244444755
31.2486650630135436	8.8372070750256775	15.8577595484225338
0.5519993317107786	14.5165191386647106	14.9412206230702775
2.5931493827194543	14.2425587569868473	16.0148431461716569
4.0447974407667298	17.3131990904344555	10.3209530807856709
4.6585166947513086	13.3357296425145311	16.5980651928667484
5.7180361470442458	13.3456837774919848	22.8375798148646361
11.1988513898845277	13.2782236921685879	14.8503226845421956
14.3031136135736983	30.4774639958577218	15.6544844783381460
20.3491618417056408	16.5353480897558285	17.2742533235597584
19.7143340377050436	18.7194512942208782	17.1328517523424502
27.6567161993576640	18.5001595833358898	16.2977731685444027
26.0561045443314505	12.6365727468297848	16.6631656710948981
29.6005559285902500	17.3475250709898532	16.0293241358507892
41.3536631061135367	14.3915098256099299	14.2853932801072769
39.4231134913120087	18.1374179232764696	9.7815773682387075
37.3128062612248854	20.2553459758628378	14.6458079625843318
1.3811799081238993	25.0921196064321173	11.0931124474348906
38.4022545470140670	0.2754625890824974	16.6610933221465665
1.8914563359363308	0.6312073979163602	19.6984978664711647
4.5848257514082311	2.6383363727433418	24.0888120957154506
7.7020662260770605	1.3147046547168175	18.1731689170572963
5.5828342037363630	7.0276486313684492	16.9036875320588180
16.8269721807320174	4.0433025434329286	27.6364785059399942
12.4203360750350473	6.8446690842786273	20.8847975520525750
25.9619787336506569	3.6887202712072353	24.3733393274483667
24.1554923058513644	4.8669292990458093	25.2195674088500112
35.4457490269293842	0.8727183810338354	20.8947518352361712
37.2138292931804244	7.0038220160215179	23.6157175083125530
36.0774869985091513	40.2967932299430984	13.7333634881874609
33.8818842230471660	2.4318952686342183	20.2021749941873061
32.9780784547705395	4.4208910118382816	19.4456705660555720
1.1034537518483094	6.8761613750807440	24.0368286465134915
3.1694026695617787	6.6264283593794922	25.0094580324473874
9.2444573470267830	9.3753435646239716	24.3271050203899826
10.3402448944175411	10.4567426525036868	18.8503151397931887
11.4318128193503057	10.5950743260506908	19.9932145958439342
17.9787760011763993	11.5923794460310159	23.8718342474588532
17.6074612028368698	9.4135839222315383	23.8596066591556806
41.6310907932324952	30.9271863530709936	15.1004556502692235
12.6768141950894311	34.0792953917610433	19.1109029925059346
17.4916603802091366	36.6109906137850061	13.8739167379975079
22.3238282670844264	34.0168065090993039	19.3381740817990107
24.0379671045880592	35.8444610262616337	13.3530223568079851
16.6310944286561266	29.6561649940176792	19.3645082180013972
15.7154229130072984	36.5426619371541506	15.3401076117192581
28.6710312298831731	33.5076011106706417	12.2632682039994023
29.4991867884235539	31.8713719896580692	17.3382904462219933
34.9305548624390454	34.4924547382690605	15.0807102354297253
34.8711832031946258	33.0216220780859047	13.2967075854352359
26.8416987139637975	14.7941234685101293	27.2034111194993855
16.4178215146426751	39.3430986053715870	11.2652962497167959
19.8510791448655368	40.7767218893984236	16.7403815239746798
24.2683687931542487	40.6138243376134938	13.8680694810153007
20.1932838806414452	41.1021662752631229	14.4739715613976028
25.5145967874313477	40.5521791212816183	15.8274603136948340
29.0010048387810038	37.4743244675430276	11.3663086222080754
36.7516395335762738	41.7586235113667001	16.9175620388702868
35.2220446820704254	40.7089825499544418	15.5545401598148487
34.2154881214550031	39.7793690582389061	13.8509343674948120
38.5251704386095923	42.8968902676428243	39.6536762740453312
33.5676555639572172	40.7476507549511950	35.8789470865218689
32.6147605497156121	40.6329163854796533	32.8525407301569103
37.2040171420111889	37.8146777069593441	32.6372271440675590
40.3645849772254834	42.8537843548434481	41.0130934388160213
2.4383779169694697	1.5997108188852160	37.4672011995329655
5.2956128290069326	4.4629281200763318	36.9720521380256528
5.5647998249836812	4.9671402897903594	39.1751810066789474
14.0009071245810564	5.6147599512188320	37.2871423877283164
19.3789579840510058	3.1085297980866620	39.0048576825588569
33.7910122225509681	7.3425023044111333	40.5965536802045719
28.6676791162526108	41.1598271407731673	32.9066386259514587
0.9317940985255436	3.2090007765927626	37.2050003544991483
12.0325395157717026	9.0141366364687538	42.2808177077157481
22.1006649639213677	7.4302914703165577	0.0478492560701163
24.2773698931648099	7.2147844444948923	35.1856317692129608
16.5218604863751928	12.7548893637087861	38.2092046311122218
32.1237054674027860	8.1672039587968381	39.2995167205959888
32.0416520887217686	10.0662334151264847	38.0726440663681700
38.2828408005258041	11.9027833170049444	37.9765591332232404
36.0593359114872456	11.5633703094235845	37.5174678240755526
17.3519837562471615	34.4598441160332243	31.0883081318766337
0.2486452584583067	30.9574255527375897	33.5481778906206216
10.8692745496639098	25.4956788603919122	34.4313202783729011
16.0204338105420057	27.5816499037751086	37.8802585815316988
15.0282326975637268	26.3918819095383235	36.2191212558669449
23.4335225435298184	30.7128638673365799	31.0603315915610665
31.7733334163677874	29.4622615152192360	33.7323327457188995
37.6012024642148575	30.5655646095097140	34.4097799396971098
38.4870563849131457	28.4409920164283108	34.4171630808599289
3.3831318919078037	36.8285496311093112	30.9183288976657060
9.6827189159970288	34.3289113496897329	32.6789903535166744
1.8069973562963986	16.3002314413797862	40.3287191699152388
18.7041007929693350	34.7960048178975327	36.5332282960103711
23.4414819601090265	32.0932397138931051	36.0748352462640725
18.8900095111453474	33.6968466009625871	34.5082154982871856
25.7622333291229815	33.4920811142908192	30.4449905103472567
25.3180619266762292	33.2016392695372318	35.5882461510960724
37.0365376927779693	35.8993917709918691	33.9516448905322505
37.3981148520118722	32.8905501648200413	34.6805268428951479
2.0523486512642344	38.6668534927088672	30.8945760037836834
11.1584005945446165	0.0490135529216143	32.9020444526636808
34.7415130413732314	29.2015904939139119	38.1547376214773450
9.0147258798244696	34.9656560757391901	0.2156118449928031
13.3705102574628611	37.2788155526640210	41.9671439874795382
18.9536074794937655	35.1226445008408277	38.8054510497051908
19.8222732113835001	34.5106733850035923	40.8544004654206034
23.3277923035033901	32.6650824632196333	0.1294979995957637
25.5763457865272237	35.1194845762626784	36.8584937834144526
32.8904427320154298	28.9836388735565365	36.8989637400273125
26.3420506048316518	28.5057677652668460	41.4847806998183231
25.3124415921062393	31.5538793577882970	0.2912428376849555
24.4071387167077560	33.8830270444015937	36.8584391290863564
42.6621980573759174	32.5953466557134774	35.0846020815518997
4.6749963021888838	4.5850661884265778	41.2765666987979571
9.9961174996604925	42.9090727049907414	38.7343788095958033
10.5708211656672422	42.3628839778285098	40.0740861543467588
28.5868149106671936	39.7805656595688930	42.5652621388111072
34.5875128000251522	41.1551344478548771	37.9361671086375551
30.8165175850254052	40.3114948487284650	42.3181419862704260
36.4568921335684308	42.0276860113447199	39.0149104657509156
42.7794901262856300	40.6018369532763046	0.3619411360977973
41.6643651657997509	40.7871466727802243	1.4640987743740104
24.6496079737045761	23.3678942716827684	37.9402086807813035
11.3849401404663180	19.0223244343342017	42.9393859293009896
16.3785466371033337	12.1409285250909473	40.4354348910713881
11.9638057949298506	17.1047627669347477	41.7834885786981047
21.6421813990909904	15.0770312781275937	35.8774390916680659
24.3909158789621685	11.3075745778911472	42.1751393691772378
33.7362287053929322	11.4112842059931427	37.3640922977295062
1.6673588218016411	17.2654858054640705	41.5425777673895666
12.9499109718115228	25.9945682961006916	35.3020055395865171
24.7284492927115380	21.9228952684015077	41.5204298285897977
25.6927308812145831	22.1122355398470241	39.4822416185763103
1.8917711869775768	25.8014452959688505	32.8204192604359690
39.1011150132529153	22.4712214410462963	36.5011613384917908
22.4281441038845557	23.9197949847426301	37.7589737410009505
25.2035131788408826	29.3916793150382745	42.2546485217008367
33.7783228074044928	28.1348828398248294	38.9338080417483283
35.0182259512967988	27.7266839061044550	40.0110730483059456
35.2128073631566849	26.2596097910888417	41.9647639947794318
39.4918873538801165	24.6864223643671039	36.5993665035667348
39.6991984755003386	26.4028751722381365	1.3008696705507277
39.5203581904620336	26.8003056396244617	35.6842859164701736
18.2161945030295271	35.0579056029058904	29.3781369410912845
20.6263860800638810	26.5950922688208173	25.3661223663479589
27.1168806896943373	26.4233575474758666	28.3409623078054693
26.8487620706742227	25.3265548354859646	30.3390718820272483
33.3617754176293673	28.3614948543206395	26.8853066216750278
4.3017206862378385	35.0413152860054495	29.7367026371640542
7.9729651981020275	37.5183221750259221	26.4443609051976409
13.9435468802762159	34.9802541735853936	23.4452651668420913
15.0361170810688556	38.1212237388043604	26.2107281854833047
14.4840799967502036	36.1203494348140310	25.4056271537257281
25.3603246849641089	35.7035762616211585	29.8724637136136586
8.4548775310656126	31.6956814324791409	26.6113754075771993
19.0874035709615129	33.6827605712695615	30.5956330129319163
32.2110793759852285	29.8292744311586127	28.2107676041657491
25.4583896696984482	31.3303892890795090	30.9895250725813796
39.6659865728105530	34.1726815924433964	27.3699486812263153
40.7748838713630875	35.3343204918152054	25.9490439775499588
38.3407246861655224	32.3938594688834343	26.9314193236621726
10.2749039350368250	35.2677520410981344	30.6405361422601636
16.8915101071445299	41.5539545268891146	30.2438177504726475
25.0631984745076224	37.9932380230049418	29.7515170134355991
11.1231233624632573	25.0475955286059708	24.8210068149109873
31.5039885142521285	18.4899578328366587	28.9186679149354688
28.5280542874448102	13.3252282910894362	27.6294552234599742
38.2620517257830741	15.3792202402942344	31.5613144820273810
40.0056759212674393	15.1246029616451807	27.5774865451102436
40.8217785248251488	14.8504647925635815	26.1562777952581413
39.5452098073576579	13.8736900983275557	25.5981614185155735
41.8187241012210080	23.3658285364541669	27.1708095566607177
3.7538001899400237	20.9488579999516347	26.2546272844397279
6.6425609323644546	18.0291169471957495	30.7484712841573469
6.9428057057961166	24.0874312862599780	25.9336928991068234
30.5802512362134244	40.5336779199780892	31.9058754522158132
20.8039544755507642	19.1510242860241853	25.0475218859201050
17.0687787821939700	17.6518903950908808	28.2474512238313622
26.3492425799498413	23.4114861409974360	31.5311719403254145
33.1841551433008064	19.2987503416526707	27.5845578727752461
41.3834795449475550	21.8631505861497466	25.4617488690148974
0.2601769791800823	26.9633851342211273	29.6556055295628731
42.4575656533049042	25.3116457990816883	28.2765627724857502
9.1784626691277786	24.6649737552734862	25.9685136842425344
8.8417714716581841	28.5139325354043862	29.4844202923826053
9.5775218168639071	23.7472857347026256	33.7739975538483321
9.5828363199111077	10.7354269251021570	32.0902403862558856
15.8462576064902052	13.5456893011998627	33.7161082218701011
23.0668676553687817	13.7928164399259749	34.5860662330346784
29.0325531470159603	18.4093495967448924	35.0770602526037578
23.6866809601657202	11.6504094977722445	33.9910852818933478
32.7564554612609840	19.3895919055440942	35.3608305783613233
31.0566183964958462	18.1733735763251509	36.0608762249791042
39.1129271061724921	14.0904469902234162	35.3340794202182451
36.6861912289372754	16.9567001609915629	32.1214656597778259
39.6656376858853861	15.1280101515827106	29.7577591319060382
34.7232621444990812	9.2987356107224546	34.9295227907291874
9.6104930162917519	21.4392829699987217	33.6822226518965735
10.5247896407862953	19.3256836412518389	33.9393739813288420
15.3579191953425820	18.8396610188286573	28.8906885320885998
19.5237143350344660	19.6925003908832643	40.0609567946823404
26.6481820653421231	21.3330276047093648	32.4863616934245769
27.6506683651106471	19.6283854869969119	33.6854697308261777
32.5710055306428501	20.6877419418111117	33.5038001948965558
41.0430271658183869	21.2159590672271250	36.0337466491505864
40.6806723646896486	22.8190815335239066	36.2234954342095961
36.9900835834268733	1.8447923554377399	34.4156493334185427
36.5368477977933566	37.3814994535278160	28.5148106475985976
36.8714197697370736	38.5347436309167861	30.4780567108592351
0.5085211583170975	39.9960460147680479	29.7710041539893808
42.2216699937295417	41.0197928152493816	28.1348816165036091
4.3122652969472925	2.4757163667487525	36.5776358609484618
9.1563507574247218	5.4490240814250184	32.4396287355131037
20.5856372065028737	4.1828981030141312	29.6916295717881091
27.5172551997926327	3.9937729843004086	35.6994198157934122
25.7100511294630536	5.4631748103955271	35.6810073401587147
1.6724614254762729	5.7714760564985648	1.4872118441582813
37.7228290368382275	3.2284112738433905	35.6729986751098238
34.3370559350307332	8.6180912247116659	33.5825159131372644
38.7365944423949884	1.5552970745952013	35.3647405607354273
3.8668959332494599	9.8692309713024962	34.9216081379209271
11.9999922519324524	12.8494233013114094	35.6303355908301782
10.6058562729991319	8.8262809168408225	32.9479176556324589
5.2469994152258650	11.5097844183978744	35.8436744937235900
16.3792034414395786	13.0387508344538841	35.9161018654650093
23.6103599062891263	9.3258547699840442	34.4559471350002156
19.1965509256896851	15.3259940559972883	2.4077912664691685
12.3971037412385847	32.7486220239747325	11.5246917813891994
13.0676346136631754	30.2735539898146335	4.8674936625360727
39.1677927922857734	11.8185317350449015	9.9999740210332586
16.2403922682811697	10.9516232095696022	42.4153524894195968
41.6511746586268572	25.6198189685700193	2.2852687053340901
33.7968687996473989	24.2400447885604038	3.7475189444509089
3.0720619295492777	5.8551157412485404	10.6152783481147619
4.4820049547931147	34.1765410679789454	8.8852024148661144
1.0272032465493981	4.8358210031084310	10.3721864196698039
18.9338875606431003	16.8064697114219150	0.6412091099527594
32.2205140005409874	25.1496820315315830	9.7351479601749755
26.3029009961393712	29.0005454183210887	6.3055971051780437
22.7594798494847694	30.9805735622410161	7.5966108948705884
19.7868429413635738	13.5981639478503809	3.8374463168509472
9.5712380691374737	12.3216995001120075	6.5181003107740603
33.7042189184109091	26.2390855969356700	8.3700189698805261
13.3162663572577795	7.3718294582898389	11.9818782826094115
34.0332280311497399	26.6951206417603970	40.8533894845376935
27.0139001249588731	13.9478065456087581	1.8039769627320510
26.7008455550021395	27.1292337252609741	7.5622776504465774
35.2040773717993076	15.4676223194916602	1.9391651639724632
12.5512694866157464	7.9894152446385114	9.8844535222033993
20.3131182813153188	28.1466376264157532	10.0422036983259666
21.0579275910353374	29.8815581267776587	8.7118878291309390
35.7275236501370159	8.1007981744362638	41.5495741828182545
18.3199689073869862	37.9217630523914551	4.5740507088352000
20.7685369216520783	41.2659664087989597	10.0116812095132506
29.7812690749856976	8.3571149026952121	4.7546444683482161
26.7998098965718050	4.2703165054547645	9.1881241623514480
28.8375074579940289	4.4131290072811247	11.6776080201662893
14.3736791073573791	40.2829405891092520	11.8064996992114413
17.8775527024097265	37.7165968945946020	11.9550453485954264
9.5627696258252328	1.6959936494335883	11.0230348510860363
6.0435275964921935	39.5653631526316829	9.7475197727279923
6.5905323676153840	38.3026117721142256	7.8849958501763853
28.9537520693914097	4.8963827495839602	9.5464766167083663
8.5220496723670287	31.4182903488603991	10.9641999560251868
36.6521388774145436	13.6340055332999235	1.8912725383598910
0.9443525335886923	41.4798749913543645	9.5382418221468832
38.1829485849580195	11.8979283315681599	2.2132689515566413
36.2411956124104364	2.9619617930336766	9.6493328375536223
1.4948712873789716	31.0488728073857665	7.9135433806760611
6.7645548224625855	35.1829538608891781	4.4506717937560110
5.4465435051233095	17.3291681082911104	3.7959077219241459
4.9961443007788162	16.3224304703795511	2.0920183823863274
42.8724740181364510	0.0391281653995347	9.8996192162323240
36.4781552422141431	2.3418335514861628	7.4313767524515564
24.7955692411288027	30.7043180638509625	6.5729181549076410
41.2221483463458824	14.9371215476577834	11.9867743499666162
21.5378361413452915	23.7461984692668118	1.3538083296696530
18.4267063548597356	24.2216786397459529	4.4087682585026924
10.6808971212188375	21.6461460174894320	3.6392170468535876
3.2916112529066153	23.9784112093792281	10.5782510721175669
5.3409800006079902	24.8676608990141439	10.1171984771377605
20.1003299376038669	24.1220154456952578	3.1283510103469085
0.7468382039276875	24.7605629692619189	2.7719756022076223
42.4105981341770004	14.6758026313282137	13.0808744444696590
11.0690325109691710	13.6145193812001448	7.7267079717250775
23.1541164941041266	22.8498467514550612	42.9509983678602367
12.8806487722301917	17.9712648627701128	10.2802809298236912
41.9004295607143860	8.8263926164794348	3.5235133646969228
38.8652049182671462	12.0176514496663955	7.7509221872502110
15.4626746470193499	15.4064728316242157	9.0536690099659509
32.0184855569173195	18.4796478877229156	2.5239926188050013
27.6585496697261028	17.7092471765848991	10.0501547672569256
33.4556706552107528	16.0601110145087880	9.4385289622160951
27.9103388850255989	14.0102330897909813	3.0810434736086623
14.1548067769657173	16.2119796023835896	9.5108963552364152
2.8292474767420184	24.4331897512745400	1.8844111902248402
32.6817201051798065	16.0879995488077441	7.2676635371032221
17.3855659678735108	14.1503927830470353	9.1569674674354538
29.0105343493622954	19.2430710064387718	8.9875610240667818
4.1618711429728421	24.7427535229378748	0.0327368465081338
6.5995402714831082	26.7858787289116442	10.2130830275144984
2.2960189491251377	29.0500825421673028	8.7863382809262820
6.3574270489385833	17.7997702513985061	2.1218188449775042
19.1505923629911123	9.4087330014652331	4.4856984842860816
11.0257474699625142	20.5793208079395029	1.6076404353626255
38.7621203567633614	19.6340560819812779	8.1493955354043415
18.4181286328494878	12.1099239873554119	9.2646932587981148
9.4084702714281612	22.7650577095307725	5.1975912387684309
13.9709016541393112	28.1905994017006556	0.9459889672563453
27.4595796616893431	10.1269517899134733	7.2887654976442864
25.7789448715116194	8.5775062851964474	7.6423278681497733
0.1634427043613852	32.9006182450320921	8.0422271894187496
13.3148629536357159	28.8484371674727313	3.0699140916851277
37.4287604096346342	11.1687264643060775	6.2213633856601822
30.8251707062275031	23.3342991504837620	9.6768868701310193
30.0045146534197009	21.3143946377191469	8.8989379127498420
20.9423222176448363	23.8492002011704578	11.1850701275008966
20.3213360766951645	24.1575722289333967	5.1663557340105779
31.1341939881286187	7.5904747607292720	9.2905759188141399
7.3987190411107937	23.8784045949533876	5.4206677685546900
18.3457861822436996	19.8301797159385593	10.3387332134903218
38.3389059263701313	11.4472800173816971	12.1193829763636955
19.0629192202055329	18.1968838882314508	41.7840590836140606
26.4211514099348719	30.4469947189258825	42.8169103502310051
9.3435036538733272	2.8716411606999190	13.0023056960755223
8.3567961923244169	3.3787454601906628	15.0332128651431578
6.6234531274337227	0.5911734341896928	17.2883118666753646
8.1067787937690952	10.9386641694004165	5.3492514320439044
4.6810977944319703	42.5282250620789526	16.7593339285964262
29.2065566166065906	35.2205693786750373	4.2715703031848538
34.6082733568876151	39.0200609492733292	1.1514086227473517
0.6708194902403681	0.7774639314845138	11.9986333878794351
14.6894204092272709	0.2764617150331288	0.8031918184727190
12.7590286594861286	10.0626957755641300	1.2114627160873099
35.5894892859571499	36.9847175655415512	1.6942680877510758
17.5807318757856095	8.6547545504707539	3.0291401855594580
1.3591727057853962	42.4941185004319593	11.3267094084726949
6.0387554115105662	3.0852224739231802	4.8120614920927256
10.4528188752539144	4.0834240238828636	3.1777393538640815
6.8597681585583805	4.9378720701608838	3.6659222107257121
16.4469937933179260	9.5075308999951371	1.2190220060980488
11.5444052216829505	11.0473428242013565	14.6533021692648173
10.3487990250212203	40.4941606129279421	2.5551650201452909
26.0380795485314742	6.3581269590534255	18.5401358704001282
35.3977393697169660	3.1765721447595139	3.7437761642624179
34.2417091070959216	5.7721588960763848	14.6321683256847876
31.8548042541855665	3.9907119889288611	0.8243629872611962
33.8333028655639794	3.7623582702236180	2.1013992914824553
35.8114060422327185	4.1131997227374635	15.0264048268575241
37.0896280079168221	3.1135428338953348	15.1416343544614449
26.6967758986477506	38.9599756113244524	0.5969678097304859
0.3709351166603303	7.2150658943670631	2.7599272127701791
38.8437282967376163	2.0160528186456741	15.2339310054365864
8.3855230041932423	10.7830776288394841	17.6529979496661404
29.7711983324605427	0.1088429465806208	5.1899822248909437
21.3387956551661624	33.5123424761527247	42.2874743301326248
26.8942199472977990	3.6147983104640358	41.8726241409094158
26.9556294011103503	5.0045401516736066	12.8784984848580653
32.9879395864042095	40.2300853264464706	0.0713608988641908
18.9020285108115687	6.7352422984269005	17.5331112444542043
29.1541258208975513	3.8451171190157933	42.4028180037839562
29.3018076498991391	34.3907455523492871	2.9562549156964537
21.4406654261639851	3.2935805139942520	5.2946113352243263
25.7616443504971215	7.8366001526073159	17.9861117220977960
40.0740658132903391	40.2970610081164651	3.0782933739641209
17.0533911272322740	7.3642408295089723	16.3197094003432461
13.0700439288299499	9.3963894300348585	15.2092081593951303
13.6744756433016459	33.4729175732252457	3.0434686223265075
14.9958551100922310	8.2323148440985179	15.6824543728948189
12.6230507022861360	33.0100042282259452	1.1100035885094923
23.9742654317456889	40.2372332374113029	6.9679976533313077
25.1695585239092310	6.3399868504984962	13.4775207734890117
20.0259548653415997	11.4709891764368059	4.6742404267445368
36.4905584650501496	34.8835886702549942	2.1003709552453578
27.3687018565324287	8.2528327237715811	17.9721350997357092
22.7496693316144594	5.5647797582993288	8.8832647350483320
3.1497297943750371	4.7716206979020175	0.0051835752224036
21.6637333129814174	4.1355816941320782	7.4269387456722793
6.7521444714349546	36.8316019479325050	6.0960768627589825
22.0828159515070652	40.8941788954990315	8.1320970707734315
23.3520991028795883	40.8154991233091380	12.5967888920849624
23.5244615641796422	9.2024468299006514	42.6370442763212054
11.0643288350755871	34.0154659273185302	42.7956181185484610
16.4038410555078293	36.6184071295748979	4.3985392370669620
28.8421523240329378	38.5466528643338648	9.3518128267220426
14.7908424548295194	34.9553027919857868	4.3159273977541774
14.8779894325716580	28.1644652421511594	41.8038317180715993
34.1520950333685818	38.6377078740796094	11.9926880234179993
7.4064496896868857	3.3581578772290581	3.9291693533991374
36.1936938240006683	34.2494658931661746	7.2450264524827022
36.2048939841709796	39.0500252099689860	11.8431499524278490
13.5770785918008183	28.4251881631547541	2.0187173992581071
39.7090462494059935	23.5181351168377724	36.5008120916511700
0.8359912822247638	34.0162307068272511	25.6369683113954139
42.6612084320574354	25.1547398679776961	2.6299590498203100
4.8060763302488141	3.5202009810229002	36.4965481655947812
15.5556481852020241	35.8201140454545524	4.4251971711197724
42.7766552660426385	40.5075422542509855	29.0080995291320924
22.2889049857225814	33.0696968566428211	42.7880524402486486
29.5490435622777028	34.1060410778407501	4.0798713403239848
14.0340660075700256	26.0563438368418403	35.7148983139789777
32.2587250580668297	18.8102046100124198	28.1192515204906393
1.9672782683035985	30.0443479714796844	8.2664426279281393
32.8526593177083086	20.1860099865882248	34.5231720671869979
28.9484762227614141	35.5088543557124865	3.1515352410918878
33.7840422099695630	27.3963398599087000	39.8696154808934864
27.0648114984006014	20.4136171622937219	33.0597628933010839
28.2500347135064231	18.9238904051287449	34.3885242832737177
26.3660864728418147	22.3497419090860276	31.9984790714950371
32.0575913190441000	21.0741221755755461	32.5534716807400741
29.4605925591746676	40.6980490116278943	32.1775471446582699
39.9759397861660091	21.7222567434062057	36.2611146698709774
6.1203575673276918	40.3551353591248656	24.9727181560258202
35.9937729392790260	35.9088750047340710	1.8403953734926377
25.2183867402638491	36.8596876174831962	29.7539658553034450
14.8665832983391297	36.8977009406913723	26.2087246416848565
41.6759678226368990	22.2084788843614618	36.0086265493302520
25.1688346592598080	30.3837770644460399	42.8955141617133222
4.5924256666379080	10.6841901914963167	35.3397805013278727
26.6152561410741200	4.7077208638881292	35.7722939967269298
10.0484160319852744	20.3604309434795105	33.8105893166522264
40.6707809031172260	26.0314536332937791	1.7948491393456996
6.2348381389806651	19.0338660908704362	30.3841078341374669
36.8683198307567181	2.8722660234716084	34.9608078233475155
39.0467625600840975	15.1210454155958907	30.7281990605781345
37.1854060086316380	11.5717298316656940	37.8017620543230635
34.1319936610016939	9.7089321299179794	33.9889483047355228
34.8933501823651042	8.1922199933481519	34.5369133494759240
23.5236376282600723	12.7998127522119471	34.1811011081377671
8.4131207027975812	23.3551468437800409	5.3832967134360121
38.6648522118490234	2.5803989238934024	35.9240777905092301
37.9162264503559499	1.1651220977113355	34.6322529870329774
12.0380663654130480	13.7452978598480620	36.3171205945914792
23.8338243827559211	8.2250781881719846	34.8368892624830266
23.6473687771756751	10.4765588054070236	34.1483877342928324
10.9417588449267171	7.7442671038342272	33.2148744416185124
14.0636535459626977	6.7104337758692960	37.6180985552916951
6.6496561885721954	6.3147179565496074	30.2419452611148216
5.5491228636236265	4.9034555518605378	38.0165646763052223
17.6521604307342272	4.5405112315401528	28.2621821291658684
6.9459020090338299	34.4114465617599308	3.6202426903615619
8.2111062285482213	5.5418468065472783	31.7708069726431717
3.1059793730764680	9.0738752678483863	34.5965913224534631
9.9904570380743802	34.4823905687810708	42.8603727003432695
10.1358264430961551	9.8210982354927818	32.5734915478753280
22.3514806473008250	23.3491373217960785	0.6279627325708294
20.5543257183409267	29.0653039818281833	9.3710280064807865
17.3167966596015397	24.3689193991514266	4.5965287947827749
20.7715289454947971	23.9916720386817701	2.1969557877270720
1.5902175186022711	25.6438469006985201	31.7417206726281051
10.1524203004503235	5.7001464831045077	32.9872325092147065
37.3406080765298611	16.0524245198605477	31.7769892380815406
38.9915634263458557	14.5655645368504274	34.3141744141531149
36.1853994037368594	17.9490226159475483	32.3965991310875268
21.1049408571183115	24.1695822889405179	5.9905968727689975
32.7439272832229733	10.8746541832937975	37.6283648510668272
13.9822183168437704	4.4996989835310002	37.0471419136203224
24.3925027044139355	32.2905529840772090	0.3781580550307576
9.4560421153648910	22.5937880025284770	33.6780545390362178
13.1877916584031603	32.9511716941608412	2.1284656346826689
24.9371668173102385	6.2932048934792615	35.4785536462818030
13.1451580382248547	29.4945613762087895	4.0321487834344509
29.4154292613371418	12.6575554631040834	27.2295064987127660
29.9477473354109982	18.0920634343690310	35.7188973563081831
25.6477711769645147	29.9529633186380160	6.3281106615597134
26.5202471213924404	31.5375144510529530	0.2590693265434457
22.3958826565875384	14.5136484788259601	35.2258388912592295
14.1699780592280788	34.0532140928987843	3.9181645281231465
16.1879466239720955	13.2270731010926479	34.7893221810214754
28.0402621923297843	41.6979202530572906	33.6993261090050922
7.0796663286445805	16.9833164602816282	31.0704771392315244
39.2771438864724942	12.4677689068464446	37.8931510869470003
18.9331202009327875	17.5053492950580853	42.7123378625478551
16.4873843494154642	12.5512963265983917	39.3540436450347286
16.5515094770846325	12.9408333185744642	37.0634682213510516
24.7249626509813751	12.3921919179880469	42.0347408624679986
28.1428302178385827	14.2907144037266391	1.9594996860102520
20.0122673291466100	12.5955883290206625	4.3851884051478356
35.9319621351495044	14.5522313542857056	1.8482627483831893
37.3930617896227702	12.7416192346246113	2.0028982831659188
19.2331126608368912	18.9161223524629030	40.8890282206869529
19.7526892337345821	10.3490670739932398	4.8163635603361028
13.3309390096275546	10.5771846511331677	2.0565645920856710
23.5622838732504221	23.7574483638608456	37.7463419522943227
19.8606346172179009	20.4743660826034244	39.2926042503316211
16.9678373386895167	8.9258655786984757	2.0830004021033139
18.3827887547489865	8.8041236887696854	3.8604278632722093
25.3839917447597934	21.8239906343778536	40.5653053025860260
23.9619816225783602	22.3434342932494765	42.2872752597031010
34.8009936424594599	7.5993023325826421	41.1179393100640169
16.3366081381954338	10.1820292263358674	0.2787228604935744
4.8270763762439417	16.5156891778072143	3.2348413474117366
5.7602880191716936	17.0015416547056795	1.5184119969460967
22.8752194778174385	8.2516212113965253	42.8587019181591842
36.4774686873900365	10.5905819489384427	5.9534714766246353
24.0226222245287850	10.2148370779542130	42.3876691141584701
31.8442578085628618	9.0715429076333916	38.6362376316145699
32.8282382804718438	7.5311221283875875	39.9710463137902750
25.4181316825534260	22.7380137949701684	38.5394804529327217
32.8767283413332976	3.9175719967942153	1.4105081144338549
34.9047138677012967	11.4585576785720544	37.3262902171580251
1.5096777012488707	17.4514050312026008	40.3866077242731691
1.9866088461038569	16.1324049975155184	41.4899016402915564
11.6603976846850976	18.0725558457910616	42.3169249437895232
29.6945264095174366	7.4196596336057645	4.1329753801736837
26.5442939371373505	9.4136388200144747	7.4865706670647034
29.6719742759087453	40.1020397492767628	42.3095408912458524
20.5004877175059050	34.0198969693547042	41.6604791680542306
21.5847320893620491	3.2150706114041867	4.1613863617483693
11.5770148174852245	3.9785681432593605	3.1437296424619974
21.4573972263507606	3.5777668428632206	6.4312057769747053
7.8454228082249209	4.3353402894798254	3.4236091521628200
9.4540131127285907	42.4698363687842715	39.6940761121397401
13.0737874607893136	36.1957110734925749	42.0751742923153316
27.5805686764407376	39.4154482576070961	0.0307180842398675
28.8001257813538345	0.4331348750754745	4.7201979410261252
3.9374007398038260	4.5536273660177091	42.1780869059619832
6.9834520061293883	2.4534053748625277	4.5516967546854250
6.2179877199416573	4.1119132538576793	4.2604302855841265
35.4586030269001284	41.5766973835368887	38.5983312105274692
31.9437099397743012	40.4096404663912310	42.5894903326663155
33.9445328710105798	40.8970689352517240	36.9777470668255788
1.0134029674168057	6.4599287373416630	2.1569701918639566
26.8272884833511540	7.2139963957317406	18.3758082532866425
42.6623832908810812	8.0233588089586796	3.2201499409524401
36.0922562313280082	25.9931340729443683	42.6932558665521995
32.1133902153447011	18.6498287103399427	35.9912968450827222
34.4834657604167489	16.3374983540090994	2.1710849567680146
15.9349064303253023	28.0179461682699831	38.9465598027323097
14.4116176297251570	28.1342634376451919	42.8601532509564080
8.8419321378138758	11.6616787236537753	5.9093891012382072
25.1757095129620581	28.4352607702395979	41.5503048046952301
26.5716194640184113	29.4376047492561490	42.1718609964216071
10.3033903245104952	12.9688992218978179	7.1686429349291778
34.0090974266420929	26.0457343428506221	41.8329769016527067
34.9640580090634572	28.5132754022760757	39.0756648139703771
35.2456854131180748	26.9874019210541185	40.9031850782070450
7.3623253877263988	10.1850833425921756	4.9174938923745986
34.6946961635921056	3.4921339863450900	2.8706723034832131
11.8381510494351208	33.3159156797940028	0.3139701232952052
19.3039591495616421	34.9197108760224850	39.8966366879286838
18.7709791113640811	35.0898521950022371	37.6548807864807529
0.0755409105347491	31.8394993214458637	34.2931704425692487
3.8469072029052529	35.8977550162492989	30.4126214950217175
9.4384608843264974	33.5927745523772288	33.5248362366793913
19.6040321080603555	24.1593977089380836	4.2071101594212648
9.9946341254605997	34.9167161234992918	31.7185623746701886
11.1489349513420670	19.8672264933937619	0.6973722021523147
18.7683090127079772	34.2992173731142884	35.4767597170518414
17.3135991417801414	35.0998465508643065	30.1178101602003139
39.5633783435761117	25.8048889917938098	36.3008064639884438
18.2561002374256738	33.7887569119033486	31.4241905076325985
10.1558117247522439	22.1917305037536536	4.5235078462412091
10.8637951644678221	21.1626818995876178	2.5985900233235708
6.2127301152237093	18.0326311967776540	3.2581269523772840
24.3111683082883268	32.9023920866729682	36.1609399308175483
41.7386263025757458	41.1236241680556276	0.2373162480718894
24.5909156495744590	34.8811626189872754	37.4438133475801109
25.8981831453629425	32.3865594947928486	30.7735768335769109
26.5346574243640099	24.4292946064024648	30.9996030166992895
10.0583933910578658	24.7748563374793065	34.0168677380910225
11.8784887300336557	25.8441795957723031	34.8789965231606516
33.8519086384686432	24.3395655424409050	4.8731696935237760
31.4536119695975671	18.9856369417968480	3.3639146076559783
15.7663262828750668	26.9472879021817491	36.9251029137485460
22.5284714899707303	31.4432247613582270	35.8957114848577277
22.5402589979784231	31.4269343418882023	31.0130691075138820
32.0977994614936861	29.3450976465711548	34.8603875178336367
25.6485262652332722	34.2007289840798165	36.1090450249741934
27.0826064357004341	25.9635322680567278	29.3856716607877786
24.5968729132505572	30.5609201824172025	31.0751080530636195
31.5477943912168364	29.5795190096705625	32.6005579677735327
33.6208548070111064	28.8484507191496391	37.8380919154187367
39.0733075646380286	27.5751215015887006	34.9386166229771291
0.3100450950441287	29.9990287990175908	32.9119819455991234
37.8708767012198777	29.4287691483214324	34.2969149598890013
14.9273164410102677	16.3858646037912550	8.5963015053168697
16.2774304211952270	11.6406478169327645	41.4793527131781943
11.1100317323594577	42.7851148058603670	39.1122369073016074
14.6185799134618772	15.1590457615491587	9.8897880434239660
14.0541088706022510	42.3508579028079595	0.7018058415289150
19.0018276471343555	16.0971643412286731	1.5601979167955391
20.3697997795222570	3.1947708814839091	39.5381448758500440
30.2331124995703853	3.9113903561507368	42.8512725876318754
28.0236156558251501	3.7335773706862438	42.0402379119874894
3.4855897455810285	1.7775778224836987	37.0046402465901991
37.4776771490458600	42.5267612124239278	39.2992692637213850
19.4840127765439917	14.5100561349387505	3.1852608666965523
39.5352498457111921	0.0386329154024437	40.2352296174394084
1.4584316101655128	2.2411178598919266	37.5138232997948222
2.3814943566645770	5.1876277616571000	0.7736032298489666
5.8116047559068962	12.3641189170938421	36.3635644556163271
12.3120079569358474	9.5470500057668080	0.2525622152462128
38.2675743308177161	11.7504943305968652	6.7952013197534509
25.6200019671720227	34.6049969094429812	30.1329680823498087
31.7351114531015739	40.5272437496793430	32.0770625568174452
42.0776195355381830	33.1950658507006651	35.8675647906451758
37.4306372857719296	31.7181651778496665	34.6115588489035346
37.0963853069306211	36.9144078406458362	33.3696252238334878
3.6017667060937306	24.5393826988271044	1.0104392946588101
1.2600369444633865	39.4164166653412025	30.4599404874129185
2.7787814200019780	37.7975813235419196	31.1037223624044366
1.8521744398729829	24.5025774914573660	2.5045758621371563
12.0148300560415642	42.4348351273291087	32.5078425123677945
38.9968819753941176	11.0940336894289349	2.3381298728541129
26.7816248023552603	13.6932686140441380	2.9443523678357657
33.1582826303372542	40.7091883521387814	33.8836988720297114
37.1078571286641719	38.3970620805281726	31.6217340370470410
37.0098446623180166	34.8169575329991758	34.3406089323391228
5.2335690301968123	4.7641377806834742	40.2729399894927909
9.1172103726100975	8.7074083667124693	25.2883081317864757
28.4063924792376703	38.7647588733829522	8.3174395639102610
28.3235409538333300	34.5554189212032128	12.0124185783361952
23.8114080317406618	31.0330909601144675	7.0990932028112654
17.9530902699601427	37.0303233712847586	12.8947538102513093
34.5876647573022851	1.5769088991376083	20.5558449040115860
33.3592750104882256	3.4113055399940571	19.8352135789770152
36.4080931261849727	0.2856930111554588	21.2107177960112239
8.3672542813749526	30.2357111837328496	11.0017840262285542
23.5486045159559580	35.7317846188091437	14.3622524923439521
9.3765781739010343	10.4582568822763982	18.1736289639916322
11.0741200067204986	11.3626622059262363	19.1928744278448775
10.8696012175980012	9.6001530733266662	19.6598699174770033
11.7554837745647163	7.6955991144089726	20.4242625391266195
9.3267117632450933	10.1873346774982725	23.5234609708250559
5.5447056239768324	33.9465096112493185	9.1833202115934345
9.7121190270503455	31.4178982299051626	11.0885539628926253
6.7269094003951002	37.6058890288946515	6.9683920382234579
1.5911527497636497	41.7177425461436826	10.4809581935427811
17.2480672938329818	38.5528094940790638	11.4483905270745279
24.9416508991553378	40.5440959850431284	14.8471713564287864
35.1064714839491501	40.3142555255522481	14.4430454740227194
37.6693228814738958	42.4591386737001244	17.0591275572102212
35.9184478704107306	41.1721962965933486	16.3489876491642789
6.3250947765453960	38.9419617043134068	8.8294258537116406
4.5509191778555573	1.5029388796700289	23.8372312252166019
0.0055281957016788	42.0970244709848771	9.2285086287833167
17.4416652783990749	10.5701615774842992	23.7784281769131631
6.8598685755158941	0.5675959691755478	18.4872337889298208
13.0992496137620087	6.0200137782008722	21.2974772438223141
4.6147700873127278	3.7305821006130482	24.4821906426488525
42.4491354095907809	33.5981682985986367	8.5993091330272087
35.6372346407466054	33.8462911905082677	8.1420665130410708
25.0606618407163495	6.8717483215207045	18.1403101789472352
28.4641093098545355	1.7085002870210380	23.0099872899713915
26.8287585168474791	3.0442973030355165	23.9585695359934903
22.2596622554351349	23.1340814526092124	22.3517250480926073
20.4160370311830590	27.1716804956929536	10.6727147965136773
38.6829654173370798	13.9659694639966698	24.7815580325898743
11.3037808694012050	25.7282719410398890	11.3113152767654412
11.4798687452555566	23.4288274670944823	11.4433184253838256
6.0872876785176784	25.7675845348929897	10.0794434342971595
8.6925054390842149	22.7335245662394065	21.2081144850949102
6.8678819818008838	21.7839331592375203	21.1838191090154098
2.5369956979914656	28.0477004113168498	9.3000682902015015
21.8336933260652835	30.5459592604767458	8.1571904410181766
21.0277089978208238	22.7670460403571013	21.0792772027007373
21.5896333459853267	21.0778633912488296	22.3257386403544622
2.2274479483537228	24.3463447386737357	10.8940525862990771
39.0466550272664037	18.9558770413848023	9.0197031172672375
36.1792642729409550	20.4881516332517570	14.4665710432695160
36.9440348231268558	23.0260340492021029	20.6931484866562307
29.1297321712904989	21.3940129786677069	20.6291656481032959
35.5535443186866971	21.5713395816865656	21.8662236433544095
4.9890339884510748	14.2115417445511305	23.0008078521244741
13.4719464374276754	32.5031963856844754	11.7740674543762385
0.9276179178701052	32.0518458386606468	7.7796547719498665
28.5095459467085846	8.4907251557600443	17.7923674820451474
41.4495913246593801	28.8922243338222735	13.9746813894114226
30.7445679308248359	11.5248647979234491	25.6765261805376284
32.1905004121568865	8.8763623423715092	19.7130338251750281
37.0155444107070721	7.3723995714334185	22.5290639099575252
36.2163823810276497	8.2683596977936595	20.5559164621521759
15.4024045416643780	39.8749074847133826	11.5076584443783858
3.4905452663359786	15.9250511693600778	23.4453582794039974
1.5577541508928190	14.4763569421612832	15.5177259356260144
8.5482058364516238	20.6934483869604655	20.9056702102709089
26.8820791805541219	26.8824909811568560	13.5871688953795342
26.6173291299773922	28.0128969941799681	6.8450179211472637
26.9501909387047860	26.9999899667045362	11.8070447273735102
21.5570529689839141	16.0096381115363222	19.8892188913721846
38.7932298874689607	1.1211622840170195	15.9668862880697002
28.5470544431612012	17.7931008891628473	16.0232519772081119
25.9324912391110161	13.5254216103009135	15.9776676296499076
37.7240423759409040	11.4829550983584632	13.0837748967866556
4.8673030686625776	7.9322064499062339	16.9432242829182478
38.2524661722028512	2.9183059169311520	14.7606335675186493
36.9659484009920973	4.1902321201422197	14.5505173778274681
42.5600982896121565	14.4998312039856039	14.2912235937052152
41.1257494677901931	14.6247395781871834	13.1538284470936055
3.6564422382476423	13.8893485636628817	16.3414448664178806
36.0114597775434220	3.0477049825199480	15.5901772804971639
34.9531735583931891	4.9171396834595118	14.9491143484082674
33.4604593302853317	6.6355756484059496	14.5779261354803946
20.2451211208926480	21.4232938465866987	19.2699029848137151
20.9024955554859666	24.9907439434817213	11.2527281005435285
27.3556412158713798	19.4391054501938534	16.9064952008453169
33.9345554858355669	20.7592954289538092	13.9627291066108121
28.2109442501208001	20.6699927385946971	18.6237376635565681
11.2180574644637314	12.1607245695244366	14.5454455164167804
27.8753696191444433	4.5521259570931125	12.3333427281175236
26.3334451580842028	8.8082040694213841	17.6467655346279670
30.3849648048986438	9.0070956117285164	16.6118846017955129
18.0600151986197588	7.0251030080989763	16.8168111076992766
34.4394524563955784	8.9469110459074823	19.3168634507750845
31.9999099455586951	8.3274806088376554	15.1326479561861138
16.0484211435352648	7.8246834089706665	15.9820627290220294
5.6637734797869514	12.7702705370426184	16.7841701312221545
38.4303888896013603	20.0596480319090062	14.7953579322728661
14.0579503449497150	8.9093095501229733	15.5765201869387724
7.5212949399783025	11.4512225330250015	17.2385914017549986
11.4786738930495762	14.0652766959704074	15.6700590581807120
12.2488795845485452	10.1547634594785361	14.8822842136104647
19.9343189795809046	17.5650413297847798	16.9567778840775318
19.7592808393617219	19.7403991185822356	17.7008247333741835
6.3061056485263522	6.1403863106529961	16.7353383801518980
41.7425663445749251	29.9891528750294754	15.8432947916637055
29.0491367358923185	38.1433265371478356	10.4392330785203082
20.4681780967339577	41.2894427137112245	11.1237271747610951
23.0770183492488599	40.8968917596320480	13.7404368851976493
21.3650215528830181	41.1347241405987774	9.0120659687983427
34.8654877767925058	35.3419984727814764	15.8424046487673102
30.2980446877602567	31.4566285711838880	16.5916538002377365
34.9675333149413063	33.7122710504900525	14.2009168705884488
41.4105364321871221	30.8194787949276723	13.9715100826253611
24.4840199161227723	40.5135242210195585	12.6760561303605321
1.4805492061693160	42.8486420318072803	18.9985555446020520
5.6879172008502374	0.0558637696379515	16.7894797942367049
9.8335826618159263	38.1030676146054290	16.8553696648644014
11.7788129773743879	38.2615634611319777	15.5863070682459206
7.5271824625632862	1.3823564181083388	17.0120268388572882
19.9077004709702940	40.9539884897043791	15.5833933527769819
16.6792516836602367	36.5227830751339155	14.7137772099068815
19.9539766707796353	40.6369281632120334	17.8949770969543458
6.7064959584895920	32.7970581904781540	14.9669708109675099
1.1499215723648695	28.5090391408363040	19.1104414831111100
26.0111160554411249	5.6143853587397485	13.2023556552232790
8.9018134634512656	3.2219738845202843	14.0293893046897473
7.0762029797142247	30.8872979607521891	16.1040049735930921
13.8418254798921527	7.0788246532264951	12.9520560264249678
1.4373513564465805	42.9925248913480047	12.4051614385148259
33.4392301105699374	25.6201998957740926	16.8893322703956485
31.4095513578063219	30.9355933212776506	14.6369112445970853
33.0058387099252570	25.8052208115730508	9.1685645448485644
36.3871207457914778	39.7373830328991957	12.7731938642791647
8.4897408596012074	33.4415601881568634	14.2295581654074628
7.3473261947324700	34.8392209870831664	14.1083119176516458
12.2477883245944152	33.8937870423104002	18.0689837873714438
33.7837758738621972	39.1870025277745384	12.9578337571037903
35.2083826438073544	38.5419122340491001	11.5215569153907929
14.9441227260892955	29.9042025023010467	16.4141324101810966
5.9267907854634574	23.5392176956978894	25.7995715797961189
39.6658108783986236	14.6072154228326863	26.5712474814928328
41.1873293276570180	15.3943334970723598	27.1784541382613476
40.8999737324603032	13.9617588255129146	25.3692311588945891
40.2941356458783915	15.2720081092940738	28.7632912401608536
35.9402951853848762	3.4147593825369835	10.6604665772955709
29.2749294146847809	4.5161665173146472	10.6068696615604274
27.8731535981726068	4.6529692661424438	9.1369761326202426
4.2936416909567958	21.9185271864704347	25.9707429613835217
0.2464377182658313	4.0162437437513434	10.5245590875283135
8.0380557861929862	24.4610147754879534	26.0448560460277641
16.3923821749545588	18.3169537212547553	28.9248546541581391
11.6887222106914965	25.2947840527522416	23.8278722611059770
22.0952098769785223	4.8214652539381380	8.2651399503235243
20.7672981868058457	25.8850977776059281	24.4362752349124754
29.7487420494034147	22.1262693449971941	22.7371926746611059
33.8703716625598972	19.8334396588884587	26.8411036330720876
41.3257264473149561	21.3378189273493817	24.4256263549919055
15.4303491385130958	14.0154517981967963	32.7591784831502721
39.7069506368575418	12.5535718143892545	25.7292092105113532
37.6443017468908678	12.2892973510466295	25.1660551905147294
37.2251256120953116	5.9758378444852793	26.9367005734831793
0.0633698692146442	6.6417420906016336	23.6146300515882572
12.4967512428863010	15.5745937542267026	24.3753568084547361
17.2434070262716546	17.3582593467912680	27.1340867888028896
18.8214322831817604	12.3485721316109647	24.1338306348164053
14.5186340006360162	18.8035079816857298	28.0724116461031699
41.5572150250239218	22.5468878173032934	26.3864345448073543
18.4384878032277797	17.7396929891176534	25.2278245076538106
21.3003590702305488	19.8819788337605026	24.3024543980755752
36.2754655951370140	2.3855457434618956	6.2914410901198830
36.4644330903025136	2.5130363510205926	8.5903811848986820
26.3713543196865530	15.5235430295807468	26.4564022211376191
0.3962819240014089	0.3490365205375782	10.9185326009192458
32.2839953358488785	18.6699189520503239	23.7504548348790401
42.8199562454660878	40.3749566726148288	1.4980537429591310
10.4823407747533057	35.4287472914909998	29.5219353237188038
7.6438026853005265	36.8516579201978374	25.5698981783832942
19.3171690707536996	38.4341907231439279	4.8092279829909401
23.0420455086435645	40.5891343058820766	7.5299320422765970
17.3308730786905869	37.3128129867894742	4.4273274730026451
19.1043835418331867	34.3361748676217076	29.6264150374657476
6.7105677862778634	36.0013123272730340	5.2864820727089299
10.1918918569788950	39.4024192833320299	2.3256667830476201
4.7305760217798758	34.2670741039972668	29.0022678626627091
36.1160683304885950	31.0660805255656491	24.6301298894153469
39.2733070246554945	39.9441771657993527	3.8220946056938101
36.8704929018369256	33.8655665753254311	2.4584708424998842
40.6260183450393058	35.4218725303488782	24.7603333480529137
37.5173951809992019	31.8556215761288968	26.3085231131481763
36.6270423430044403	38.0845428542897366	29.4486899360342491
39.0325446696465193	33.1965763822773710	27.3995110358495886
42.6199329230073261	34.4869879654072875	24.0469292613805656
33.8900994914035394	39.7882289216841087	0.6509277875561408
42.1197957544046986	24.3308992577217360	27.7489068892964177
9.4545456256176585	0.9786121447186150	10.1368450312638156
9.5774206355117872	2.3718215768931343	11.9806105031352867
2.0270470149824327	5.4574448513144604	10.3898576803658464
40.7834647239490380	40.6973154049237422	2.2412383609581141
8.6831939641563238	30.6023012272098178	26.8854611738028346
8.8817635290500334	28.9061036630675794	28.4083609957392937
10.2480225769396576	24.8666647949870523	25.5595294690487407
30.5374058779532547	5.7980272532267945	27.0772320741623815
24.1033534563259551	31.4135818595386276	23.9979135984342662
20.4894616871575366	27.3433753781649571	26.2261445968086946
35.0756270852418837	38.0060446363720246	1.4673362514931052
32.7484626074824092	29.1249799120034858	27.4777627314333515
37.1333280336804776	26.1330061767970392	25.4281634057859023
42.8174757621761231	26.2594178627544892	28.8592122736097316
41.9249579017353824	34.8820982044442900	25.9090930209133532
14.2071505422498205	35.4355793644480244	24.4808286741554433
38.7488629790107737	24.3386425015692005	20.1622120001192435
40.9627474743247362	24.3426854257592034	20.7072533279115056
12.4219747513007217	18.9844583118355885	10.6393087020483197
4.3860790860997154	24.2266800169888583	10.2753430793931368
6.6358492308690415	36.2675921271365738	23.5575700511174944
39.8068335134370912	17.2110314851715458	10.3292406472845695
13.7269346838243749	34.5838674405618178	22.3808616806768477
13.2070383949231136	34.1250306187883155	20.1657567021782889
42.4223031665731938	29.4402625079301288	17.9723754783945360
39.2036658973482304	12.0526647972805261	8.8623309726352772
42.4057176394509270	14.9270791934974660	11.9322192415545327
21.7290375102403637	33.4239565004304708	20.1244187581064864
28.6334694030270605	32.3110655520273369	17.9473736125709742
33.0087362751508309	16.1098676368535791	8.3757646568700785
32.4241438993919218	37.0121688237392803	23.1776402515274604
38.0126387744441061	35.0956796660730106	20.8675932554349473
37.8380813214438732	36.8663301511161094	21.0053437889558765
17.2633367381422751	30.2037528152538393	20.1759204699161785
31.8217207112600704	20.2365573055905763	13.1900324779992637
29.5657829708572812	20.2409978234367642	8.8000929759941844
31.4291041424272102	24.3114426754898219	9.8621879484204271
41.4376747290124285	20.6405942847746253	22.2086726018484839
28.3666825491937828	18.3894723105075037	9.4639134921256289
30.3428521467950603	22.3695352406554413	9.2461224922208469
3.3721339630484701	28.0367141750372113	18.7481626102408576
18.9836522435951700	31.6006352500434566	20.8420165277656722
5.1412157995861199	42.2834558466381623	24.1335802155598813
16.0788914368275613	29.3955969451477763	18.3657284556758675
23.2521398943040367	31.8160686573080902	22.1651610374743484
20.8661204645248297	24.6745624874506717	22.4347447680556513
25.3243189070540353	31.5279647882909693	22.4296731410935628
11.7307728243154639	21.1331768342449102	11.1957856127430997
35.3743936387954250	30.2901295208187271	22.5654071629062791
19.1464813940452814	20.4954650894779249	10.7797951330120920
2.1751076637430202	6.9420729983120317	24.4985405610371707
30.8310871131000965	3.8231090723043404	27.5033442191888824
29.5537545505375085	4.9183790947922965	28.6614310423562095
38.0651813284313008	4.1857175164275748	28.0319697179772369
18.0605605204718955	13.1938481561058722	9.2771184671232021
23.5884955991974650	6.2041533816573891	9.3467609656628312
37.1724834433262430	6.7034737825695734	24.7388504554413267
41.8401607589401365	41.6795436045667316	27.2619836364817125
39.3967843944528511	2.4248747116689482	27.3763734209724845
19.7830627450428302	1.8672328450292905	28.1299950819415940
2.8347438972353407	7.2846420196431980	28.3611202422302959
12.9195574890535756	7.7254834866234008	10.9306812641741100
9.1673672682036713	11.6903521154638881	31.6026657185009228
21.5014661789459502	13.2263139901168376	27.6675210274584451
18.1153946331152120	8.3876317200836219	23.8584343535874126
20.5420781539832937	12.8381213233254758	25.6010727710401156
19.6615168946856897	4.8086859731183278	29.3799272322950493
27.6291898923505528	14.0581136194436382	27.6840808285377769
38.9046184831790427	11.6077774921632457	11.1085517237873148
6.2259189210542045	36.7001169715035402	21.3282149393232281
7.1626142357124989	37.3610686918501145	19.3075720832464341
16.5273039980164462	14.8813569184764738	8.9333455236327595
13.3290728079378820	16.9621968419775975	9.9351848709379134
19.9428290525343357	40.6888562084336414	20.2244012172435674
4.4932730551795812	18.3435303893979125	10.2455566644896869
4.0635130742645575	5.8803197309577202	25.0802150960582537
42.1300875112723574	0.6451759059297808	26.0964026853501849
40.0923954565590392	35.1389449392533706	26.9013741073673813
15.1012629276489321	39.0752629791471691	25.5868826908688440
30.1367982420318263	7.0599705459648865	9.2269791454912351
28.4351090977366319	10.6543342971217143	7.0076163785269321
17.4943818762150300	40.6042293778927075	30.1854037915711721
15.9904698731699977	3.5516257848337962	26.9970161046980550
21.0571138700646792	3.1457201638567427	29.5121249251120616
25.0515501163438579	4.3027806792612475	24.7830475439320992
