Li F
 1.0000000000000000
    43.0000000000000000    0.0000000000000000     0.0000000000000000
    0.0000000000000000    43.0000000000000000    0.0000000000000000
    0.0000000000000000     0.0000000000000000   43.0000000000000000
Li F
 2500 2500
Cartesian
2.1569173135828863	0.6123825480167079	4.3748079558123223
6.2647313636352058	5.6752853256012088	1.0794823506831517
2.3148480287952644	0.7488965925233377	2.7364964481474665
2.4867731555038537	6.5206608309364151	1.7348700782481943
3.8373317483605449	5.4553213331700325	0.1354539913660430
3.4883169752706009	1.6447672150140651	4.6074875459274827
5.3843582691042151	3.0360557100861798	4.6235810667865600
4.6186306992220940	2.0694735066927956	4.6637109756510284
3.1774905710836499	0.9982316313862598	3.6253019294860240
6.2878621598997357	2.4944593558653860	3.9956604679608505
3.2811505827404335	5.9350621639019376	1.0615387207738973
5.8399830546050939	5.5878017952836165	6.3758050453423980
1.5947358541691388	7.3314386698453111	1.8078435666943629
5.1897525371591771	6.0635684949786270	1.3823218012279956
2.5549719310342827	42.4503613281450143	4.3989494566119136
40.7858204196458090	5.4027351334375515	1.5425590081357285
4.2495974097130542	4.8682309062214530	7.1249731600534743
3.7017449844807340	5.0907535342001413	42.0391127053390434
2.4987993388452461	1.3761598592137612	5.2992261654740798
1.3125915062316735	0.7340442448081113	3.4520320511116411
5.3976695539386261	4.0419151210962605	5.3033013847107302
7.0319394842758278	1.6927551000978394	3.4085355643890987
8.2874816884126723	4.8076705674141076	0.3105277523605294
11.0042803315256918	1.3572984212349695	0.1058835851039109
9.6937652894060626	3.0826174705617331	5.1336190146176897
7.2606355385945420	42.9390273612400151	3.4616510229196593
8.3253419791372956	4.9297424914934558	4.9011004601111301
9.5547773437852470	4.7298215913617216	42.2374692603255184
10.6484187730061439	2.4808144850517362	5.3969304506365354
6.3698251025923760	0.7117483352727804	3.7448690476530206
8.9887050129944228	5.6533002867452016	42.7377659401805658
8.9274968593743846	3.9433911772569137	4.9596909755448877
17.0058066781544710	4.1818056620316089	0.2142456120441411
13.9424775876663123	6.6577350535710300	41.5936610578360160
14.1073678929871065	5.0572511735279679	4.8363984960340964
17.8344510671418490	1.1395003971247799	1.0565216940320945
14.7498592796707442	3.4706070219511784	3.3151555598660165
16.1819661986561059	6.2906205445973837	42.4764331017134680
18.2908291913862939	2.7863745792721151	1.5840933119428859
11.7028847342837743	2.1531850941513841	5.7707875503309092
19.0637829669204244	1.9881762467021895	2.7835849248412030
12.1275826204302977	42.6579170417432962	1.0226799040875079
13.8591588769121756	4.7757139841076350	3.1786672525469304
19.0760298964767898	3.2037681427529354	2.4321819684584680
18.1067181515130535	1.6629552242348073	2.0955893844677576
14.7560929919866268	4.4746800191597416	3.9697909117720456
17.1929200763938645	1.4331863787741066	0.0619816511308361
14.3062502077029343	6.1062590073864724	5.4712681072593945
13.8084078721867094	3.7152558274267276	2.6479812919202121
20.2254138972707835	3.0260080120779191	2.2050271603670506
20.7200168479021798	6.7978437893930170	1.4392241448998158
21.7518610825351182	2.6432783612610433	1.0833360255646469
20.7254903935024331	4.3882999485714773	0.6941886311811515
20.5053828665779712	0.6341950557322926	2.4153432208446550
19.0777147814477956	42.5677946152455817	1.1075177765897395
20.2981315420741204	1.0911291989081227	4.2743863791780718
18.7650556239977426	6.1822868121074057	1.1825538545970495
22.6722542900769497	4.2763249405792312	0.8971371339427733
23.8198804252933876	42.9301816033424330	4.3023767852682333
21.0317149207818872	3.5784888722098196	1.5326156107282018
20.8624547876830917	0.3431539928964181	3.5166014411836506
21.7994506241089567	4.8281865530394672	0.2531972385967144
20.2517024154965561	1.8127029883234398	2.2481643149296882
19.9216586155356943	5.9806791432311153	1.1616981349382696
19.2381224551463035	1.5428378391219109	3.9023542537068057
24.6179223398612699	0.3718456136262866	5.0305259869818242
31.1138472468997698	3.2179566885765123	3.1635892949043902
25.4528681937294081	0.6185338655999912	5.8181909854879388
29.5239334704095953	2.3520458278471823	2.2679157327389738
30.9584205676542368	42.8730072720436866	5.4130380412035892
26.0973192406345049	6.2733095021527321	5.3019745707147594
26.9226186836652239	3.9597003678854916	2.3670698578896734
26.7340803330265473	1.2428043964007076	7.6481066150800689
26.4233543276138576	1.7300445731127563	2.3163732528633028
30.8837892325133083	1.8300277241660545	4.0919740454491995
30.2010663224888916	2.3721046094018829	3.2298134133426202
31.1266032765676997	4.0925626966144897	2.3331578013139245
26.7585550233518994	2.8224198357080632	2.5375941756387856
30.9760029528051390	0.8608935432685181	4.7651865000356830
27.1274831800698841	5.1018825894167499	2.2764498394836341
26.3063961052569368	0.9151107627306295	1.4965806112607909
29.7493185213163756	2.9740951271339093	1.3152363998911087
32.7239992770852126	42.1491868778141026	6.7566500218886105
33.6691633752510242	1.1627235102298898	6.0763468222521499
31.2689282929438441	5.1999280816485918	1.8089785904439715
36.3856380613050021	2.8079569707058321	5.0495581862839467
30.5225077164293950	3.8575549438070844	1.2743382369761738
32.7942782538534416	41.3507373145598933	1.5542950922768652
36.6708075210280455	4.4934232084381316	41.9074172787443331
34.9400992338472349	2.0268134650305791	5.2276498454345539
32.8519883253388727	2.3491322380974702	4.4642328423427786
36.9855340345900103	1.7999778901292072	3.8851684388193828
37.8478744501614486	0.3429331353036521	2.3095329973932519
31.8289896981466391	2.6345121090347159	3.9679050369703699
33.7144983100869169	1.8656208945003345	5.0954384755743432
35.9313832732593355	5.3436607931955891	42.2471592343287057
33.5873248916493523	7.2367585715244838	3.0479601384638824
35.8803920200946393	1.8580993153089285	4.4354582776560267
38.7850470666948581	4.3518413614570424	42.9213905651483500
40.0752745510086328	4.8489330181598644	0.7836644453767083
38.6824842127929713	4.8213530236131250	2.2188338025578771
37.9962277364474872	0.2585374296766841	6.7745696792616608
38.2094016296269814	3.6135898084168629	4.0514105626122339
39.0035153494407538	0.9405508623808204	3.2631508016143340
41.0691441896631275	0.7898419250518927	3.1317053274144255
38.4959755801922938	4.4511935156503633	3.3012384461017499
42.0755104308667569	0.1622950147289225	2.9112353165324318
37.4082137613129220	2.8515587643332689	4.4323354600073763
37.7925326395972618	1.1813906835044332	3.2482504562509735
40.1114134726748190	1.3142617103955314	3.5063861994981260
38.8899608236648433	4.7352500842239289	1.0738025357391461
39.9766240985970001	4.4046734243631001	42.6580137254741913
1.0826353509302051	9.1716664810946202	4.3865689688024956
1.3555711878339642	7.8633510593206495	0.7581701497751014
5.0068220067554439	13.5346108129141580	4.1555685388256682
1.8786724010982989	9.1308995010881855	41.8376309508604791
2.2710471184838803	7.8043017632580192	2.7984842257973805
4.1372371654504629	6.4763179682827481	1.7968308808655573
0.7259469292973693	9.2155478130526038	0.0677955098339209
6.1658188049383664	10.7012715509436731	7.0855507241466285
1.6714447338501266	8.5187303495466224	3.5684434780715564
3.2766262165536468	7.0866151247651636	2.4816255099874587
1.0156783451581506	9.9484575269254023	42.1629110792674595
0.4769717199701139	9.7639348598878204	5.2528535001356564
0.3984720376786441	8.5625650423652413	1.0335572806156457
12.6233258981913856	6.4889634021076388	4.2027495276666809
9.3146376059886791	8.8023377684336239	42.0793920855715413
9.1705716414331935	10.1108081014725872	0.7314856757449814
12.4609156047255603	12.0931242324384840	3.7172722767354318
8.1571680099055115	11.0812178575909464	2.5955701436953249
11.9228979874194003	5.0686699821049839	3.8677921466941205
6.7788633673021916	6.2195277353537559	6.0323442669535501
6.3286144275392777	4.7461196983981404	5.5643583058052615
7.2516074712728180	5.1029266086473859	0.8260102010746299
7.5015363785853557	11.5936303257149298	3.4034999235591985
14.0946231403024171	7.2676224670282945	5.3507488219879535
13.3783328857243671	8.6024999843646928	4.7614253420262376
12.9479457001671179	10.8794758025983871	2.3239175622128867
17.0490432878677325	7.5452535488804138	0.8921691229528729
17.9175094813421971	8.1223829272962913	2.0893853480488755
18.0728672587290546	7.0996622824355553	1.4654787163279632
11.4874309321586132	6.1120882407440842	4.1546595984437431
16.9347787449407114	8.5088907197686030	1.5924776363084594
14.0846691002321869	8.4580831467224709	5.7153551080223579
13.1025433463196510	5.3302140930452255	3.9420841033544995
13.2508766679164189	7.4682993819849548	4.4518858212804906
12.4675146690902690	10.9693495454963319	3.3912903897739373
15.0416937024182626	10.2103844396729198	6.4449624664154355
15.3565272630066296	11.9990999320673559	6.7325802265343953
23.7944208069060004	7.8498322841187473	3.1323313502105594
19.7851176276308891	12.1977685283546435	2.5433305686356893
22.2132799045759128	11.9646170438166592	0.2242660881561042
21.9631927742455559	8.7079689503622646	1.8631605614357616
24.2412731720993939	10.6844785440363825	3.6400057243271902
22.6527189986019089	11.8667017236083012	4.8117587967017821
22.7796859340359497	7.5055244214630292	5.0425455389560190
20.5463177866139972	11.6427298860971078	3.8941056477568430
21.0974750146426508	12.5499570312689617	1.2385142665195494
23.2917153567927251	9.5923249508307453	2.2167476825276302
15.6684579176235381	11.0844288147941068	5.8862494650559682
23.0235780981635756	8.4317786578256833	2.4660389681273180
23.6860382358195345	7.5245779787754445	4.2965135736400857
23.5288677901266396	11.2146738690997605	4.3797130054759883
22.3151809464753725	9.8528036803844330	1.5934486905138006
24.3319361031897721	9.8724562963639997	2.7827989319186486
21.4811296811989649	11.8936506515841973	4.5983813956111703
21.0635728248561556	12.0916412712854981	42.9988502511186113
22.4789097022828415	7.0048276090604658	6.0499991609349433
21.1739576406975551	7.8288141478972824	1.7255309833963239
19.9120881040913957	12.3600005312255838	1.3651630087207962
27.2516018394934783	8.4148025394325128	2.0434237223758598
26.1545017438089609	7.4096730976304190	3.2087711513240911
24.8818655537704991	7.4183603798251871	4.2949612474686454
27.4659861912262144	6.2054571660403042	2.1879045139164983
25.2445554289255689	9.0876011800993215	2.6487491446356080
31.0758565022083246	7.3315093182807072	1.9442364904764748
25.0315154315109112	7.9632905887443401	3.1367138113940194
25.9891104470717735	6.9516194090037891	4.3277713450561750
27.0676510990342507	7.2973865080363822	2.4220027661257402
26.3758027635569974	9.1279495195113789	2.3230107100599895
23.6580180996913825	5.1065254873186445	42.9785862277484441
30.1731384183553182	7.5242632656593589	2.7036468571139518
32.7617153061645610	6.6065984943572120	2.5352996571284092
35.1469501624769336	11.6175648154790139	4.4607566869434763
35.0051186756354582	10.0238284201044312	4.1309942282470562
36.4985687796230778	11.3347742573612784	2.8077284957738953
34.3126444823492065	8.0244969837650153	3.5242137583422743
35.1687397701840396	6.0758223452803071	42.7184299692198124
31.9867093379060634	8.9311135837362663	0.6286576613163819
31.8351226054256422	12.6373184132153860	0.8517189227764587
32.2400141935955276	9.7351086529070496	4.0108044608272886
30.4080293061905529	8.2455169193062829	3.5910108608837601
31.9270808976683433	9.0724408001721972	2.5751674067531112
33.3763408895517557	10.9035726202407020	5.4776662471644668
30.8051931680083655	12.1622729975671735	1.0901769758927486
35.0282424944535791	8.8919810136314563	3.8134551008675692
32.7736233308919793	9.8164251094076516	2.9215202154306494
35.7193702867203342	10.9966673828228387	3.6202802868066390
34.4867397013397792	10.7753706330715922	4.9463171066024803
31.7058780550583208	8.3402768215851459	1.6397780857889810
31.7294945766104064	6.2902451985617942	2.0509199513643748
31.3071822103497439	8.9906872348348195	3.6223028362534366
33.0522940200272615	8.6642877843894741	0.0039455259997030
39.4226405051147708	11.8066191254128370	3.7499623119328303
41.5230796624160234	6.1920662895577889	1.9843500443238671
38.9567622089863335	12.5898006420458550	0.1066968616616784
37.9370586396841105	8.0081392492022108	5.1257913471667136
39.1524889413994472	9.5320934447924834	3.9285194257067753
0.1499663258890872	7.8241090975343477	1.9604644782840961
37.4905417021669507	7.6146578156569680	6.1249201896733583
42.3333357315657111	7.0099544377416088	2.1854651669127731
38.6114088884036804	8.6129743458776904	4.3942152366805916
39.4237239189674611	10.6239452478002558	3.6555254839612639
39.8019207216361721	12.6195614382762535	4.5541314688107333
2.4253348087011846	16.3473918174080559	3.2527718810837984
5.9753296721522933	13.9035947285346708	42.9767283805585762
0.6348605106688444	14.1377699586926635	41.5650337618411996
1.7140413474159586	16.1362753928308180	42.2365115824658162
6.1346565274457499	12.3123438682881901	0.2337905649912703
4.3125766185153651	13.7161978472101627	42.9211911759613542
3.1095036664738704	14.2646651567168412	5.3596010934845744
3.9742635591568569	14.6800694729708425	3.5968943766537236
5.0299377326215291	14.2947056750741393	3.1747690325497868
7.2136624911718057	14.3279909020350278	2.6569981352536440
5.1220610412204595	14.5786466988423005	42.5109039861863138
3.0733178147535356	15.4368840627863477	3.5687511813580883
3.9654995051213837	13.9499256641473455	4.6139826611518933
1.4150846316274628	17.2530515237895834	42.3194436396549563
1.8728664432431563	17.3695447135096082	3.1871992852671456
8.3241940540333008	15.5780471038373065	0.0047118664573786
11.6222251551799935	17.2345524883979877	4.2185955404715703
6.1957230567640638	13.9476828614491222	3.1006037351698228
8.1608523777331037	14.9382507551038035	2.3009653195623772
7.0813425277149573	12.3854960027449792	4.1875044752111927
11.0693135578541693	20.0117995157893951	2.4992949199254961
10.1356900346666343	16.0568202726958091	3.1736452972930995
9.3637940083431026	15.9236729333280564	1.7530677276684374
10.8479987715330566	16.3964628775839714	4.0658488719037953
12.1133226183038580	19.4448849851894821	2.7224511085372667
10.3328598568113641	16.5294953698552298	2.0727280697541755
7.6069732328459487	12.7366657154580647	5.2207839042884663
6.1220698157443572	13.1166063536088853	4.0219713642724502
8.4658779005703071	15.3659078331021561	1.1864437437689341
9.1169663046260325	15.4466790551053794	2.8861416953378658
8.7118883009049259	10.5819173983249986	1.6963594409947598
15.4838444267486235	12.7188757464398634	5.7720562438862322
14.9628168776805897	18.2279321044912876	4.0661359905215866
14.0075588730801712	12.6899368046417749	2.6771361195331504
15.8278831421307107	12.2890981509262556	3.8770633837599964
12.9225870215360121	18.6722448465636610	3.1776935881453681
14.2658846035684483	13.3947746458377157	4.1501760656252449
14.7901456044106077	13.4734102762630812	5.1978806429015645
18.1846493851572788	15.7382026784786664	0.0319839360133904
19.5346540256788330	11.3689209423150359	3.3547660689029639
15.8601774085622136	11.8322525863730625	4.9623445329344245
15.0310087737149978	12.9258391488498869	3.2859769488385226
13.2546358078718551	12.9609886261215763	3.6383162228767940
12.1654160828998119	18.2814248309216367	4.0916279115020027
13.6091950635971983	11.7936122292065360	2.0292658955107483
21.5596237031470856	12.9408424682609837	3.9605399101425141
18.9433424941883430	16.0537244563268651	5.3101290721869461
23.0555398877364901	13.4092815279234969	1.7616907177468397
19.3692997464559369	16.4106726965256513	3.0472705091299033
23.7370111595522779	17.7729022238907142	42.3726438417601656
22.3241895173093106	12.7056624930036808	1.1624092873915239
19.1745582384586513	12.2759874091937622	42.2563557087930164
22.6398093317991282	13.3665587884405621	4.1997468795899815
20.8173917311590237	12.6481445845360483	3.0567106194714579
22.9208984565680822	19.0397200467154875	0.4124497216423172
19.1307736949040148	16.2296248327912807	4.1512922179663247
28.2191674799656802	14.8715686844267783	5.1117050430502298
28.4899498641635169	13.5893676922225684	0.7941142570483536
29.7408722755091937	11.7507601015541727	0.8372392595292797
23.4911178480531184	14.0133804922538605	3.7158671858881629
27.3509893345835771	15.4034066946230883	0.8086053589004066
28.1825221347909540	14.9615026642328015	3.9627299359282859
23.6315741938995352	14.0221498301456453	2.5549113715150651
34.2189678995978994	17.3132734167532334	2.2204826116562391
37.4587697842650300	14.5358409348217918	3.4723058714818542
32.1502296310405313	17.2465736826123077	2.4252933310385520
32.2619877393225494	12.5192488700936337	6.5787371898442633
36.0543524390069408	17.9003430783296444	1.2573664845668837
36.0191009701274396	15.2937997876894602	3.9846630375131311
34.2500221347516387	16.4290161278797306	4.9974697541565423
36.5300326950144694	13.4931496499249839	2.6216578462110847
30.9103589014119144	15.9461707148821628	1.0098783093457382
36.2701188069238327	18.9123448477166605	1.8894298903741560
33.1117121513945136	11.8838808949859462	6.1134682139687957
31.3560374590923701	16.7291254508967526	1.7501923134758841
36.2268203064935008	14.1393758439445634	3.5831812983734102
33.2022580901619051	17.7086714638976659	2.7005537311314414
32.4322429661409970	13.5433274738906313	7.2676413591759585
37.4448486931949276	16.3422626656968220	0.6037656959315362
38.0178001739961218	12.8407422689930861	2.1640367915119700
38.0405206646587928	14.2556811528436356	1.2191115378906017
38.3522050836040904	15.6658362041593922	4.1935416628062647
35.9247937698041397	13.8025837325025051	7.2778931046037947
39.0866181147093670	13.3925715191970003	3.9871726679293573
38.6923529836554465	12.5896380242096981	3.1271311227505549
38.9908811453311941	17.8452819389303450	3.7321859010172247
37.0409549726181524	17.4186184881402077	0.7797835679038675
38.4353236819205577	13.1105308278581507	1.0229495183720010
37.5569073856930657	14.0829129537455220	2.3248832480800705
38.5732285366289744	14.4870695310243942	4.0406728939072245
37.8032422902577068	15.2347893929732248	0.6047952165629602
36.8369918118447544	12.3609551821552071	2.3469483612056750
3.0752845829254878	20.7570104958556634	2.1128877282301279
3.4871724492259304	24.9602718794382419	5.0591174506247167
6.6235537609030741	22.2804410789119061	5.8773847458231039
0.9554370756527669	21.2179283171250717	5.8219724964483213
6.4073091876910944	22.7470408616269459	3.6148807011834201
4.7702261749163757	21.6318427898061358	0.8238543466472938
1.0142972648438684	21.5133081262954775	2.0960486741458251
1.3673499899048465	19.9232549069806133	4.9358136427081174
1.4086034691847427	18.4214496737931981	3.3090178431973847
1.2303333626704780	20.6891802473795430	3.4818236997541532
6.8123904094847250	22.1242046974219910	2.6465588494458814
1.3093032453285993	19.4746948954644914	3.8184265862181150
5.7827022578694178	23.6018558657197737	3.0026691874556852
1.2307711597575119	21.1024616323627647	4.6369480847470657
4.2663460628436507	24.5744468320188041	4.2339139796374319
0.2184839478921951	21.2637633809751350	2.9284496199300025
0.0612673508117440	21.8386863984024053	6.2606843991618959
6.5606834199033495	22.4651577540386320	4.7449537539157882
1.9787703639304719	20.9477689714895767	2.4924687455583454
9.7409524455310841	23.1046505331099397	3.0862289026187266
9.3769243845099979	25.1198169669497915	2.4136734605451187
8.9737766992683454	19.6937923592847994	1.5336365197359172
10.3659761483002910	21.3944762087593681	3.9421593416741860
6.0534364583812232	22.9000168310056118	2.0436058785838429
7.2727210473042696	21.2087225079620723	2.0871736413008972
9.7209946163425744	24.3692483086435132	1.0608559313202890
9.3609349329015981	21.0909666993508260	2.2530043251307377
11.6006379097353260	19.3453034900856267	3.8531050349331006
10.0266076019663366	20.1144977984743747	1.9222992038747244
10.1531726877121464	23.0303223410628135	4.6965096533497679
9.7973680204509925	21.8972331205469715	3.0163816583769489
8.9927342465240514	18.5958924276569952	7.1199930116103696
9.5712948476800026	23.9186041889180139	2.2101238575819173
8.2826658650191263	20.6164607690891835	1.8975798573402347
15.9093383496361955	20.4232480348473331	4.9446347784199913
17.9833442717924790	21.3219060612595683	3.1199789094627195
17.0981238261763231	22.7418493204141861	0.4515397107188887
17.1898510744589856	21.1595845004981058	1.0439422865505472
14.9313070468379401	21.8373783258842060	4.9188360112966594
14.5992399199885909	23.8480403446820581	5.9688530458786797
14.7406831168664585	19.7909772306174929	3.7088078539037421
16.9480170599058617	19.0945713960373631	4.4323007341528990
15.5628900678755553	22.2382597610984583	6.4022727359743925
17.7280545811221266	20.8245343493911470	2.0546507781623005
10.8766493220099090	20.3193361286373921	3.7321649581830498
17.7118558532650958	21.9570513170011878	4.1081982036237639
15.7419221078202032	19.1199847411247426	4.2753055901565293
17.8423275783671365	18.5379774532091197	4.9695185614695951
14.0909185512325870	18.7920224854750657	3.4901222634377609
16.3396966390291318	21.9503210419193451	0.8707494447077460
18.5100040429073083	22.7996939352411339	3.5959595803920359
22.5009868229288621	20.0611675987746665	0.7936003069992660
18.6845636255063781	21.5489342120084402	1.6520924786491935
24.7720742000300653	19.7945104823744593	42.5220763789250569
23.9264595499214821	18.3287824528762116	0.4115112589109533
18.0332629772274373	19.6215595126642910	5.5588038702602542
23.8756646546767399	20.3024451744948990	5.7923230704274005
23.6213344639526568	21.9786430868058851	4.2783933847527962
18.6844670252850023	25.0217707395573044	3.0304926088617856
22.6127778054399791	21.8108580034632134	2.2763047035030266
24.0059135914187252	19.1622441612659884	5.1278818364822198
23.9900186385738614	21.2585794049434362	5.1063967144278610
19.4319398584793390	25.6897602942351249	2.3209009866574553
18.9026663077484365	22.0383951769276365	2.7291153534063919
19.5005011421662608	23.5720720455029138	42.4778986175945761
22.5643151958827488	20.0268830431205522	5.8928807456313592
23.1268862902827443	22.1963629465896517	3.2451439118417973
18.7020745922397822	25.3786554211948356	0.4281631342148520
18.5384310320474093	23.9783455084995012	3.5671408329311114
22.4054470552453679	21.0120957640477357	1.4568926766941961
26.9699657034805824	22.9844657138525079	1.2413140226206685
26.6571132892167029	17.6091439792230808	0.8353459399270456
28.0910822179849156	21.3331417552196143	2.3374884403711640
26.0416078237232860	19.4763691333900724	0.4662254861190657
27.5881858112587892	19.1864030712700533	1.8482142375514803
27.7507286826087416	26.2856437804225003	3.7247931108227603
27.9963522963461990	20.1774854422834764	2.2766840919533409
31.7658746794274904	21.5876410601253035	3.9372302629915854
27.7027570371819358	22.3024520219278557	1.8231915008669679
26.2147307794049240	23.4938575270353347	0.5071659631129942
26.8522103928513722	18.7685737463167612	1.0224991243429697
36.6024030232519380	21.7512126636860863	7.5460468367104250
32.8337598521267182	17.6148849361722526	6.4215320767413937
33.2511911637671318	19.2827403687800505	3.4309913924569138
33.0460580367534007	24.8157345223801329	2.9897226990902670
32.4281530475409383	20.7183164724572997	3.4940945850938219
34.7344815501954187	21.2623273535834727	0.1615089247584602
32.8515454331631815	20.3333805809104256	5.5000522403183485
37.3175232518064206	19.3084778758005200	2.1732522436526795
33.1345075375785356	20.2176222045976743	1.4466081520835252
31.6910536861615810	21.9104566523118827	5.0525150003136066
32.9938434541514809	20.0271038864292663	4.3558123697697679
33.7997607581112121	20.7787447866409849	0.6769908237478653
33.7792868689535268	24.4355982191348460	3.8099496348380173
34.9350748027172529	24.5132371218244174	5.8192441423969647
42.0784486542856584	22.1712525228929778	5.7346367254755046
38.4957974798836418	21.0279939802606677	2.8024064766982972
42.4000577082286298	21.5599607137305433	3.7198435033460169
38.8972676761763836	23.3811453028065905	2.8367811603944317
38.7739017047467343	18.8748330838089728	3.2811729880987714
41.7860216332458663	21.9403502532455548	4.6262725824274256
38.2495429293820450	19.8342429178216690	2.7449112957134485
39.0458904998746590	24.5538977425705127	2.8124441079471660
38.3476534074383153	23.0019522469343656	42.1259418897493703
38.6974828249564951	22.1969927275644814	2.8373679395331584
42.7963101610090817	26.8699568352547722	3.7615700130546923
4.0307705619816323	25.6961898805087081	3.7331201379642063
2.4698589789621908	28.2643933429036593	42.0865871276761112
42.6853639941292400	26.0858710687902793	1.7021700246457261
4.8875117501437195	31.1362147028935361	3.0062842632526463
4.4925059931450777	29.3148617024049010	42.2732984546742472
0.3312246916208085	28.9048997067537456	42.4143513362402516
1.9939328605440239	26.4816252539874917	4.6265308623539605
0.8229247796814801	30.7247552136918536	0.4473906223716606
6.6159265947226089	28.0207215194867061	3.8131578942486581
5.1870480596350346	24.5498185863219298	3.4323574787316389
5.2382052023615309	28.9534042079795846	3.8288662522678623
0.8296298934516239	26.7800186630691641	4.3552683345359400
0.2441743694528958	25.5571724713492117	0.8316136485569329
5.3704758845526390	27.7681313654825068	3.7330139280944006
3.0134008521723188	25.9157888156775051	4.3604358834922134
0.5113951676435402	30.9281512933685363	1.5712831069163793
5.0942522509655248	25.7568915738673851	3.1692290306897042
11.0286860965204081	25.6014497941137336	3.9009828560550672
5.8069589182707171	26.7126052953536792	3.2604559636167010
9.7948826009811079	28.9573329052307251	1.6174247483996582
10.3750991280904667	32.1954578136487868	1.7899381864546171
9.4538452309682199	30.9448441063437798	0.6403712083202485
12.9992690311296162	24.9631022533411908	4.9239975628514081
6.9740668239982542	26.9828474986731983	3.3778935546706657
10.1016616257164635	25.5832054960193105	3.2146853441768126
9.8636667628485153	27.8975022736079801	1.1104931392119064
12.0509799557853121	25.3844453315310048	4.4167149815294673
7.8083255603208199	25.6720527690075002	42.0011534762422301
6.4822166982352414	29.2040286964390994	3.9510974274139441
9.7011945311418994	30.0903635529008575	1.3867226473113687
15.2787551136315916	25.0649176411349330	5.2139932804540727
16.5811040583994149	25.4260406414822135	3.2916947177696976
15.1021345926857613	26.1711579735098212	3.3958512322507439
18.3272236059304063	26.5145084988916828	0.1590905074377320
13.4217998663344513	29.2985315853115935	5.8707237402145340
14.0964553453767518	30.4135331087008964	4.0868529262725311
16.9662754556527275	26.4253867833509410	2.0105896284368248
17.5986939601770445	25.4937728904053280	2.6251575087572618
15.6847048730254048	25.4515082545694469	4.1589718269998981
13.6943846179963895	29.5571988662692320	4.7675419238130559
19.2682872597331389	29.1766350924787012	42.9366067796806448
17.7824831338627973	26.7043195081164484	1.2164336220393615
17.7061830012651207	29.9212421618338311	0.9753398126762767
15.9269411452971301	26.2521660436818429	2.5665252068913040
24.1874753430475558	26.0766911923232847	1.2458689156405405
22.4146827842689973	26.8222303089729799	2.4060726840784601
22.2569254285042213	27.0385938522023963	0.7931409753988011
22.3181204074223203	28.5815500131789548	42.2045824498340210
20.3718055109005540	26.3115526556577599	1.9705125125817711
22.6430245064617104	27.2866750415407964	4.6817810978047794
18.4557695233624628	25.7328309642867978	1.5826260286563536
21.4241845212806759	26.7631760970393344	1.6656196314174241
23.2218176033219947	26.6915841839632257	1.4878200903447760
22.5669092872243766	27.5306304457157296	42.7246467967546124
22.5639329720064303	26.9723041737269504	3.5620869410979368
25.3657864515422133	24.3026839487699284	0.3265990418918137
29.7624659220422423	28.0903210773983432	2.3643853238670425
25.7340451444838223	26.1549587245835724	6.3986270103446374
27.8457390906158224	27.4437430295760976	3.4092989318058184
26.0968302012624278	27.8867379307830205	4.9967515369422237
26.3641102539378842	28.5523516334060616	0.8358576052062791
28.1640931502990632	29.0863493997394258	2.2073371604064436
26.9501743336787278	26.6001416494384024	4.5272164260313650
27.2653720051240818	28.9411098420608965	1.4563658017950045
26.9101071005060248	27.8188649139171211	4.1494167111489260
30.1523547969744037	28.4009772156039304	1.2464094174708515
29.1613509988839859	29.8023641093848894	2.0816568027807301
24.7487861201541470	25.2961493204148198	0.5746070258937300
25.5132314896254648	27.9984210238254789	0.2553183881735774
26.1095759967746268	26.7661042878687958	5.4344332647494920
28.6229318251303546	28.0997441331779818	2.7671666102905013
35.9983928359937195	27.9249929764121312	0.3672209770192018
29.9996771616397346	29.7624715685805050	2.9254630087065299
33.2639660633280556	29.7460901228045032	1.5666644342802771
37.3401840144288713	26.6610545964369905	1.6199272415625565
33.4036222388740640	25.3278598021027044	42.8956635402147839
31.4195163436364631	28.4265172749150423	2.1077683657901614
35.2820963630523039	30.0854838461769596	0.8994104421683565
35.4085952487070728	24.6603997283724858	6.8741847549955795
34.4433545852941378	24.4028957845801386	4.7688146183741775
32.2010884018353707	26.2614605844237978	1.7082691318774088
35.5041063822568148	26.3672401333223085	0.2668344915607041
31.5910033605362202	26.5756181889369643	3.1899504914169832
31.5634582140037310	27.2138245020904783	2.1889235841297632
30.5929829880264883	28.7441542546723845	2.9914766792457601
32.2444347408597380	29.1914330795798733	1.7045575203090733
32.7890907833103853	25.7374848934211080	0.8393694696497366
32.2350607706740959	25.6525850942400950	2.8174860346807797
39.1478319315664507	25.7726085768259949	2.7153205071670605
41.6947060242401193	27.4114558365872867	5.5494824332035932
0.7165047622219496	26.9214686508864744	5.5638936732305435
39.4192408024253425	27.6573594742550135	2.7611910373170088
41.2100897854594379	26.7200250062572167	3.3370684300629594
39.3411977191184263	29.5579350626236419	5.7962237963949379
38.3038041624408550	26.5716183309228562	2.2966129284578152
35.6450505632606465	28.9835014378056606	0.7441364290575339
42.7063705472092394	27.1112926719437191	6.1649919077351099
42.2693044240857034	26.4952111564346531	2.7309409201031065
40.0590337188735788	26.6620218349890195	2.9924633693207343
39.6682597633988010	28.8538939031248773	2.7562758141113224
41.6807958319805820	29.7692832709760111	1.9871624665662206
41.7580411668016893	27.1428185779807656	4.3735989938905702
4.3357961483642589	37.5681647089792747	3.1112379572174276
3.2663637742693536	36.0328762390013679	1.9098015975127836
5.8612430369519481	32.4243242556739020	2.4728612444505589
1.0208009888611325	31.4642070173461335	4.6352518200675501
4.1226475607197735	35.1808810510152341	42.9743128248253399
4.7649732103319256	33.1509118262992644	3.5493346259509777
4.9659503555951305	37.6306188299365516	4.1227476528982692
6.1256164938310285	31.3354923705854951	3.0081663255023234
4.3712529155894542	33.4506959075393553	4.6375365507865842
4.5558616629135775	32.2563802720619890	2.7760928006004102
0.8639360426441358	31.6491093165977162	5.7591507044459336
42.8922352956939150	35.5172596544839578	4.9392926272696549
4.9228333108013356	30.0869598596032723	3.6002946639893829
6.8586988447558435	33.3813462840641506	0.6111477052500286
10.5000729634665237	34.9084111874527210	0.0195352882861809
6.1803623919003305	30.3067990367082807	3.6019836172752338
9.0780161203048717	34.1794854450832943	0.4861530270714006
10.2488328875061043	32.6168578875317294	42.6776170448047978
9.9398111302014058	35.9794663774535977	1.6988792253864442
6.8688754372568805	33.5820009328182039	3.9991795285768061
5.6278445437944722	32.3924290826127077	0.2634088350474212
11.0913375411130009	33.8690648881410397	3.2677407722564284
10.7892651870870928	32.9487076948469664	2.6286613372499361
9.6377133638922992	35.2215877021307051	0.8542613781233739
4.9535376956307759	35.1052593963137269	42.1535172516965417
7.9900164060767285	33.7362732090778437	0.6047490954842124
10.6935974160507463	36.3050402871324138	2.5171132136804606
10.0427965878033110	31.9645832187487109	0.6791504211383883
11.3729390082159814	34.9050446443423894	3.8200367942631805
7.3704550508246180	33.9296675062172497	4.9903066343012696
5.9526011682909079	33.3467132476926977	3.3187323295822826
12.0102087450822985	36.6185100403762078	4.3052044761514789
6.1680968392137672	32.6317453569331590	1.3069752497431240
15.3827829118907857	32.3007521318400279	1.4200793795439315
14.4862672988749903	35.9635551767117576	0.7874097772037740
14.9917737059975451	32.2951452915879358	4.6454661156833472
11.5820030514914549	35.5731362140124432	4.8369456539368967
14.7756006871224468	34.4809512105671061	1.3328493051443324
12.1345917378321584	31.5261669966066975	7.6008063097532688
15.6002325497189851	33.3510354202485360	6.6531214549627817
15.0170902657393572	33.3372640054047551	1.0097316266241441
19.5054929909517121	30.7421975114463564	1.4932835132147904
16.3032682641117574	36.4204222220977130	5.7621708782582024
14.5700002968134559	31.4650114624632842	3.9375094943312159
11.0436393602135787	35.9261038082591000	42.6820078009359705
14.6630779238448259	34.9240998539483769	0.1719192909917782
14.5235150548497778	35.4773421667252578	1.8968286116624955
15.8372325880028306	31.2550118519188658	1.2092496088737532
23.3238217912956678	33.3872227904191234	1.3737842380709699
20.6847010274467529	33.0048708002799742	3.9739109059443241
19.6019819961372832	36.3872307029536586	0.3225862424430861
24.7327097342595899	37.1016407196955527	5.5715141247537456
19.8014439049070354	31.5990737230806999	2.2179084576890156
22.8858707827857906	32.2666811609100108	4.2756205315099605
21.2009503023384624	37.3886978241912900	3.4932543603702153
21.5787007061433158	32.6116927069033409	2.6810228688993947
20.5340831252528915	34.6721949552708395	5.6201204256423960
22.7739748894788931	37.2473321523052476	1.8146529396439601
25.2011537555377707	33.8872535072297154	0.0768950715712761
22.5386435374995422	37.2747941709268957	0.6121958108808560
23.9322835814489814	31.7927721413641393	4.0982741739235680
20.3276248067107659	37.9794872519777726	3.9884816097011679
20.3817538227440949	32.4194100060000139	2.8568429659137786
22.3995600210809087	32.9203381179394157	1.8882448124871425
21.8628937429234433	32.6460950074623213	3.8666625752932235
24.0541272139855380	33.5546868876545332	0.4571390373207975
29.5470275083643514	29.4812356295856794	0.9769993866268348
31.1274236714049160	33.3248506880426802	4.6510640078272587
29.3250522782978713	35.2579299289665400	0.9144263149439327
28.0984907939501447	37.5291109964279173	4.7966610911423135
26.6643432967070453	32.7649306598422925	4.8436424447711692
25.0713511216667619	31.7079077692079352	3.8931978001895176
28.2668330235936054	34.9605240097528949	0.5380265872125790
26.1586496345554238	32.0858702146229717	4.0406518274360010
30.3673241603562190	35.6012586523121328	1.3209722278493130
26.3743391997505867	34.0292070670675955	42.9409274868466611
29.8534336473542758	29.4840895169913040	42.8119901169057826
37.4223608042397871	33.4310056584538913	3.5505314564653925
34.7839405863749533	31.5255831834555771	1.4818678470102624
35.0828251294654834	33.5245077294606091	42.3088336284066102
33.4290393310809364	35.2833179673089674	1.9901170641920831
34.8791702970441406	34.4390681879919569	6.5795233551053958
31.3972105773259180	36.0034157172346454	1.6869767142135688
35.8570119762701864	33.0120758639308463	2.6315343969940659
37.5347736265519529	36.2510857203688062	1.0446993476590023
36.4954712654912257	33.4038831240725642	5.7514080235289358
35.7408728567560559	31.9469890241571299	7.3739391473575298
32.2165783089461044	33.8512648574763375	2.7172861903961532
35.8845928486856565	34.1532262145202168	4.4856506369516138
34.0452615918239090	33.5108684074086227	1.4757643650344532
35.6125760009412033	33.2829527041486841	0.8266623569934293
35.5011923988835036	34.6647180420208443	2.3493573787196969
32.4758473412953421	36.0073026716184472	2.1616995146964180
36.2296713999853850	33.9726854957024145	1.6149868153732994
30.8989064998853031	33.3073522331792731	5.7877199053076316
33.1310509473280774	34.0735933302380332	2.0132063011184131
34.9194417894112377	32.6594676730559641	1.8836829302916440
31.5529132857037027	33.4389389089045892	3.5758691632057320
34.5353911080475697	33.6254581135029369	0.3859505816651922
35.6154726804312176	33.9876077886194707	3.3401385849234133
34.6089850514518318	35.3442743470022123	2.0373766439750534
38.8424351244965962	34.7906348825315206	2.1576272842742266
37.3874748113372348	34.1958128825110563	1.7103892842532971
36.4548036904769859	31.7627961091203552	42.9907160308779979
40.6101639802842342	29.4360506577256800	2.2926057344914614
39.0644044208429264	29.7259734362771262	3.4741496345524836
42.5776196672212635	35.0172801666808269	0.2931643798056056
41.1601270823746646	34.7830678984285200	2.0855316222950813
42.3990784994292653	34.9595442821940736	4.0397944225838858
37.6271092083203413	31.4990569668404099	2.9173687118621623
40.4320765118110330	35.1689382433136473	0.6974842519361512
38.5046539287052525	35.3420527390754842	0.0666018051279384
39.2661171057159777	29.5822721189112130	4.6394746208853057
38.4619863256151859	37.6871312857145071	3.6843698121471746
38.0117709053477455	34.1253624564377347	2.7383661795600607
41.7545379011036744	34.7623036162504775	3.0995435009539034
38.4142614499191879	30.6507846242866329	3.0643751072112018
35.6986946317684044	31.2285664264359930	0.7392411057890124
39.6665096995935329	35.6029634185115924	42.8989008404660908
39.9660724133093694	34.8952056993042206	1.7937209403827470
36.9348035513379926	32.4786757154855366	2.9190708599341781
3.9954131778796649	38.4995660501443098	1.1809285538147820
5.8227231817346601	37.5769748938908847	4.8999113172080548
1.7187414931981151	39.0793007281288354	1.4133010380387703
3.2916276007192988	42.7349355505578714	3.4665180042534174
4.0424567709100829	40.4282531213219229	4.0048715162872597
5.5622818793417643	38.2844793691202270	1.3410402549106448
1.8989391239402842	39.9899130746952949	3.3863977583005953
4.9134578106403879	38.4589357999554764	0.3788453789541925
41.1073906439026828	39.5950414867311693	7.6399141003347282
4.9744892282695030	41.1313047781845569	4.0142243624904461
1.1259984718144136	40.9027129355992898	3.7080297625537146
2.7620542873863534	42.7018559308883425	2.4061003786770452
4.7095419018789624	38.2631870474670563	2.1709461480035692
2.8322131152744578	38.7180667732815351	1.0801516951934833
3.5226060930018392	36.7633069482677968	2.7716488324521884
1.3320928293155578	39.6569288852707729	2.3836587498605688
1.2002445788923666	38.9450508836530602	0.3145392414840770
2.8701025544928700	40.4207639829778458	3.9602645294609897
7.9501140435768471	41.4696428155151793	4.9070810029492309
11.1331045507752293	40.5931015886691426	5.4169952301367772
7.8116694742682968	37.9568913103947736	6.0106571910692503
11.4933194680261579	36.0567407212056352	3.3506465018486300
5.5589051203652833	1.4935484189432822	4.1557905753824427
9.7328426567223936	38.2629294136837572	0.7393336558712642
11.1443277327649426	38.7992826289276493	6.3270877332168407
6.0479298012937699	41.5647271551992858	4.0302658934198723
8.5856441269850752	38.8218990252230824	5.6503894016130323
7.1773762175694467	41.9187522907266370	4.1238400456189073
9.7165467963798697	0.0158402214954734	1.2732291094406534
10.6270797234752443	39.5337703456567837	5.4824001725615652
8.0236241429275221	0.6038878672192552	2.8316794858396266
8.6392830596022989	38.0948627490179916	0.3836553879417262
10.2514208367906807	37.9306908936744520	6.3264589403126079
8.4460986089313526	40.8703293133387362	5.7610952279935566
12.2098629676698440	41.0234328263299588	5.5061697425679279
15.9145737014437838	39.8770475216667180	3.8717813444744422
14.4187337499178270	38.8295465495266399	5.5233266646268646
14.5178451751057231	38.4309628559413028	3.9506909638544898
12.6446788703032702	37.5010507746001380	4.8829776306990711
15.6069442191022798	38.7409450636647179	7.2621937607314049
15.6741020356849070	37.3886703865745886	5.6612740388740601
13.6730186298599694	38.0382781694052809	0.4086547874311170
14.6879247167083289	39.3315567395221635	2.2005479489730368
18.0654977205411420	42.9854519468361715	0.7161181714832441
15.1707116351986642	39.2031115802229380	4.6189633388109801
11.7999361612990903	0.5463154697310453	0.3812910353926369
14.7121083124940135	38.2351319366096476	2.8049926840417241
12.0536569101424131	37.9736051682986187	5.9040670663435337
15.2511507485119679	40.1130503869217350	2.8839434530853336
17.0868313640797247	40.0641587392006642	4.1051626176729741
13.7253713706344307	38.0460244548373865	4.7948061556394537
12.6162346007019011	37.6274175003872600	0.0628269035630761
14.1356183212231343	38.8656023023319932	1.2082505999015123
14.4568132348848088	37.1418481613126019	0.7166473370962853
19.5008898871306258	38.5999324720458361	4.5232675535457645
23.6630219320052468	37.7576379188703370	0.5566653886201370
22.5746347326770334	41.5469566436853199	3.0232185077487532
18.2736680016995692	40.0535961758169137	4.0497414371528553
20.3558177164537106	40.8407014165464375	3.3481715758148654
21.6346300646022840	42.4986293570295643	3.8287458761474418
18.4409554750953184	39.8554040319186811	6.0357946491756458
21.4014521349350062	41.3910456405692671	3.3729421812081282
22.8475047029280844	42.4454654354578551	3.8399621936826738
23.5349903330675652	41.7607929768645860	42.7008386517086294
19.0172788395682026	35.9384357500981650	42.4124254663210749
20.0189764172013120	0.2071091236356050	1.3993098821798058
18.7651315506854033	39.3837123081028153	5.0069349314381437
22.0166530528412316	37.1369479280620354	2.7039382582167071
19.2672137030661439	40.4528648966625681	3.4810286276689335
23.0530010918091932	41.4628888637678230	1.9555375422036987
23.9296664783765358	38.2009859422812710	42.4993353879740710
23.9581588538177535	37.6127378683284945	1.7323211183891303
24.9817641217502100	37.7675576215283257	2.2893410614122116
25.5031018457241174	39.1548336590141233	5.5135832355346652
26.6806277290528300	38.1723713778946063	1.1246645042888661
29.0449456126816763	41.8870577022821138	4.7518136963570834
30.0512742547794822	37.8258884626353407	5.9719105225585389
27.7601914365944502	40.4719240640149209	3.4297927382192972
26.8887066328023714	38.4089723385285851	3.0679224715771580
25.1501255709912215	38.1050185584426941	5.1535887111606931
25.5941695250874233	39.9991541603731378	6.3073160040109082
29.9701707730799747	42.0838728273660365	5.4538955672588489
27.3561902634879921	37.7245469393082544	3.9064890713153839
26.1236201756848736	38.0295716400233417	2.1546672161462048
31.6197074777935079	42.1869326116797794	6.2471578618101677
28.3327218512532610	41.2572865227266661	4.0707867735822383
27.2373328080020833	39.5527118101970458	2.9340944203336692
32.6980700502630057	37.0571551156994445	2.7874184466413161
33.1947205676773365	39.1992174752443603	2.1335934681518394
30.6119252951902112	41.5704255883341673	6.3225170657797340
31.6381128952615214	41.7722037816760192	42.6125399160298528
31.9118058963045499	37.6435370019144813	4.8827948858673755
38.2273300540147858	37.6615408912051777	0.5281600407239867
32.1579929822015487	41.7931303738975046	0.6746166207730153
32.9652106969603054	38.0646691815750486	2.2183826652693410
32.3183311476101807	37.1364729709490575	3.9208117496206403
36.9024912358475063	42.9571112931179400	42.0330338422135767
38.9960565916110724	0.0113570626580213	2.5020312113130685
33.1723448688435880	40.3655859822174392	2.0536917941056996
41.3697032120238219	38.1507990662555017	5.4146974554420613
37.0142216044490908	0.0217871323884005	0.2081210972366184
37.8975318064244249	37.7250603541217231	2.6722817076830827
41.9024754811334219	42.0910727974269392	2.3875811326825134
0.5534108495122997	40.5730550528833902	2.6759494425977106
2.1084005127983616	41.3596774287355871	4.2280426175359729
0.2340974453259146	0.3217545417430556	3.1935916505857902
40.2620874509939384	38.0094143824981927	5.0874080403069977
39.0145259949213568	0.7796235229098809	6.9861933448806699
42.3860383037811275	37.5954523200961006	5.5615081844538006
37.1764436721569211	0.1716765921747797	1.3462997823215663
42.6570259569871553	41.2241358180271789	2.2683730251901726
37.7095986395075045	37.3142608503431106	1.5836915391170054
5.5683778164203446	5.5174064652699180	11.1695578856253999
0.9292789586143679	2.2357339005998504	8.1912108557733205
2.0059685717284723	1.3976831859811722	6.3634911985698253
5.1349187100095230	5.6763045029764205	7.3946124253667538
2.4604261124903934	1.8199908585364888	8.4884535465785778
2.6373775841021092	2.7241056321903629	12.3948513721892368
2.1772879071867890	3.8092510162141333	9.1980808313032156
4.6651802975393419	4.6033499362909138	6.0626413836930562
5.1861858141555670	6.7143851035844886	9.2888462863968044
3.1279525420198531	4.3941628686499961	8.8898714623432742
4.8550957773289660	5.8301980850430359	8.5416488780818085
1.8064399496415202	2.7117227273758742	8.9444395160163221
1.8133434758869587	1.6287141386151840	7.5009430078430235
1.5030657738274242	2.9421510464452338	12.3308073429360885
6.8400060448834736	5.2872364558533205	12.7459736755034339
10.9422556266159408	5.1035122763485559	8.6043696914879657
9.2541319507533295	0.9881843886851333	9.3272699418096661
10.5742425241838465	2.8187928609192259	8.8400163099785214
11.6873573910866106	3.0517549289250168	11.7206816398174549
6.0649554751037025	42.7235360637482415	9.7086657030927519
8.4653872370810550	2.2182679799104341	12.4686359245274190
10.8354274100901726	3.9388105561412026	8.6338100356096295
7.4284673064757207	4.2723690018185625	12.7893122379733359
10.0321329515725512	1.8046993042872452	9.0320638791215675
3.7908346359621152	2.8555609331120824	12.5089357285518705
10.9064365940103443	6.2676375646889921	8.6484265384085877
8.2580600870644787	0.4455546881508102	9.5810946212167174
7.3353415421400436	5.3895998979092008	5.3591207039978812
13.6131287831351884	3.2758132133896996	6.1721657185602421
14.2091702148977799	5.1191868306156412	12.5598605599244380
12.3004182414319505	4.0339920001703815	11.8065073283236597
15.9423551011259779	1.6736843717461170	11.1101509053778482
14.5469251364408727	5.3114505336068891	6.3657035907609583
17.9168042994416261	4.9515045301705669	11.6469878803318014
18.4577781887424699	1.5330720641928750	4.7832410547838098
17.2120453449148378	4.9122072694067436	8.5057632903285469
15.3241751561217079	5.3607335584255811	7.2431633678920857
15.1725874252391204	5.6463943055357522	12.1325207020234025
17.3408566691853032	5.7168182581935172	12.3310306102384342
16.6961931678761353	1.0785828985360535	11.8092062111849536
12.7834910804449446	2.4726865774323388	6.0439143233248558
13.9843131108726890	4.3440135537115587	5.8598195978166912
13.0683659850943101	4.6915594682790944	12.3998279010042189
25.6432783742484851	1.8070991583816314	11.3112619043954137
22.6902548825506365	3.5913358672455047	12.3129099213594539
17.8372233446868016	4.5539884534800565	9.4191188939282320
19.8370924577963166	1.2392781816482545	6.3494079967847483
21.4502886303399301	1.2454445102578491	6.3324864582311617
16.9081307738733599	0.4925684010796434	10.7905277395446859
22.9215588461460094	5.4036447996751233	8.1353338896169234
21.9216034425797126	2.7249624372802947	12.2264746520210910
18.7616506445639608	1.3459691238026203	5.8848454976279037
20.7268194897865925	1.1374874040760685	5.3938556995047859
20.6765053180428318	1.2995916130274945	7.2014960480977877
23.7851389465942340	5.4521750397671891	7.3162672568744451
18.0146222014016359	4.5209472536375701	10.5700797297196143
25.9763530195095171	5.3489614164049799	11.6869691296437317
24.8846081648342654	5.2184194164409625	6.8431466674325456
28.3936022697764692	0.4817191623750108	9.1455767736140192
28.6027359418848626	6.4139783074303054	9.1986509737286752
25.8898151278180713	3.2927157898280930	7.7122037046493963
26.5942257264082507	1.6976735033081680	9.1815800882181140
29.7773449821837062	4.4973557840588398	9.8918441958682966
29.4739197225201650	0.2681197162136154	9.5183429266685522
26.1587323380290790	1.7875994813648639	10.2657242782550178
26.2732372559772180	2.2733610347936732	8.1481136858999221
29.1268419417030913	5.3739358552628573	9.4950832890970460
25.4549449352371333	4.2479626584058252	7.2188834193769980
25.2118243908835709	2.3231547015562790	12.2570966143035847
35.5545234794931275	2.2879706531845687	6.9124286174299590
34.1431217186688301	6.8812894545877610	12.4407707420246396
36.2544642774606700	42.5204232663478834	7.9964099810056863
31.5718714961851923	4.1040644251716278	10.7588241976725332
33.2440172829300025	5.6809379341596218	10.9122231354592039
34.6249066877962122	0.2855390322812589	7.0155789231505761
37.4712500640166581	2.2110181727865230	8.2507694940365433
30.5387424179343192	2.5498533424223933	10.8164142558518570
36.4639276249035333	2.2599045977044541	7.6707792653923823
31.3279215438924190	2.0776058148505077	11.5248067750607728
34.7549215009955716	1.4028714979621473	6.5935687737295687
35.5333874589297025	2.9139522042746826	5.8690726528994395
30.5035961155879036	3.6808101482420295	10.4092130865674655
36.9717508566301021	42.8366200767616476	7.1110925097397200
39.5996149376125288	2.2726763567231854	9.2112055837249169
39.7589864063736655	4.7877820914565108	12.0585254918022216
39.5318530896087310	2.7247029846419553	11.4497055009044484
39.9916962595662113	7.5695352164977248	9.5640271304712652
37.2496762698317241	7.3248689129253446	7.2257024090454980
39.4398489344085377	1.5373315891074686	7.7780991181393659
38.1108261279461189	6.7940050069237383	9.2699128424826629
41.6117920937554260	2.0038572999119610	8.4108351991588322
42.1305152319028480	7.0682856256212494	9.6316059873869087
42.7664896753700106	2.0963696364818030	8.2388429223776800
39.8498971143508811	2.5829346850906250	10.3115470386959789
40.8529852528699067	5.2696732991301731	12.0473639042952190
38.6234356323650161	2.1192454986748590	8.4870690571562708
40.4454567165844310	1.8643853856591861	8.3886275208308145
3.9530168193001494	5.0140178445269639	8.3222702043986967
5.6547991398687589	8.7801011960959841	8.2909164989694819
42.8063333765974789	10.2849570975031330	6.1117420264133955
2.3414404303688912	12.2874990387505196	11.1031781925803834
4.4854795131677401	9.3387925506862501	12.2157944560667389
42.8479337653209384	7.1862715440144846	8.6805561995175520
4.3712657595540332	11.2827797680950699	11.0272501087528614
5.9113621602897508	9.8501836415934729	11.2074698505975991
42.0472552036310034	6.6975344866975739	10.7458170527942585
5.8839892791315611	9.6947467484231638	7.6060591200343497
5.4010778558288237	6.4997983583983068	10.4593410418655939
5.5381653871416088	7.7187793427609872	8.7393136762834622
11.8212951149915586	6.8123857913359123	13.8344863123538140
9.4366310083403242	10.9820748061033164	9.2859881466515350
12.4160215022450267	9.1250060700856643	7.8700503294465722
12.8210441999337448	10.9487698655370078	12.7308428780090530
10.9258662831481299	10.9533177039372429	8.4461387171248319
10.7612327801738488	9.0855460782738255	8.5471297502568326
9.4536769968873600	9.2800122197024262	9.5377940938208834
13.0215554108507128	10.6121437062502988	7.7959210901478793
11.8900556160641262	10.2869553445134443	8.0974966730849278
5.8416162291286913	7.7886809257222183	12.2442202226352705
11.6107251020554951	8.3245034424623476	8.2027268371292816
8.7652203615810809	10.2016005927542377	9.9840671565735342
10.0337384192221943	8.3000985006808996	9.1293499040383921
10.1723125158510488	10.0856504401581955	8.8566085140713575
6.6478799794985379	11.7264752138818320	6.8563112952695722
8.0236586388542150	9.1337365979812457	11.7795009705003650
16.2120836814212268	6.2117862220184348	12.1511511279466617
16.3076905174784450	5.2140143598892736	7.8421826018553222
10.8586218418771079	7.4478541665098748	8.7142359972249732
14.3064808116942022	9.2581843878663559	6.5883941580075582
16.2492878584541458	9.6716922425033243	10.7970013079578600
14.8094984523224635	11.0664795851428259	7.2632639630665556
16.3777324584500157	8.3851369460933771	11.8027577737424210
14.5987142603649538	9.9806616711306440	11.7109974109447723
16.2354498993255021	10.8367820514792506	10.7191746717518637
18.1177347909186750	10.8839763069279272	11.3272112322937915
19.3418472110579707	9.6697303214523895	10.7029677322002765
13.8051823700046192	11.5032858490042855	7.7520509831461633
15.4289471312162565	9.1470476790811990	11.5257715988611089
13.4377675179308991	9.5388347483877372	7.3974662151576940
17.2048227982405884	8.9987362870430339	11.1132362196961161
24.8721130583857573	11.7036273354819897	9.8503722271365000
23.0485500352798560	6.2087881729234882	6.7450610268921842
20.6057237983666219	8.7368441089810069	8.0477329156882860
20.0431288293771495	10.1902874667995516	9.7584660537412109
17.5315761723880996	6.7462339555093989	12.9467649905099478
23.4640093661657403	11.8858375421927640	11.4196084503064004
24.9405882962196230	8.6136856695300903	10.1606998343761052
19.9231900837169498	8.6541176295118998	10.9264921091998470
24.2112834462540150	10.0246297428704718	10.4351780599670860
18.1647035182348482	9.7033534538489032	11.0581575931917087
17.0115882308984645	11.4017856796518284	11.4449113566247078
21.6523406477049036	7.0589373451898307	6.9834967800822607
24.1031521875560664	11.2178072848856818	10.6689826791586420
20.9864683011321915	7.9882990939023673	7.2465219916494528
20.0986291684543410	11.2750832824991516	10.2338796490716781
20.0549887375232387	7.9560372773517054	11.8427036247500617
25.0010412805504778	12.9986518274940668	7.5615910528831982
20.3335120947962658	9.3306723732398495	9.0090073800416661
22.1558714270361676	6.1568599353990550	7.6291944504434808
27.5090053419763976	8.2473951777836625	10.3945993552581371
26.1915953114962115	10.2119471241077058	9.3034303146718784
30.2689256988656261	12.3369063978959534	9.3572049196579723
27.7814933273419200	7.8289303075455221	8.8484971913491233
29.2608024649292418	12.7009648214469486	9.8460855383888255
28.2027921227773675	6.9484612355252482	8.1664827473245900
25.2589181884722080	9.7190603257278863	9.8519213244855823
23.8754800516038088	8.8843511065024554	10.5999862037555328
25.1826169075162660	5.9808630204949456	5.9575264177910148
28.1573319079250268	7.3359138481614705	9.9209162984183568
26.3634723926757566	6.4574060615323523	11.8407210832673009
25.7769388314255963	11.3443825194441938	9.0791125545534754
31.2040879521330510	12.2134789838851674	7.1433884484286416
27.1126199103692400	8.7425686045511846	9.3235723746052876
31.8505425781675982	11.2425925827221196	9.9067919809113221
33.0468939153735093	11.1189769898320012	10.9799336320869827
33.4025274020466938	12.9462520774213452	9.9328021120526362
32.9312802481036115	11.8455319531178400	10.0228452406420576
32.3897338276485769	4.9160643041129140	10.6812038780342160
34.0919012885304866	6.2861457419351598	11.4168018204674730
32.5507030416507419	10.1508103374802641	5.0644057302743644
31.0259706202793666	11.4422693476921342	9.0649684154459642
39.1627240021601537	6.7599527121034324	9.7726773383600563
37.4685912313200120	7.0546466969251371	8.3347496516793029
40.7485318589633465	8.8196313945920402	8.7274228153398461
41.8502459774216149	11.7893926227009143	7.8144851608103227
41.9913155950597314	7.8160176500796279	8.1769625945305329
41.4589627012267385	10.0618025504855577	7.7924878348903803
39.1144319825471030	10.7396781365716016	11.1925197542163115
39.5940325279312901	9.8917593736990295	9.3621924196695669
40.5795383547320014	11.2085067647969971	9.4216665130718731
41.5792374786767951	8.8778625321713545	7.8011550993688319
41.1509666133074887	7.6910485680758391	9.1358555036425049
40.6502638595461647	10.1583497859948260	8.7293276904191686
39.6304190247095107	10.8308917706464509	10.1241906490357678
39.6602189505731602	8.7152994358960143	9.2938966614510647
3.7863429688568222	14.5178731817200184	9.1621973813725823
3.4993642222001142	12.1775510119743480	10.8991056769433765
4.9962191983656590	16.3909177924935676	8.4815739496794293
2.4230865338704670	14.4318442282593775	7.5452216986145872
2.5789268451821354	14.3812585886866113	6.3917843432218238
5.4480648730309280	19.9073920477637252	10.4021078997473584
5.3149119763943622	17.5180431925897118	8.2800000778523408
4.5035155395323239	15.4204671761340073	8.8947747520102087
2.7429825740951230	14.2929953481803107	8.6577534191791656
4.2110720592356845	12.9320057647484479	10.2552243948458734
10.0563809206518062	13.0461162109573756	8.4560706247196276
8.0765866600154279	19.3194110752985964	7.3800901427028069
9.8945051679607161	15.2979721482297712	7.8686514839620321
9.4241930405983609	17.5259345538873426	7.3114712825451029
7.7384153351772493	13.8848273979671433	5.5016554788836860
7.1470797961004049	12.6877122362940948	6.3789865486764219
7.3883913218885988	13.8502396466902500	6.6236422803598991
9.8129654120999987	15.7915481563901103	13.2264536246403193
10.0623461096495586	14.1819688141905900	8.1904311194709845
7.4849578515324238	13.1141732871415453	13.9961417593897828
12.0943681188525503	11.9241284819686495	13.1870718715414963
10.1404888490170997	11.8778960917799363	8.7463757770821324
7.2820183578843816	18.8790975227655728	8.1971550525423886
14.4674379322104816	14.5099420231009884	9.1385317785805942
14.1790230256901406	12.6344676431642089	7.8274566452756895
14.8891615449008796	16.4497519476203848	10.3308563046089699
15.3261789198041498	18.2091368975658447	11.6484670600895672
13.5738254162426557	17.6827524099556612	10.9803080140356393
18.7840492191534132	16.9848870574924362	6.1485449065448101
14.1820686552659296	13.6074394227356805	8.4536319855800599
9.7670823795429964	16.4323685905214241	7.5966163675808600
16.8400649181121693	11.8704842153666075	12.5270825874579952
13.2611384167906063	16.9752405163799267	11.8779835212457670
18.9796568603428746	15.1945338825925784	6.1517616632427252
14.7609771413705300	15.4884121652852134	9.6997318015540426
25.4454441774670137	12.2882348323399366	8.4066541693248578
18.9074754674567735	16.0779205183247278	6.9125132981062674
24.3342129378769272	13.4813436350333848	8.3990637536430075
18.6894722931440818	19.1960201417365184	6.4254744164208439
24.4980625147092077	17.9524785966874667	7.0191290580662828
24.0816549368636501	18.1263014791857877	8.7819654680608554
22.1784038333271027	18.2620006104828079	9.9116212167865836
29.3752662941788287	13.6426377988674759	9.1147490428602254
26.5317395634545434	16.2871398669166858	8.6755807785050312
24.6792351893036219	17.3396797907536104	8.0669793473134419
28.2680689813324051	14.6491028910001777	7.4336900443441341
30.4985273223805393	15.3194911574195540	10.5015350706303074
24.4969903996804881	18.7650175781454926	6.1532923547493779
28.5116334330219381	15.3051384168668889	9.2798152937007714
29.4871960735362961	18.0876367462508867	9.4747822167831757
28.6293491249168639	14.3585365703192629	8.5118112003700084
27.6367115731723914	16.0043138062450403	8.8864222745494601
24.5839387963760103	12.7401125526391859	9.3006113939544424
30.5002160011267414	13.3212435251193586	8.6426326016694759
28.2642501865320952	14.8065379402833841	6.2800818318205573
25.4362864010108147	16.4835492873659888	8.3549047981030675
34.9028829485640060	15.7623896610739838	11.8578508980206543
33.5722988300682488	12.7354020684386668	11.9282477969176099
31.0120327418055126	11.3258273371999696	7.8886446026145807
33.5601863076389435	13.6007292878425510	7.6866114095193909
34.5830450839179662	14.4044037668570439	10.8918779413165918
31.3128257533133976	13.2849450269490958	7.7479029239567430
34.6865047283532348	14.0008066054116274	8.7952538470573707
32.7498009122048970	15.2522126620411171	11.0308789472145463
31.2171481610020258	17.5718216932545381	7.9990558653488790
35.0327463437910609	15.8655280018719491	4.3448183537513163
29.4533504531780856	15.3231668173712929	10.0041320482237719
33.5857144513971946	13.5327174653080444	8.9151447308494003
32.1334698116415680	17.9521580106496650	7.3383304786429058
31.6094019744347925	15.3432968261360685	10.8523622613999873
33.8149562443932439	13.4202996682417179	10.9989335906537509
35.1667763425817910	14.3751130313902173	9.8018990939902668
33.4827391715594445	17.0503357937327920	5.6350825148819181
30.3915395787766869	17.8822040622279133	8.7516013914042858
33.8648106851552839	15.3442453493502757	11.3718218363619972
34.7875393604524845	13.8647358438942021	7.5890251159996982
36.1976747528525848	14.6456538787884174	10.4184791369577088
37.5213297382017501	14.2231208128534679	8.7459201689906259
41.8917675493786348	19.1319242329773722	10.2644082684480527
37.1851529196895214	15.6605164260565939	3.9483644014741142
41.3650980213481034	11.9190026529789641	8.8740648712888728
36.9760974677981977	13.9011460653450083	7.7646949712659001
37.2119228683250185	14.5507142425201987	9.8173573514708732
35.6305810653589674	14.8961457125637953	11.4678316442265675
42.1556671582772324	10.8253061203449690	7.1318330289849730
42.4062237385341945	22.6574472402407956	11.2888351343203883
4.8798659585622248	19.7483680901024670	9.3817100734225392
1.4314795435540171	19.5978635073278653	7.1960359134211327
6.6372688091980834	19.9937258755649871	8.2394168396729501
6.2436347744930050	18.3152144574827354	8.2988448715156924
2.8515468775182655	19.6471989114734278	8.7775840114386767
3.5872090212093108	21.7888860824824881	8.8815369078107107
5.8204802778262215	22.0787683906623862	9.0936384026039452
42.8116931863674139	20.5233183980360039	11.4539003220476587
4.6134011956137337	18.5171177388553900	8.3436280683416335
3.8910316958134117	19.1053970459046631	9.0812286781379150
5.5515152147008822	19.3536730003412529	8.3930531883936901
6.6955884129369796	22.4811994932900490	7.0410892891169841
2.0939449878070979	19.1340771995811139	8.0185327094026260
2.9355918721869747	20.8390273598986191	8.8026147263557419
6.4694240411193942	21.2002452277476898	8.5900093037053935
6.9110727370634457	24.2350217344363124	10.9728255414900691
42.3704983125504882	21.5225510391528303	10.9803696618871491
4.6570708977584774	22.2389288729692893	8.9635390336161205
0.3866897161137776	25.8720761248238738	9.8724574046391478
12.8111483621473905	19.3823524131496683	9.5659977232989046
6.0226201129235815	19.7854964299899265	11.4008355968878643
10.8718390374695151	22.2995248203688021	11.9508551241802383
7.0858461194795952	21.4745697592048757	7.5982303678871963
10.0704425791589305	23.6092261969378860	5.7300106847729699
10.0752340450543461	24.1611423925853721	6.7837395721170255
12.3134128069980431	20.4305529429862744	9.4419474476349254
11.3868192891825881	21.6334583969417267	10.9727200254511938
10.3240785804539499	23.0402745462185869	12.7462584285168727
7.4806895112024128	20.4095502815933862	7.2506338020005776
11.7793142063038960	21.3626427649956767	9.8849352400733679
14.3196079463942816	24.1891508828800497	11.7076729362363601
17.1379527086690970	20.2251965090935428	4.9505577116004957
16.0437146653219145	21.5517517558892493	5.5046979959570974
17.3571160041664960	23.8012364319665011	9.9430396603503919
14.6333101763258835	22.6836426455244187	5.7135347379127515
14.8136130743936185	17.5044494043714352	10.8545995993815279
15.6660832021203742	18.6821252423953261	12.6513265703989486
18.9819857161777001	22.8651329058522244	8.7462373998035687
13.2347343132005086	24.5675233842266678	12.1244457207169489
14.8783712531362795	20.7725934997405481	4.3612091696958197
15.2749439799693771	24.0079810432338618	11.0482132629655450
13.1518087282157641	18.5572859668812917	10.3048790703007178
15.6268287560752661	24.4857249219320252	6.2130827749601423
15.9029363264105257	22.9217716305011798	7.2809842602667354
25.1632215199722538	22.2257585988030399	11.3012877090799346
20.1418651901890478	22.8517721438799128	8.6206758142047111
20.5491343564255686	24.7995442194736704	9.5621052814601786
17.1816223719245791	21.4809314779809100	5.0627981591937825
24.0804817954497103	24.7274370397099474	9.2346385384835461
22.1736699253046652	23.8592428882473158	8.9355536324482561
23.7645755930481180	22.7034173780561375	9.5515809673427245
19.7827043378139749	19.1525876570603266	12.1168018242841811
22.9373794876887338	18.4634870360503989	9.0272786750811900
21.3336867202508280	18.1879364886495942	10.6906789986195925
22.8678766482774734	19.4107903231678840	4.9361287239149911
18.4890430083617403	23.7076426560045839	9.4818103567812901
16.3378641992763463	23.8565428836679878	10.5222417501010668
22.8219666323721668	19.8298556182116599	7.0503266983323529
18.5837696613789092	18.1274004326921307	5.8924234521878507
22.7772281729951196	19.1165473901061240	7.9990715871172711
21.2952984857703633	23.0822806751286755	8.6884383117048660
30.7809144006659423	21.2312582557426026	11.1484505966671019
25.5703690988244645	24.4150328001576433	11.9927349384834585
23.9759748890908320	18.8209122571710488	7.7679005490811166
26.4209411249205175	20.5365917681455805	11.8953519474511609
25.8271108330759134	25.4957061243332639	8.5595270473585181
24.0916921725590463	19.7360945837122728	6.8741908337999105
24.4076437848510466	22.2368758061671343	10.3964371890786040
28.7656677956890086	18.6613219043001486	10.1885479025748182
27.1413765099194890	19.7358777667246201	11.4653798277291727
25.4579821160552733	23.2599239654597980	11.8912865351445660
23.4068272016238588	23.7511028853100790	9.1212689957820938
25.5122809877148313	25.5782723859280736	11.7733097003835603
34.2647493592546439	23.8113345801441625	10.6300530872294576
37.7215559894003576	22.5673096343839212	8.4642114265378758
32.1884697513554414	20.6721947823849383	6.9783688172141778
31.5209031053636117	20.4383446801273401	9.1125349815919439
34.6302368537108620	23.4165549431244884	12.8742369505144829
32.3313437234991383	19.1341520274806491	7.4860773446910391
36.3697974513467486	20.6610740260132388	7.1060906333842375
31.8786375467968597	20.1334425946718305	8.0254310955796093
34.2131490114537300	24.3389022527590946	9.5933093200039963
32.1613678100163725	21.2908374856848006	5.9416133809188887
31.3028162506560363	20.8639701605287513	10.1607468444896067
32.7556624140269363	19.6646163780523828	6.4972287999689851
38.9057225343150890	24.1574517819500265	9.6078414110613011
41.6958386369468457	21.3405005082259578	9.9817584828189982
40.5455965775833249	22.9492999051001938	8.7860468455446181
40.9507787496871671	19.4187858088080461	9.0024836599822606
37.3683223649499823	20.3471771013845952	7.6344631520935229
41.2396684722707008	18.4260625869455765	9.5433892786057939
1.2458236558172848	20.0440179138003920	6.1240023542110826
41.1594981398873756	22.2919822749250400	9.5332786100248263
42.9025642288569600	23.4862934462603761	11.9405083146283530
38.5122331118270509	23.1771219966693423	9.1130568635394429
0.5755678836435694	20.3440863634490441	12.3755780879275914
41.5633048493057018	20.1967604133030711	9.6567536783826533
40.5574706506154286	23.9372477598528732	8.1645963634921301
42.5658188092906329	19.3554408120331409	11.2214755335953651
36.6869847555234259	22.8821683859627640	7.8789607485525357
39.7916377803522536	24.9274693927020046	9.7087056318165246
37.6999765668915714	21.3739633961929343	8.1180147205381417
4.8137245019574371	29.4871505720348566	10.8198682449752823
0.6274900015959824	31.7271746446545855	6.9350833573941806
1.6118431580803354	30.6968716050227641	8.8163832467507124
2.6611132631867807	26.0790117553272829	6.4877897802414086
1.0552719815681220	25.7473198583415588	10.8058531642229774
6.4485587224961645	23.8612095289623163	9.9837020261481406
0.7149147222733885	25.5120995528254682	11.9107603845828276
1.8771499844233508	29.5527562769695678	11.8030758246618497
2.0116105267101512	30.3828811101272933	9.8604135056327173
1.8530868012156654	26.6544598661274570	5.8581669288070009
3.6656124162686194	29.5756076718091840	10.9791416773051207
6.3422103255223030	23.2281388451725661	8.9981785905576306
3.3426577810533891	25.1825285155788166	6.2103312099496604
10.9638705738270446	25.5658609995152943	9.8243828542520415
9.8637082303348169	31.0603473158233072	7.4907113771823273
6.2472621159535153	23.2470774650133407	7.8236536426272565
8.9834549236000196	30.2411791409287645	9.4988443631057589
12.5342538097517924	25.2928610929384661	11.4813658575373374
13.2816339658244420	29.4998853892102204	8.1327166289339807
10.1268491425299274	24.7412365393244649	7.8102762381230555
12.7679058310234126	24.5412291304924253	13.2977086364947219
5.9664641996860199	29.4098576814503545	10.6665034771634826
9.0605944931961204	30.5837763504354001	8.3775880612104494
8.1949919947616454	29.6800639355963618	10.1429777787380875
10.4303438706374738	25.2057587187364724	8.8463971584246490
17.2617783450720950	29.1685962867929547	9.6549125369079025
13.4847797417122575	29.6577407073587551	10.3000181514475901
15.5290863474074250	30.4633290597108584	10.4599181708805382
14.5359348720084736	31.6795214375216503	10.1325567220989097
16.2267456578016187	24.0327826166988210	7.1422878109895356
11.8149284320633896	25.6254288951114795	10.6278141924944922
18.3723321797492254	28.8987468300789665	9.3641985786807691
16.3281991806126712	29.6679356878116707	10.1140205277449802
14.0940922551922867	24.6999561553150464	5.2517724307774900
14.3210172859125819	30.4920049861664495	10.2388662122323755
13.0294408519004410	29.1342185462115673	9.2294414250274528
13.3118329096607333	29.1532997324147907	7.0177490948676979
25.5226555298049647	25.8630194029918172	10.5578584856410060
22.4467493809119496	27.9787225027715216	6.8388192718346668
19.3627558443620309	28.7571048423967497	10.0416462510166582
19.1317434843494460	28.9388942983291173	8.4163624807281039
20.7118742430236473	28.5704628471430269	8.0441551512520579
20.8147006616040358	29.5613198072859298	10.0327961665304493
22.8199583261801742	27.6412058420418205	5.7804659023594169
21.8327816926594203	28.3559379889555103	7.7509114601385649
21.3397435106604725	30.4009647799802707	10.7138154448725906
19.4448965012318276	24.4507796295939457	9.6750326825512811
21.7027740375734766	24.8647490261423378	9.3723422498195141
25.4586574092519449	25.7323789153538485	7.4485329368652007
20.2137777395141640	28.9968357253740017	9.1391358974606351
19.6714581301153402	28.5464657725553081	7.4562644363240258
28.0943235508296389	26.1576746368845043	8.4645905930970642
29.0453459636479572	27.7374183265660932	9.1003773391288334
29.6190281902729495	27.0378606271823365	10.9358475615553790
26.1805761315716268	27.9468781714838492	10.7954687986247215
29.1892965714779962	27.6092832217694948	12.4209753425926195
27.7523583771021833	26.7795468949924427	12.4483641377288485
26.8673030696188810	32.1481233142176137	8.2801728065507127
27.0433639933889900	26.7175784295877214	9.5252460655793509
27.9335202194962235	27.2949402353648019	8.9868992152167895
26.9748938811165822	25.7580062581818723	8.8018087324895298
25.0801406734917194	25.3000796595265527	9.5514498558618772
26.1672612699475557	26.8683429420519069	10.3357141284028433
29.2084411926801906	25.8891660988914900	8.2188379204060009
26.3813098054490744	29.0022427793349742	11.2162474210035441
30.1719744565790791	26.3053135278835022	8.7921595417302765
30.8134347387128891	27.9954824494892129	8.5704914264813219
37.1945330052206131	27.4791570081935106	11.4359750472580473
37.3997682240845037	27.6031362778815108	9.3928871861921248
36.0189523114704357	26.2537306234178800	8.1319163227283919
34.5184000868516847	24.9673755650272788	8.6730118994163377
30.1849876314425742	27.6442038928666989	11.8061677764710815
29.7336411633451334	26.9653906050759105	9.7522161180135143
36.8019235592129732	28.0538997633722680	10.3599020614498745
36.6807325473068602	27.0785105835280753	8.5777248357742959
34.9713407314598328	31.7661746030976886	8.2287257874468942
31.1378109489925201	26.8922469042029491	8.3895914898728705
29.7759026577210157	28.5331380636602212	8.5969970005944880
41.1199668515838326	26.7546181351300376	11.4944268139137922
40.5309207548028212	25.8076143236971234	10.1480485436036219
40.5094665437603751	24.9803983068202058	8.7088381055137969
42.1185091185838019	27.1281585476956195	7.2062924997976543
39.0208288829957723	27.0766088194924919	10.4844082723489560
36.0389501206266587	28.5306845681443910	11.1199357798059495
40.1954297009775772	28.2917049178943891	7.3527602285684939
42.2104761813036902	25.7579698407144164	9.8437627003350023
42.0118400835871384	26.7973926298156648	12.3175123456739026
41.6385689404827275	25.6771664011458434	10.9356301651326326
39.3013747780584168	31.5133759023831530	9.9724828205505656
35.2849234396045901	25.3549543503786836	7.8455109527162143
39.7120574408483265	29.2300104737664057	6.8514788999073364
38.5969663712077420	27.5284967568918155	9.4588017361255616
41.2813401613906521	25.8242706210662263	9.0950413533641417
41.1120334940433807	27.6728502595701435	6.9082053211017618
40.1927946366902091	26.8153180146897974	10.7375032771356764
3.0338096782258988	35.8476408662337604	10.5802920772759634
42.5859243144487820	33.7184321739310562	7.4297333709326780
6.5576421000551317	36.6114844014602170	11.7923575713118893
2.5083069108802465	29.8250339772909605	10.7907227111547588
5.1031978754060559	36.6359546973200096	11.0907450423663363
42.9655941936475116	36.6228558724355437	5.3047429064862861
4.5032656876383284	33.9082768392714300	5.6666564587863313
7.0668013581843931	36.1281518032685369	9.8611877922814362
2.0985056100732731	34.2332550549727230	11.7968220994684962
2.3581833186001888	34.9679622616366643	10.9577472750619584
1.0927751913804367	31.1672275428381482	7.8861834069141343
7.9341047318192919	34.3837121004064628	5.9040222641258397
11.1516958165186040	37.1159497093139876	6.0933827622595613
8.2810738344022408	30.7809865927632309	7.4960198691567150
11.1562821889340587	36.6757097285874920	11.3572581036362479
7.3940144531115397	36.5690605462081990	12.6155061088493596
8.0107852806037467	35.1968498850382119	6.7334447083238436
11.1869667203548406	35.9590465759035425	5.8854343491206205
8.9820898697679663	31.2252821906054834	6.6835660982696385
11.0257464992834482	31.1842577788884192	7.6263923334695338
12.2280703588989290	36.9429111286554317	11.8032407250016522
6.2362299514143649	36.4112701756378456	10.6419659221175458
7.5161591174962172	33.0261549019815064	11.4156106495137717
8.1904920501077658	36.2816141342132639	9.5957682076245430
14.1844310901180943	32.2972496660654613	8.0878656891810632
16.7994948154720447	34.2534900233274229	10.4547795665377219
18.0163566010732623	34.0318715492617869	11.6001324554944620
18.0133993685192380	36.1439324059220795	11.0560673068631363
15.3064297888779794	33.2479681728115324	8.8806774600492044
16.2658236700814207	32.6876483002266482	10.5690091134115942
16.5216647431449530	35.3416589081109791	6.1432440513018181
13.2845840344032577	31.5771380370038166	7.7765593679883613
14.4094083480050941	32.4952565736840313	9.2855357740041491
15.6704170485193970	31.6677716158648330	10.6033133389516774
17.6087445560585891	34.9873883464145834	10.9820322811682569
19.9907541027765880	29.2073565325661484	10.9471952702867679
16.0788640747689549	33.5815559222562072	9.7572974945013726
14.2696979179808565	37.4326178749644427	10.9321131448411588
15.0991059891261035	33.0091230613087347	7.7076535948841522
12.8704596411582166	28.9207320219611894	11.0221089579997624
17.0458813711354225	33.2817276970040936	11.2981949447650400
15.2937219539233809	32.7974769767270118	5.6372096489040384
16.3006138991168399	34.3167139157125689	6.6295135908202809
18.2952463751676397	33.5169061549805889	12.6529790660848125
23.1102572304472034	32.9610415005903121	10.6634423157520697
25.1792794329794170	33.1303492141713747	8.8178278556942136
23.0981560421409817	36.3942911015726125	6.9432927813565142
20.1905372477055742	36.3583358391148295	8.3828296429670743
18.8566184821095639	36.4874964815919327	10.2931786461764556
20.7290252017273104	35.4322547166097337	6.4823525732856337
22.3649874250125613	32.2383929280876913	11.4948147612585192
23.3810611868088323	33.7398974964738514	11.5207936492936156
20.4702100770194022	33.8703376966741203	4.7599009172995599
28.8312602489660144	34.2100687511172623	11.7174221711270459
29.1767586385719042	35.7928339822717305	12.0042596848499556
28.5641569187679316	35.3916814987269319	9.9229370504273167
26.4738188554777629	33.1503485186307998	7.1281336683225307
30.8898354133490720	33.6506876778573556	6.8978766434483534
24.9432607079338808	34.1840454534378395	10.0901426542116912
26.4084071067362665	35.0286440020281944	9.8861022605533133
27.2045465189171978	34.0669750761794674	8.8049968362950697
27.1299312493605491	31.1757451982082010	11.4720817794808472
25.4307020756813742	35.1816033641904369	10.5728205648632620
25.7675101187206970	32.5004598291780908	7.9624678303782623
25.9964722021328853	33.9849306933926059	9.2648475604320719
24.3105016098965514	33.2585260340810933	9.6635230907421406
26.5812120133818190	33.0829831591907606	5.9614113141630201
24.0516855993850243	36.4761028207041917	6.2728139537542633
28.5878389113805440	35.2475649575859507	11.1178418012014184
27.5100968398935599	35.0381792841057731	9.4297447463137285
27.3863341830815408	33.1854923134220883	8.0139896323761057
29.6022465073897010	35.4232649676302103	9.3555409015535425
31.7705122819570569	31.8887969416648893	13.1721722788289473
35.0216521773455867	37.0125904741601417	10.7424931142842546
33.8356221968458968	34.2319910153854039	8.6195659649617085
30.4339911588576868	34.9704355223791694	8.6924919588972838
34.2592199569110463	32.2505764801050532	9.0090033950253154
35.9185692778799392	36.6082418565771590	11.3588370992851377
36.2926717128258218	32.5953907377868575	6.5824687288779540
37.3244210896658473	34.2904828230655596	12.4204388313270826
31.6118396076489674	31.1560764602307678	14.0229419827326023
34.2926176900416024	34.4973704236649823	7.5798841811263316
35.5440394479038488	34.2110928350409083	5.6377637313284765
30.8849408130927223	34.2722411150897912	7.8779721578737343
33.7812959662831389	33.2744677780153637	9.2865670580345654
34.2979409449977197	37.5972444039192553	10.0419731844139744
38.0990318007387643	34.8611870721010249	11.6453694538894084
41.0233475201053608	33.3897604536991608	9.1532234110169313
42.0758244093803597	32.4173826098210682	8.2885274599850653
40.3004372963422881	31.4224344177167723	9.3970713021115468
38.9772825594204022	35.7457956580234821	10.5798970491832112
38.3334709079493337	31.7615946034875094	10.5796319534197973
41.1358482502834306	32.1869460253615927	9.0309609873937475
36.9769862521267925	33.6135015262487471	4.6510354356363965
42.8012972622229739	32.5548446642107479	7.3348496219866988
39.0377586813853199	34.5794353086450101	10.9407972417271182
41.8933386039626896	33.7088808379718827	8.4007889753487177
39.7433731611847278	36.5375561816916843	10.1073218595081187
37.5717685286835632	32.3184746028599719	11.2694173547864516
0.9920530434466235	41.3172624560127701	12.2651647121354461
5.1355002059633357	39.7988523734409441	8.5593388899517429
0.1356542318931585	39.3754524231413399	11.9835758612851624
5.1655781707130064	42.0452600672552279	9.3490321651123818
4.0730453105232982	41.0168262456748351	8.6448757763496378
2.0550164394399384	39.7099885950606932	11.9644353114901936
5.4682665674159363	36.9386550796671358	12.2241243581083658
2.1003175905456213	40.8155274573411617	12.3966403372819904
1.2151649239994939	38.9167585826818510	11.8818367964097558
4.0490182311862162	36.4016890830715525	10.6179218017625363
6.7500259946706356	37.6553070349633288	5.5950860327520457
5.2933373666749857	40.8514457661724393	9.0737252567900555
0.1058868382071429	40.5828870417528620	11.9522384602866154
4.0197122945882278	42.1562491021148915	8.9628651684705574
4.0247222649328789	39.9093010553917580	8.1957968485339148
7.1873727296384722	0.0086565034671935	9.7220638759311626
8.7055892507985213	39.8614952382734913	6.3394990527722932
8.2271930300606648	36.2615150652000864	7.1479561618581755
12.7402934415795741	38.7925419045506317	6.5378304416165109
11.0252491947381657	40.7790447798396798	10.2660098545517293
9.2932770219761913	38.1952144723107878	7.0699786598287453
9.7570803994898760	38.6949868033502824	5.4700780773179103
9.2521219725929669	36.3676274718454522	10.0731372029865387
11.3592153281833941	40.2426692413889455	9.2852328464675686
10.5763764666009017	41.4041190689887983	11.1418793417830440
11.8326713688792839	39.2730509221496007	7.2146606216055966
5.1734800593701946	38.7290728720637460	13.2037960016939291
10.2530097505418354	36.5500944089476292	10.6463791212443368
8.3800533060628020	37.4121143017707212	6.9532027271354302
9.3113425497967359	39.3737025099425608	7.2594841875923937
19.5534677896019033	36.4616556839394974	9.3499769069865977
18.0568359113440167	37.5996413785940859	12.8103500897879865
16.4426135918709626	38.4035681507972910	9.3179362114524356
11.4623348521728765	39.7901297731054342	8.2139949126653722
15.9629882892704256	38.1822938151287374	13.3661317834340139
15.4029460195768220	37.7250856682893172	11.1849671177778482
13.1790906345336918	37.1239663062749159	11.0981381347987593
13.2649160555453669	40.5923257400514643	5.7558024770491887
16.1048571575720842	1.0516578941470818	10.1220204856414391
13.5999358288896772	39.5262429913122588	6.1319629306029801
15.1519312931628782	38.2258517328178371	6.3134622505893887
16.1954912734489618	38.8121439278848186	8.2551126500210508
16.2321606091684174	37.9881562654720852	10.3750012984706093
21.1435653373363834	40.6058746883559678	9.1834622825206846
19.4187770592928857	41.3202606963559447	12.1299581949272177
20.9529588845006813	36.1114812728809298	7.4749289102422161
20.0272434669659205	41.3602374423400789	10.0656100470256700
19.1768668011288561	40.6010651098841961	8.1067033640366066
22.3266926169628661	41.5983449062600101	10.5459838180650056
23.3687341411955813	41.4850425456600362	10.0863949849524772
22.1026195088961579	36.4843447873405466	7.5186758183802178
18.7523273673371342	40.2996066251245892	7.0686833766124488
21.2511788554312062	41.2487544118307099	10.1779077030058023
19.9797058881354559	40.7852966461558992	8.9551507877394663
26.1475975214571328	39.0102581840460658	11.3029261152680593
25.3838899577441346	40.5177063631733105	9.6955208151195240
31.1186645815081313	42.4875236547521382	10.4198631224950411
25.5874299932379081	40.4468288796390567	7.3867041130111222
27.4051151162312578	0.9268966679539226	8.6469837129462768
25.5213775185594294	40.6118822926208338	8.5306201440478624
28.9654316376200249	37.6277951586723134	5.5637489686799695
31.1686838973222642	37.9958243351500684	5.7144131822000048
25.8177161783196318	39.8393653769956018	10.5527223633972138
26.2732390448713602	38.0145980166585744	11.8973162865582704
26.2509318936284011	0.8760739527200025	6.6269576251070283
34.1886351758530438	41.7141784548360448	8.0608356040243443
33.6563926189036380	41.3431121447308030	13.2095484815771460
33.9893440903052593	38.6999563021954174	9.7525511516694010
35.6082363606084513	41.3438854685783568	9.4200795012467946
35.5335604659862980	40.0070559330213129	10.9423437261804004
33.9012439522685796	40.3175689458618010	9.7396398913261333
33.0859736656688312	40.2383839188617145	8.1148724940038246
31.9657077919094696	41.6363338753789805	10.3625020301567439
35.0545275991661853	42.4710566993904379	7.7539387081844051
36.5168044347537730	42.0488569483314194	9.0782761426927028
31.5611891146389887	0.0492665622635755	11.3928243914575820
36.1424091574390545	40.8583625687850613	10.3977006159951504
34.4827071675881527	41.1141939851771454	9.0603905586643219
34.5594470056386669	39.5815485066922648	10.4242040397377984
33.1746073589562585	41.2777950245738694	7.5244117436379225
33.4788311607716551	0.0809668552607748	6.5905687226940879
33.3938674268992202	39.4992441235742291	8.9873774983085504
40.9517195696045420	40.6105693054098040	8.2028607361806340
40.8954969669715780	41.0065333026132421	10.4810599554094690
41.1648698138626727	39.5050920627567521	10.0619724854626718
40.4225486919230761	41.7523833439631602	12.2590116338685551
39.0313910176421999	42.0952914281633213	11.3920769365040417
40.2500150686379570	37.5643000193083694	9.9490721752999782
41.0616566629898898	38.6540750141782681	8.3163990704216317
39.2697209308457147	37.8246294665614755	4.5105993427993116
37.0593730881865326	41.6868314584200590	10.1429564113425279
36.9791448405559109	36.3554135509051832	11.8196356363110109
41.8843970763185567	40.3332060320866645	12.1997885111258526
38.0336706465291172	41.9208124155646402	10.7817660300884253
40.8795074613121088	38.4665561940369543	9.4816389493516908
41.0117032492676472	40.5154122910366823	9.3791518769724025
37.9419981360534635	35.9803652988732949	11.1954094152984585
4.6135530568758520	3.5983679109233133	12.1269475423543529
3.2221493683584082	1.0764085607585607	14.0872383886735140
6.7595582268505909	5.5198953857281774	14.7741652352657695
1.2724126700240272	42.9604189478645111	13.5592604285068496
4.1232600105278898	0.0200751273789492	15.9181940478866011
5.1178493650528578	4.5443009507569059	11.6697803819296873
0.5697662096162434	42.2373492379730422	12.9177573354603918
1.0705831715432259	4.9776684092127983	15.8166458222098090
3.4151903906380010	0.4479187805392809	15.0854465681437500
2.1962764236054189	4.8042943660772339	17.8501345461609162
1.0054877436331182	6.0687211568806880	17.2817914002981112
11.9419685514891274	3.8248699497106835	15.4699345143656579
12.8797841672641145	5.0277784298818355	13.5874265588426351
10.9129051429466877	1.8587111032582002	17.3032312501754966
11.5077298315225995	1.9863099100449306	12.1569756201102397
8.8483597006667409	1.1231775692586488	12.3528980322649211
10.7517195451722252	5.2663428302550273	16.8871926355302371
11.1374088885551448	42.8241097857561996	17.1923385661152999
12.4315139294581094	0.7505786885067774	13.8451597609973192
6.6864822517055122	1.7717944259362468	17.1602148089027473
6.9322405340837188	3.9478320418735402	16.4423352746253961
8.0077541663705336	3.2825373795921338	12.5878868271110793
6.9535013674694071	2.8646149619748789	16.8677006336118644
12.1947485594062233	4.4902685873002408	14.4500863358211085
11.2167099020391490	4.6745918741390629	15.9833527407904157
10.3379169938613238	2.5714070822338009	18.0099700295215968
9.4340117568189665	0.1504306778362321	12.1006844865773342
11.8968208042852304	1.1927877312746322	12.9161490912083075
14.4114788225230619	4.0746007700619771	14.4792912769407138
17.6496670639481152	0.0068302483397034	14.7964322962819192
11.9306701590157722	1.4502700870086993	15.8028929403452718
13.1260259216898856	2.2985923043257390	15.1076951287585644
14.1725660261196413	5.0254359705822882	13.8209667669646912
14.6369599765650769	6.8493007875677225	14.8352675516925725
13.9774395602249299	3.0523655166295010	14.8185780807012257
12.7019872174297781	1.1587517579247877	14.9161364120512818
12.1268291117187754	2.6637919562103241	15.7506959846508874
18.2246847469212483	6.0895168115210119	16.9046872190157202
24.2390723366016871	4.7806660246920121	13.0295624791084421
24.5720217060963897	0.0244067651058154	17.2054733898243768
25.3343991724873874	2.7851238119109367	13.3467312368211726
22.8531464081569169	5.2872974174619456	13.7807627671975510
22.1892540680947086	2.5026443313403264	17.1109876479945626
21.4581862526283302	5.8303636522422719	15.4780773508345746
24.7882687249726565	4.5668812700383237	14.5603604635864539
21.2802381083606669	1.8804614755118694	12.6922885693583307
22.8397265411501600	4.7366546508417908	17.1342772869881266
20.7888001789876959	1.1113505150253451	13.4114324302466130
20.4497911973069257	6.4027684952613395	15.1830830348581394
19.1487855384127919	4.9787200274877659	18.6298112266158356
22.4916108238184798	3.6265085885694401	17.1170109734986653
21.7203995488870660	1.4580422036142111	17.3389217057717850
23.0388983544998887	4.6030870154515213	12.7831730936213130
21.8577863846784517	5.5981840877932463	14.3659845121065466
19.7248577498810675	1.3214290616305822	18.1443209169104556
27.1988247721039471	2.1042905554774203	16.4127645250811014
28.2225440910359531	5.2784225004482082	16.7267978734469906
26.1805852712814620	4.2558772368791278	16.4867273252651430
29.6038882614801615	4.0009192550922235	16.9249580146433054
26.4889249045374342	1.3334773773714037	14.4968929803491893
28.1479506907439330	1.1302398096919022	18.2560488564930559
30.0448577542201889	5.4153568284129774	15.6235298751984573
26.1425978581389096	3.2288929290335977	15.1810119416821294
28.9787864999187939	5.9946395448358354	16.1036312556750083
24.8226791913595939	3.8542914903427778	13.5707684836057325
28.8348018764490668	4.6145591572803593	17.5898918852921895
30.5418890696252561	6.4740483708754777	15.2546397629201778
25.5396153558329608	4.2208934497614194	17.6047187618982868
24.0029845585595289	5.3894026069414558	14.1411531998227531
26.8131546518708461	3.2039842713461297	16.1961475618381705
26.0291018390925544	2.4433155991609272	14.2814003527191140
24.9703977780534174	5.4421289183091144	12.3206014148434679
25.5426962602053109	4.2624273788848397	15.4208162041871351
26.7526891664483841	1.2514718453712015	15.6778740243238239
26.7751926430241731	0.4196823148466469	13.7930557183331661
27.4405193493610398	1.3754581454107533	17.3607032692389183
32.9578596328307469	42.8155733139126866	13.2800620602544708
32.6981113514184543	42.3690887745302689	15.0941751679181380
34.4809081073321337	2.8186647839501444	17.9990005103781243
33.1602384892385587	5.2984738938084561	16.0875233493558909
35.2194022789866921	4.2377037355312233	16.5071175481902586
31.7662075301693818	1.0660174750042035	12.0131985944714508
32.2426614415719328	1.2837004736208841	14.1601674053999034
37.4031860139730057	2.7669820256447166	17.5604172338087601
29.9191507219438151	4.2683090230971761	15.8470974123212187
36.4175537539343850	4.3009044303027091	16.3017925080126176
34.1966285618527834	4.7850703746076277	16.2710360686941691
32.0214998892217082	5.5559691640968838	16.1996296027892583
32.4186895029184612	0.5286099006909664	15.0197072611076159
32.3778555899238896	0.8619724150354379	13.0592866420388010
35.3073429943864809	3.3074071059927874	17.3318218141134217
0.3992687887801755	3.3184911790111706	12.3521560017698331
40.4065783894221937	1.0481941790601821	17.7634382863126774
39.1228331164100425	5.8459045329426917	15.8336536861619983
39.2499707339117805	0.9992490355540321	14.7780323287806059
41.0338349058020881	42.5411820689755515	14.4342212619365942
36.5154747511112774	3.3977119016838135	17.1061664573705166
35.3006929086650914	5.8015880881008011	14.1029677228418038
0.3332552150048208	5.7930749052858195	16.2480358953287585
36.9755873839811855	4.9972088374017698	15.4766347902187640
41.5226665610744163	6.1217417925588808	11.5999118961278977
39.1558462715130489	0.0190077036387827	13.5102147290844705
38.1117038888830209	1.7088658224892683	12.9592383879124142
41.2043095804747708	4.0651227335577209	12.1225852097280082
40.0106385347378080	0.1280516371482764	14.4411331838592254
36.2563632028775302	5.3685536056896943	14.5944504013484213
38.5361918058461228	1.0198031395687386	13.8299597576168818
41.3764237733185425	0.5510953387369385	17.3493801544325095
42.3171081143633288	3.7194644278883109	12.2736933860512298
38.1266450529514884	5.3034719975484137	15.6203393644676840
40.0650702799135487	3.6442879475980221	12.0522881740600720
38.6687396255325879	2.1829083402311569	12.0672601031777589
40.1945925587564972	6.1980075601366602	16.1479001168611092
1.7383225895470138	5.0595399418506926	16.7929171543059894
5.2811743507592395	11.1444953943352338	18.1460847535366980
4.9784846701629135	12.0477350550870934	10.3353542261162001
3.9282410352254322	13.0540990382552167	15.0699018193658656
4.1845032825460091	10.0645547808187299	18.6960359223456187
2.8949100792243874	10.7712262204958265	18.0013655360966176
0.8952705693084475	10.2832278597076456	17.8158194624747566
4.8180646857581415	10.2603084328675145	11.4603922583002706
5.7047347841493705	8.9680765337982820	11.9952512665899036
0.1543673737585242	6.9393534278073226	17.4201353999897250
6.1917906369732298	9.4554802007046010	19.3730185545451654
2.2408140936499024	11.5707510074122517	15.0103971448446210
3.5698048318581734	8.7686698621682648	12.6224602306792200
6.5832187734329919	6.0252331627302071	13.7234925594545878
1.1540138380552747	11.7846532064781737	14.6478698730946029
1.8541691236681186	10.8633914770965614	17.4537969370331112
42.4225661137089176	6.5592056061015871	16.5109441676396536
0.2757271384978712	7.7620269887919537	18.2750237469743873
9.4642807350100036	11.1691105277791713	18.2602295338568972
11.8945299707114369	11.1512867692373288	14.0930723196028485
11.3237387472895055	5.2189205823794138	14.8991365085095797
6.3005667876918814	6.8586200768221541	12.8882430909390777
7.9937340795912419	12.3110233130276274	14.6535116747151193
10.2393035400134824	6.9387915558532463	18.4005765768964338
8.0299419641512042	9.8593866713440441	10.8868364696788671
8.6766425831599623	10.6701275229674160	16.1241276932741400
6.0591888821387139	7.0881518283773097	11.2678839366399810
8.8416386952349235	12.2140601349674558	16.5931104908594129
9.0333388486859345	11.1025837662812830	17.1581083099731657
12.9811131184797706	9.4907147062175650	15.8837382526548616
8.4112488719125942	11.6593498760837964	15.5306300852874415
12.8517108251905530	6.2775411964830115	13.6666025424510718
10.4424016266963680	6.0378773267418611	17.6954951327324359
12.5508617749497180	10.2142859541653177	13.6685231666992966
6.8465823771185539	4.8645941733325797	15.7293021035129730
6.4124473209479689	6.0762980413169894	11.9108356251683016
11.0191703909330432	6.2724667392771796	14.4820848011933485
17.6970981958735258	6.5878863295927994	15.9444151820490347
15.6155367033465371	7.1118925892613083	15.4074984953017875
18.7313904084159368	11.3026825227437282	17.7901121889491449
17.8681532311705382	12.2752747379329250	19.5003653885590538
12.6738590847867041	9.8771850912133576	14.8023818111019043
13.1000924096063436	9.2832643559871997	17.0493446917450449
12.1883478524716917	10.4232175021786535	16.3351175880345849
13.9959109589259434	6.2333585483879617	14.0746421129715102
18.1757071551825966	11.0931724592292333	15.6471811915698051
13.6399515107024634	10.6019091574965039	11.9574989906331783
16.6008809620726225	7.0806887617250860	16.0024792982175832
17.6824034545875399	11.4509016884117276	14.6509414670964198
18.1537346163359921	11.5540355159394412	16.7448419124550938
12.3261323738982185	10.0693352009559600	17.4603525462897942
16.6179518450551171	7.3640249842944465	12.3977923370262850
18.1989154525805006	6.5999243495468507	14.8237168176795535
18.1768841193084256	12.4415353969995532	18.3306380472166701
20.3463343076342511	7.3098599116925387	12.7883268076951229
20.3529770166075039	9.5041893032311471	17.4352804727132558
23.7105013787853274	8.3322408505236023	18.0679569443763697
20.7040011389330054	9.3361242317454654	15.8306405188809123
24.0548572617578458	8.0244749253211669	15.9866189040728965
22.7092801283125887	7.0206619664142149	17.1764466585763884
22.0648384944824834	8.4543972888186794	16.0717184513421074
20.9277385264208391	6.3501113316241824	14.0061059755930586
21.8606260091529414	8.2373638558184474	14.1419558328758637
19.2587991901922315	10.9745248065943528	10.9984718752199271
19.3562824372428999	6.4541750578850392	14.6159981896425091
22.4928459037496928	5.8552795719894819	17.0859744567569969
21.2640240637509912	8.8367894279821524	16.8971213365298674
19.9208457732313136	10.0088169578860402	16.4403554077614018
21.3405167169772554	7.4099223327644488	13.5027230880577349
19.0365555085788607	12.3984578790672035	19.9405887870268828
22.8886155330974148	7.6205352176820282	16.1378700965074486
19.7898680151807085	6.4619064055834423	13.4603800995818155
21.5444230234749732	8.8985271945882971	15.0742064578801571
26.5272312680889009	4.8489276827820751	17.9576808408348967
26.7257236643007943	11.2977777175060936	15.9095205443833443
29.5425046603329164	6.9392155465384837	15.6696652864371213
28.4770297377726997	11.2394074886186139	14.6236895638695241
31.7533147841325558	6.3413251033489120	15.3325535548906569
30.1310623262955275	10.6132098509034893	13.3872464183411761
26.5662214209223535	7.6119006114241134	12.1728132117453036
25.3887523961486359	6.5340153342632394	12.6218769321700197
25.1800253859445569	8.1113389123598658	14.0111600135314909
28.9927888625331533	10.5940540952304048	13.7171812155630146
27.0326089205828275	8.4299873516610528	11.4671400712236657
24.2318073015605968	12.4629088987458818	14.4675067733100509
28.9287275853635109	12.4721832701699693	18.9389632805710590
27.1267597123815563	11.1426761613363219	13.6409181007770357
28.2427239660198275	12.4587239974749142	14.5209530149417443
26.2148965615934131	12.1993038780492622	15.2922350546679144
27.0475762240065976	5.1088836088751703	16.9220349619006036
23.1242437427228467	12.5015868709297884	12.3796926021598939
25.6783280524978004	7.6209758354762416	13.0633043513133611
24.4638288779350859	8.2966530229248026	14.9031526600166355
27.7701299386571918	10.9426182290070546	15.5396099064009814
33.4326843745659517	7.0158858406800331	13.8756837522803274
31.9518108221919626	11.0753629999088901	12.1643785841503949
35.1304794405279210	11.3012204022203235	17.5492081844494656
33.0406746919406729	11.6978501032248428	12.0423291562209531
30.0978331187771886	12.6358056304061019	16.9724398266819705
32.7500500317156309	6.6735076327274010	14.7804732082569483
35.4004551410054660	10.6034951756865112	18.4513693746082836
31.9063076943472588	10.7148709500293382	10.9940343714517716
38.9521859434072653	10.2192733046821669	12.2143421965078307
39.7309771425615708	8.9808242324596659	13.9765791912108739
34.4643336463173142	6.3959165658633728	13.5366987758803123
33.3568182263673521	7.6732177132978938	12.8760055311615176
35.4247143787501031	12.1670368412187813	16.8122929287570422
31.1179852605448239	11.0714302354309631	12.9952433364365962
39.1635774281086597	9.5438601946928330	13.1534571731516774
41.2798049119723700	6.5960632047728254	16.2075672581687016
42.7661854247899953	9.8704576180990085	17.5949527937028201
4.6738478977106004	15.9252689650272075	20.0381987571126281
0.5053944158768308	12.7374559243178815	14.7992980969353169
3.9159152083738378	15.1032201809558391	15.4045153727334654
1.5721447606461894	16.8965517863843182	17.9541370922021066
6.9913834198159472	14.1067270868656340	13.6622224363122271
1.6482127916652516	14.5547251969107627	15.3232650672430673
7.1563962304567497	12.4958726797675279	17.8156961889603025
1.3659493724975369	12.8427499313517437	10.8849198915928742
5.6032738981223513	16.8279506547430735	15.3707138681862272
0.2212795250935178	17.0540415721920802	16.2948369248341542
5.3768600300011435	14.8561423853926389	14.7780887370645555
0.2993874982294200	19.1296713759273267	12.1606445712552507
1.7045571439404881	18.7559135709029619	13.6444391596544108
4.5249387234425047	14.0704887183357972	15.0545090970638267
3.2828095108663478	12.0968672183698551	14.9528812178771098
1.5030241793375914	16.4456557707512658	19.0331868155071398
6.2375209617785536	11.8005441746868467	17.9319532315297288
1.2366701781400902	17.0954780667742021	16.8615345462171220
2.7558086404945326	14.9003391753402585	15.4402034304906604
4.9058357778242172	15.8659350739622500	15.2813284456893026
8.8332026345337464	16.4601031434064673	13.1664283933160284
9.1171339510744929	13.6166366943351296	17.3410411450930511
10.9948959087527687	15.8383602782443731	15.6693975269702488
10.1556455460806045	16.6736184566143848	14.0760137203318472
10.7345760920610171	15.1034511241809195	13.6719257746451728
10.6936323478676201	13.5766652203676887	16.0279218851295227
10.0620733930566004	15.3538213703954067	16.8936379920423825
6.6635644030681718	16.1289127400092944	13.9454165233362435
12.0804558401279198	18.3895842598766350	19.9033572771953295
9.7491713991484055	13.0279437674806324	16.4669644796917751
11.1452262293760409	13.9819698360732279	13.5595102142503894
8.1144061738800257	12.9390699732015868	17.2992843040930246
6.3058017798771298	14.9876774475522954	14.0461614506100982
11.0586935535155799	15.9808202745510837	14.4914207725106472
9.5306181600931605	14.6748645269155933	17.7335858284241041
6.6368051851618981	16.9856408084176635	14.8053882748007180
10.8432179936357329	14.7273729320333828	16.1673010137867159
7.6702877356296364	16.4148384849813276	13.4021376561101544
11.8922168068470917	10.8350665474052459	15.2497324695092722
9.0974940730054659	17.2779828766284709	14.0689187165353147
10.1860915651791988	16.3989508484412241	16.3547957582975805
13.7007759662274982	18.6722665932093967	19.7281703826049366
15.6839286515203860	18.7499786666665180	13.8233878426210914
13.5934039977407686	16.6015405845324544	12.9301976026278549
17.6995658574179551	12.5539779951692800	17.2318085637609819
11.7350549857193549	13.0534657284326574	13.1674579650624235
15.1807959576756986	16.5037968834890414	16.5720200243867666
17.4071966136484981	15.8274135084182799	16.1420560956163506
16.1513039486041059	15.2347750254792889	16.9834135483110096
15.0599928134618359	16.9943611921204365	14.6643555237183847
16.0737824224721990	17.7545014924668543	14.5056962560088145
14.4131271039769402	16.6562664267235903	13.7507988448570266
14.9763043925333861	15.4197882686615984	17.0353958050814640
17.2295865987887815	14.7672572308910457	16.7250155767994855
17.7979083801920019	16.4233127630247786	15.1883208383322064
14.4010344389274678	19.1199837278452591	18.8436386970630352
14.8497559391944698	17.3824200268746978	15.8070917996377123
23.5127837069782295	13.3833670008417265	14.8635206946377991
20.8872582338770485	14.6555277560910877	18.6367788925490210
22.3527040389959915	16.4854296306844645	16.3928809111618250
22.4111257088095357	13.5007875574121972	12.8075202020855183
23.1957385933306917	15.0074935474029232	19.5625143468365899
17.2298504560189762	11.7450325970475689	13.6113049027714048
22.4830425332765209	14.9316125712694987	17.4216391692186789
21.3548184298823323	15.5655724639609492	12.4729194914135650
25.1660773180376935	12.7615136330775023	15.1536681641525597
23.4444240442833092	12.4074872628897630	13.5508066684243218
20.3334112010753039	14.2935822489585096	17.1567919447589539
24.8672840668095283	15.9316621782018810	14.2093398901497832
24.0470774617537870	15.1586014660216328	15.9419646343457284
17.1224854509875613	17.1880798492799940	14.6330401916935351
22.7152389262704766	13.3129716648387646	13.9752223049286215
21.5954171440724281	17.3058797704483567	16.7402049931798764
21.9014470340300278	14.5331451381001457	12.5183820259729757
19.7689993459155566	18.5865164158080880	13.1428479604382282
20.9446443541843799	16.6648319855761926	12.5124549616384257
21.2641275657959987	14.9562658040718315	17.4786373537162447
22.9937981803597751	15.4951779816468189	16.4738537881888405
29.2778588428664115	16.6918662210569870	16.5772484254437025
28.6447801859259776	15.4745401113811436	14.0655874184871656
27.7607084114306701	17.2002105506013265	16.1743932243705615
27.9290236657577289	10.4286133209310261	13.1787102004633692
26.9415171786541876	16.8351228485886288	13.8329010366556204
25.6799875861317872	16.7731032407869129	15.3435409025882006
28.8414179308993042	13.4329333147663874	14.7473566315223970
29.1761011217413859	15.2744890354375329	15.7946272806489514
28.0233900681338532	19.2167755017129664	10.8982453140491948
27.0870773312677855	12.0339692841471120	14.4252541130087693
25.8120466056825286	16.6248601778849014	14.0999147101933655
28.9876691713514596	14.6024476216554362	14.7983544953161026
27.8970643182269278	16.2193606327702895	13.5914853998126137
24.6662370473210295	16.0438031914596344	15.3796733542263109
26.6480256818941328	17.2916377970512407	15.7735116670657511
28.3885155087386565	16.2125186942321662	15.8447816310226823
24.2718704133113512	14.0609670352803917	15.4782517744431392
28.7060857548039756	17.7328149909162498	16.8452440719437888
32.9244484788894738	12.6360139275166325	15.0595105671896672
35.0162553881133078	17.5968989804020239	13.2904992555439367
36.7752822571365741	16.7506668294329657	16.2216152718382638
36.3655612526653016	12.9429600562434093	16.8350110818352441
34.0321999423307346	16.1906450653257288	13.6369644401208934
35.0405854720265637	12.8953405543253279	15.8503129331731412
33.6172514476025199	17.8276732964088573	19.1687207729005422
31.0290839362275470	12.8417674694907600	16.3077823906124593
34.6874376747204138	17.8430652316548795	15.0575035050482136
34.1055525493206346	16.9787506211727752	14.4897209292003843
37.0451689639450024	15.6266857666097785	16.3342630630879384
37.3131802757001196	13.6018129287885419	17.1339401020352753
35.9010833357908226	13.7381970456241618	16.0089348659732806
34.0713481529574835	12.7642790727376507	15.1887250000102068
30.0205420686561837	15.7695983856567761	16.4688984300793138
31.8621388748590029	12.8130497194535202	15.5017121185833293
34.7620905402881490	16.5514791075210965	12.7608548487719258
41.2049839513038947	16.0050136594888670	16.7111488645073649
36.8144954786967489	14.4517444973737756	16.4212481006610673
40.9511573145574843	14.2141678873605901	17.8921271162290516
38.9707398287223157	18.7956863315474969	17.1099643732769202
39.5259398084134617	14.4469083432542416	17.0815909485460189
39.9718745483126554	13.4893851859984668	17.6223890306092130
0.7597020954576337	13.8444693906736962	15.0682782117745742
41.3730355083786776	13.5063374237126279	18.7680594900107067
38.7127058906120851	18.3238537824325931	16.0725634785840263
40.5519749499490416	15.1352124806390602	17.1787621835680007
5.9238746930058213	22.8844651934984462	18.4604199355497087
3.5759049880244609	21.9624701915378893	16.6789430277180060
1.3769624457662655	20.6083206024938974	13.1918104745203735
4.1703992571121340	21.1614811306870685	17.2792521310815417
0.8726510657145319	18.4139705777572047	12.9081093572910230
2.0059193654366458	19.8668091235694071	13.8341766299543387
5.9994455973579148	18.4982423947661481	19.5791114007842246
11.4884492780911192	20.7701934394709617	11.8155146201325856
7.7846179733262062	22.0439865933719794	17.5455970705934448
7.8995456241938600	17.2579901353450289	14.3274406341947493
10.3866659308050711	21.9081646690183938	13.5764782692244044
8.9168931157174942	20.5360471439345744	14.6655654982724730
9.1084200185184798	20.3731978556027755	18.2606497147864566
7.6319480526529997	24.3043670000347056	11.8794211727345171
7.2936446213950008	19.7967630380293080	13.3357244040804215
9.8499240187945833	24.9998197818233123	13.8124097820179248
11.0466222014613820	21.3500683326816834	12.7295108275788476
9.7315341614401145	21.3138227384055980	14.3620232896918569
8.5033678738706602	21.1310357533380717	17.6209235335830314
9.1151517828094342	25.4107550335867600	17.6383366248791020
8.0017733359260053	19.9414229693273661	14.2442955059242262
6.9699172044002582	22.7660347968356547	17.9553302007054398
8.6261260383615248	24.2343225473260553	12.4631594006420574
7.5075821520432973	27.2089896699176066	17.4869664472508859
6.6694420828579677	19.6818580115611503	12.3634480649286900
13.5135027169468831	18.7807492283976423	18.1067418828695494
15.4258428182241456	18.3677129393280723	15.4263232391285925
16.8774642669785990	20.2119150744131453	18.2263053667184565
16.2374444326891734	23.1779732217834749	15.0132152043729548
14.9459344276480586	22.0538362360390074	15.6604144406266013
14.9927958134819246	20.5347786891638719	15.0134041870768833
17.3775066076773932	20.5850222052701888	17.1821546169250610
16.5501552543892601	19.4841466110214974	19.1290291787389641
15.4463843070680298	23.1189424141497888	15.9680337595013171
15.7168344921659404	20.5594447365467303	17.9454579553901254
13.6197909434552553	24.8230866540890744	14.1248115902362184
15.6692604899892824	21.0801690133503570	15.8941989199757163
17.4096487790165355	23.0347255250048342	15.1001498898432676
15.2514328193069755	19.3704196065939307	14.7870589083549575
15.7289089329419483	23.8847531163038873	14.2036139988396268
14.2835372204695332	21.4889299523368287	14.8419477515009621
18.2384767602866873	20.6194474452272516	16.3750034055422873
22.0402049474639057	20.8185796556069640	14.1797209515894664
23.5647134836380090	24.9665117149863995	15.4753976021670141
23.2652671951030605	23.8835115880091955	18.9901239653978280
18.0740094150494315	23.9091145808429211	14.7153991984417960
20.4247532464168344	17.7303502935476658	12.5656655035694484
19.9457846388263249	20.1246171396307965	14.8971727722267140
20.7294257662321080	17.8402933919903361	17.2749155708522082
20.9988579067623071	20.4637505329308773	14.4983326351719644
19.1358157747591484	20.2375833218876124	15.7338292213435107
20.5357220999395977	18.4596782546892513	11.5129689073580632
24.6441341477988018	25.5398205378699998	14.3231965141558018
25.8222597457967495	20.6814864179966307	20.0533820115988206
30.2732621564994560	20.5433278624321609	18.3053780091168292
29.1067564517035358	18.7350214867960041	17.3462416605548952
25.4396721551709142	23.9927577520061881	14.4160002357257717
24.0625670229195734	21.8627098022268349	19.9608000115876436
25.7803350424758264	22.4785971021853541	12.7974675945215495
25.7285278094365601	21.4704116223055728	12.1016360642276606
29.6741211489453853	19.6433005044914850	17.8314782495473274
25.7289127127704020	23.0049270864584265	13.8461284149108970
35.7897749930139284	19.0176321254004996	15.0368390086680463
36.4780210272323870	19.9625399924554436	14.9178447939178351
30.9157266871210972	21.3648889207143249	18.8572286109184688
34.2374667182543959	24.2144697713932153	16.2138674971047507
35.5137220468692902	18.1434626372257846	15.8725945753816848
35.2504027914233475	18.4142628075918857	14.1027423504439913
34.4601806578847132	23.4595258523374497	11.7199558290994581
30.0457729507647286	21.4532452757156911	11.9949702918179959
31.5456363129539561	26.0981610436319649	17.0825238073717891
41.5789293084609071	24.7318168778430802	13.7181543818541627
41.1783696910637644	22.5699949098827446	17.9061237484405531
37.4732887169900764	20.4311490972821836	14.5449494244099089
40.1693632732557617	20.5320202542071613	17.9655588041682464
38.8048748850855958	18.9281347323941525	15.0733978427862709
0.3442947949575163	26.0213573124073569	13.1811141711634701
42.1608490351328484	16.5871151469827716	16.4122237294809246
38.5162542681637490	19.9058558375317567	14.5221890619887972
40.7731287807682961	21.4942245536609349	17.7336863415492267
40.5609698325187509	24.9624358261692230	14.2031836201811910
34.6522454743870796	23.5347922523113766	14.0344241863060883
39.5694100464129050	19.5558618018040526	17.7452915309657620
2.5389783947951443	28.9519627820841592	12.6384663386347178
2.2308231362915767	25.8044194139445509	14.6349472425249854
1.3014418498243590	29.9800570802472102	12.7373300589586158
2.7207009518158647	24.0186129688515955	16.0060872804828307
3.5067254361941340	27.6453601814951639	14.0246099758213028
2.3276454160656517	26.7789488812261176	13.3238917469376759
2.7163967685007320	29.4609812372966786	14.5593303310413287
2.2852829912281205	24.8745681789521029	15.3510368675582836
3.8342673873644371	31.1980261803886521	18.6377306392211999
42.9520991144010651	25.0196621788615836	19.2164090100887996
3.5581471032627143	28.6673740909056605	14.6116127689025515
1.3801824399697384	26.1750909803204266	13.7543367217061299
2.0366888327220281	29.6608606059570619	13.6113028159974512
3.1667815386753206	22.9935311150173085	16.3326617657551978
2.7756083891929939	27.8423756152123794	12.9957669166378551
3.1247320526789171	26.5154402377499139	14.2023981807286503
9.6742210427203634	24.0610329906379654	13.0199591097144420
8.2675056455380851	27.7815666315279444	16.7473580431156215
9.7156542540094666	25.9177887351781280	16.5782027002417927
7.0156813576331709	29.5294740539729759	16.6748089020565970
12.4844791837945763	28.4433172586046119	10.0339403215383953
8.2731392755784494	29.7575452301234549	15.6260296614871947
10.7872731604094874	25.2153725288167685	14.5624245165784476
6.8469579804815996	26.6504264688097372	18.3180381418996099
10.3248995914400812	29.2128473384990670	15.0598869115318799
9.1752621193394983	25.9582563473926626	13.9588009998815537
8.9218180031607321	28.1957747403046781	14.4003949464609651
7.1202663192455740	29.5274702281635690	10.5655100173653835
8.4665092608251769	26.4643840952679987	17.6615500365627547
10.3882869739573547	25.9033519605903031	15.5367744551012077
9.1246042314773241	29.2489050190897011	14.9110231705943779
11.8252152255371517	24.9164786380844632	13.9702301793403922
9.1584804824526316	26.9831423757965609	16.7579305220784924
8.8941910266867108	27.0877725382760381	14.0577466423463022
7.9802845059299141	28.8832151444896112	16.4353710305535827
11.0613812704447003	28.2400308742235886	15.2720982209228229
17.9046003011737085	25.9635433089389984	15.3547594530549585
11.2032497571513971	26.9504754322234454	15.4787230707423298
14.0325789241812853	29.9884262608494474	15.5644731177849742
16.3163587873806257	26.2490238274558472	16.9526675659494188
18.0743619507413378	29.4859248336675002	16.9739420153097917
11.9206288747138949	29.1312495880557378	15.0561280780033258
13.3230655262301489	31.0232530146449683	19.8447507612223539
12.6928696628948767	25.4364361835200796	14.6825503525344399
15.6069606386478661	24.0800545889513771	16.6519443139373458
14.7200270584248525	24.4443301904590200	14.2522839172119458
16.2171043378374726	28.3067604930189596	17.6228345334511189
15.9139762591684431	29.6444937085281417	16.8144514713289546
16.9654239731962235	29.0430953004661205	16.9627842130846496
15.4062674580413379	29.2074547200306895	17.8666386981723697
17.7677809240008635	26.2205340913574290	18.8384968799542030
12.9801912324989157	29.6352032437353152	15.2071953123321215
18.5551752905054244	30.5836425837867374	16.7365569053790431
17.1694268886115715	26.3935327350945848	16.1359288061773150
15.8704458679638254	25.1307708535483236	17.0782724672037531
18.3652922964710967	25.0272262898292759	14.8380721428881017
16.1850470009510019	27.1178481503569024	17.8219749925086397
12.2183471133502675	26.3387233546629282	15.2718673618333529
18.8712767489209767	29.2504921368903794	17.9221572489740524
21.6708942689584525	31.2501989737382360	11.5148022382389357
23.2517931313945105	28.7346731513143681	16.1356170881369323
19.1417664276740389	31.6669987078366049	16.8002681933567750
23.9935589087527639	27.1380549381625933	14.5605162144452311
20.8205685923811430	31.0292000055056754	13.5890714660906653
21.7307807656774052	27.8765960421909682	17.7382960993574805
22.6395475994779396	30.0988889071953167	18.5984507625479623
24.3714182337028014	24.3518684829630132	14.8665200242250446
22.6214379790892934	28.4302181287910543	17.2223424873429316
23.7270104735235456	26.0322221284968585	15.0066885092688196
20.9744650420446703	30.7742490580509873	12.4543144939593784
23.6637646654173182	28.0592256435226801	15.2353130220493913
23.2895981282471958	29.9023465378805504	16.4385559391755827
20.6182889928898874	27.8102925199376507	18.0968619103052291
18.4975551164603473	25.0843711456225549	20.0320019219786118
24.1040289245013852	24.7160234357186361	19.0335477592753541
27.3572681170274663	27.4359281946429228	13.9307188771999186
30.3909031609540925	29.9010451757551330	16.3408109813141209
29.5059103781393475	24.4880142552995395	18.5429984186438226
30.9051359183351195	28.5918683626433534	18.4350514032146080
25.6029189962938872	26.2627139769106641	12.8097841018390568
27.1421350196156119	27.6243476889605830	15.9960055349902586
26.4923947975654102	26.1089573451738666	14.2928087091798997
22.8709378936719894	29.6261919273222709	17.5213612902373690
26.7504110712138328	30.0809297053192175	11.4343830623563534
28.4321562079173056	29.8431312615961097	18.2947065108673215
28.3168602648750429	27.5568255419342201	13.2516779866969543
29.2223524090594324	29.7687990800245643	16.6461779050294183
24.8139031122954030	26.6098755135587339	13.6711413358857605
26.7550575972120299	26.6032222654584309	13.1630692383657788
28.5339997198247133	26.9117027114580978	11.5610922368456723
26.9740253964984227	27.0025740013332829	14.9881805165228421
25.8209186054328406	25.1350213643064215	14.1004731876091469
27.5516612640262011	28.4135380482947717	16.7485657552963225
32.1011426170776772	28.6577494405208242	15.6527878658169257
32.0944701231645766	26.3491882625067966	16.0368547572607980
34.7826191337779349	29.1298821674486099	15.7623392623631471
35.8528261915701236	27.9141254377168337	15.7114870562065772
34.5193834752826731	23.8514188969884771	15.1520043788919381
31.1205262598173107	27.4538096160595408	18.2271733609939979
34.2593341431509302	30.1925282620678921	15.8255629665614741
36.0090498713261269	29.1457439582148368	15.6292245527610394
34.6490455408269469	27.9540490727585080	15.8795371585250802
31.3289464464902849	29.5669696128325192	15.6430734188753746
36.3659881186380076	28.0349855964951971	12.1221216902436630
32.0500512025057134	27.5597348530032349	16.1185052129479196
37.7284269189794301	26.6544441538221335	15.2968425488890567
42.2979402507096935	25.6923947840481084	11.9633397392557992
39.6184305441863742	25.5082190862324083	14.6144621763242260
0.3398368736396399	24.4561950512086206	12.4273836506598592
42.5854327557626462	30.0543379409060734	19.2492941057055056
38.1652995224319156	26.8382213379623416	11.2836749032121961
36.7861213375768727	27.1859524748331367	15.7130105292194386
42.5172710912817777	25.0954589265078134	13.1060704257103531
38.7188039783373057	26.0945378079285497	15.0496799593942807
40.5082447002039885	30.9316536194831748	19.0181019768096284
41.9282975657814561	35.5172964572316374	15.3659872592963520
5.9348446979558505	36.8286127510173245	17.0208553045254369
2.7019465223800245	33.5461635260581730	15.5011005029453770
7.4193890837232548	33.3563276938214628	14.8513504801121243
4.6403390681582231	32.6105183936798468	15.9240402778804011
6.1902595130010649	33.2397614003628021	16.1241561572085566
1.2900196231955396	35.3280854647632694	15.0324892783808153
6.0380775772071535	34.8607937303304141	15.9447347079579735
5.2400818855915317	33.9472758399313861	16.0887044335922624
1.8609329212510548	34.3056174838918508	15.2139988438814857
3.5119901063869463	32.7099729419143799	15.5926089690577747
6.8271964010808563	31.5402406021316892	15.7639112899296396
11.5536992392078481	30.9710035113043958	14.1050576608945661
12.1655827167062576	33.1526162371026203	13.8241567064360673
7.4816121548471521	33.2621537466306378	12.5377082714521535
8.0235153972283246	33.4049215474603471	16.3532598827071460
11.1233821308170739	30.0030047828009216	14.6322403491124380
12.5078411672627645	31.7612183425756882	19.3796615687173173
11.7737474639689221	32.0574982440425202	13.7411663672347686
5.2560420083862702	32.0795855725596439	20.2320789785545223
10.1139623091132282	38.3817253682416677	16.1031700860198370
9.0074966361898117	33.5035110432406213	16.9910192192708429
7.0468059517511481	34.0942279068936998	15.8482668497871391
6.0152289883448455	36.0544984872746426	16.1046505566990454
5.7703415269391218	32.1368316818206452	15.9421429565568236
7.3800808989414390	33.4357809690785359	13.6922867103582018
13.4005659584158732	34.3495477498175603	16.5119209100759150
7.6162057259627209	32.4639762640720875	15.6720813879398673
7.2549629544780396	30.4333914428819128	15.9273450719975411
16.0854038165206603	34.2486158893550368	18.2876408958366810
16.5155686598598770	36.6615419256929869	12.5996525394283658
17.9434847982552093	36.0122488501460722	13.2409249357120267
16.4043688129470979	34.8184084767657751	13.7766269736035980
17.1181990085569851	33.1610475439833721	12.5362956217521742
17.9802413475198506	36.5608463888911217	16.1874292839388723
18.0011139207897983	36.7608350151495316	18.5108202782837488
13.0614556123064300	34.3683257013833270	15.4136282133441220
17.8789356303122950	36.7263493132317578	17.3583618468892595
13.5138314648160449	32.6292506461003740	17.6372913289319513
16.3986849125978758	33.8166794689280721	13.2004192744365056
15.0740797189901485	30.0211590981081606	16.0828222310542870
12.5767808774534942	34.0866396444487023	14.3880087680042514
17.1477967625061645	34.2660725189504234	18.7744075765347276
15.0488412710226029	34.0676474152389943	17.7993816056292253
22.7737352562050930	33.0721166424066126	12.2669121998326585
20.5951110866518761	29.9846001104970981	11.6241759629099839
20.0112824645182634	33.5485560194829944	15.7690780885872233
18.8368460465519867	33.9567533274688600	13.6651499308681448
20.9256131218259434	32.1759606569482060	15.5555795288836691
23.7483949699253110	35.2608398860045611	16.3319709963653104
20.7396898171456598	33.1108044629182032	14.3220844811871348
21.6629219527078405	34.1700450849512478	16.2447744415586861
21.2649825090968783	33.3533130291599988	15.3873033495771612
19.3278385867264575	31.5949483234826083	18.0311834261851907
18.8765765220579667	36.0447984485790727	15.5851056296997896
20.5566460290717075	34.1903327244799016	16.8115139369548636
19.8580341663272186	32.3316235615000593	16.0979013869820768
18.6239792117310508	35.1389926763337783	13.6822478854485450
16.7231490873171822	35.9575929242158452	13.6179674498713901
19.6514150305652535	33.5683089764357447	14.4754615089996914
20.9334733380834841	31.9023410222205506	14.3497128663365281
28.2131923217649145	29.3183159797195110	17.1442180390017356
27.9587041660590501	36.1484735832521409	13.7242853707171601
25.7922541170087456	36.1391701893555677	17.0835935322374084
29.6384056049079447	32.1076706661335152	15.3560866090146568
28.4291603411931675	34.0459285930879503	14.7955251605716143
29.3675644272014154	35.3153773132388196	13.5602747116235243
27.6864639191347557	32.1797498787694778	11.6479559476040304
25.1511283037249171	35.9113420805828412	11.4606012323575452
26.1856547458097815	37.1090328716052582	12.6669089575278733
28.9967323528905077	33.0629277239924591	15.0907580528583658
28.8820658998949007	36.4890511956250734	18.4712960350612043
28.9631841923098072	36.3364432317805068	13.0494539040195665
28.4441737269469002	35.1173760148630549	14.3124511991254479
30.3518105910291389	31.2060307006807811	15.6355815725221632
22.7737772319961742	34.5977209080018540	16.3366649112569000
29.5713312605544587	34.6952718421079283	12.5570188518427699
28.2886482275902580	33.1655347175265547	11.6434437395309800
31.9745193801891148	33.0664647945698391	19.7865125375966961
31.2413288722039475	30.6416952507887395	15.0351195092249643
34.9329443062779319	31.1341060036936739	15.9835832018017037
36.8798460973050410	35.0413157114069875	13.3734667447432809
36.0648660017330016	35.5138583959118748	15.5795197022057401
36.0715582694599561	31.2156042066853310	15.7236689866852561
36.5581383030582572	35.2111198704841968	14.5503084161932694
35.6016569459484131	35.8304925876449687	16.6271325935974801
37.2483668055855404	36.1433245987964398	12.9902971373488327
41.8576366371271078	37.3431976044520724	15.3596330674303285
37.2497664367871835	33.2017493662641527	11.9564766067947730
36.5670496210089269	30.1710739828125369	15.5599686443778058
39.9800351590237852	36.5258072650994166	14.9305466472493116
41.1156873622414736	36.3701461712988348	15.2300682716599276
0.0654084253542778	35.6623995487393799	15.1396939334039828
5.7429112892066350	39.0134267674320157	16.5237735417361655
42.9962726312501360	41.0884510346070400	16.7312752445321387
4.8679458995805467	41.1329990936155809	16.0397054703239768
0.4710267684902104	36.6973742193276493	14.5771093641903065
5.4279493255784379	37.5708815119478459	13.2545055192645709
5.8348626303428190	37.0593993492044049	15.4049157284700300
0.1756893407719640	42.3666515959279835	15.1165647329985333
2.5195059008145853	42.6737165280035526	14.5627380534042210
3.0257378927390319	41.1800005476852107	13.0651137940622597
4.8395941418577921	39.7600505648049918	12.8073765836718554
4.3266551570524854	41.3279451388097101	14.0334938447894739
5.5003298606517346	40.1322524536917271	16.2606231314871756
2.3493718991239874	0.5032048425177680	13.5433738965989576
1.2913588003939334	42.5813451164953420	14.7348833561507568
4.1494963273679772	40.6929461040863885	13.0072531494237928
5.7855703615660437	37.8415096932815729	16.3786626074695576
42.8833831153122844	42.1794003026619393	16.2953256933818409
3.1878719236414179	41.7505762010986530	14.1313955399799305
4.7771303130059266	42.2393697928913738	16.5287858005483592
1.5884869224445155	36.3438331121765614	14.4549031219786563
9.7045514697286226	39.4399934829480117	16.4657355050325336
10.3256268855715394	41.1723710625868691	16.1695711679429266
11.0002439176492395	41.6713535108208362	18.5212726523154956
9.9855102020614819	42.1709557836936213	11.7918885742825008
7.0309357117795148	36.6712606182117398	13.7098305847257365
12.6101922660663188	37.1846237770992900	12.9138389801702136
8.4571294884193176	40.9242533774794381	15.9268810794490712
6.1823360213508893	40.6594079124473637	15.3255840506280272
6.0586807656021540	37.1066642741548662	14.2297224654247501
5.1755706764268128	41.2366462159936944	14.8629977200752261
9.4204710221219887	41.4790227238161791	15.4742664453193726
9.0388601343702835	40.3439960995483347	16.8953929348612668
10.4653622743989843	41.7743230718980598	17.2497148155298845
11.2825912109550348	0.9271974936689743	16.6720547531740486
7.3087584077140573	40.7941596791695744	15.6280064323371075
10.7944703505018325	40.0555478553364637	16.1849498772350415
6.1882683872393063	0.7162389073704213	17.1880349952612868
15.0505588718330099	39.9299497160650674	14.4516442594157706
14.4761649047829373	37.9789931455289889	13.8608723047226174
16.3491682427473854	36.6936831752979629	14.5885443746045365
14.6758537002262983	41.0979004742933611	16.4092106407119154
11.1240874678592387	38.9447153899561087	15.9022903170073118
17.8480617307057159	37.6599551598681828	14.4762938605099905
17.6796354576619059	36.6152136999191882	12.1714447041755616
15.1122838548345033	39.0320789137982587	13.7058399129247306
14.8368884686853235	40.6377117183966661	15.3500032850950987
18.2003280019399547	42.4177783355386993	15.6036082671019773
14.4089962593632066	41.6545572852385604	17.3980956200092436
13.3409070559034078	37.7341881272085757	13.6150974263190303
15.4267404588301584	37.3088606191846424	14.1826636846473573
17.2523957995520796	37.0285813560777015	15.2913323614508876
15.7822934091317943	37.5447998257165594	12.3195917735896128
13.5452237658162264	42.4779493688712932	19.3723257574585617
17.1928968292874025	38.0849454013960980	13.5256302748684725
20.5472308548416329	0.3199815379535916	14.2220690259533029
19.9025426089021131	41.2810995142453052	14.4044729492561174
24.3443986230906546	36.6741226164391776	13.3599371224241867
19.3041906920018356	41.9837145456950012	15.6931708764473683
19.0552677761749152	36.0088210035471619	14.4293835824308925
22.2787752501186738	0.3593006966166964	17.4825556978746484
20.2115210844498101	40.3948426363412807	16.4914784180277074
20.6101836583711524	40.9076538866856012	17.4440163792733536
19.9825251301067119	42.4629240908758234	14.7766680115461302
19.7016539662201495	40.8303142460216719	15.5192595773630426
19.3200687378085618	41.5255512718623478	10.9881917753294402
23.5689791699153517	36.5949333931179126	14.1959611402188752
18.5892275421804563	36.9792805241601741	13.7606854352970149
21.3018869700969482	42.7774117473683404	17.8889831317479562
23.4363287962071816	0.2475930328455358	17.3053556356606109
19.6386973653271326	41.1743310377067289	13.2588861431011740
25.0986772843141068	36.5149445573210016	12.4609272576960937
27.7971185364242643	36.5280949476347772	18.0542531805933208
26.6632631820237478	0.6391425089759173	16.7181351898920134
27.2935657304959491	42.3878815264724977	13.6799262354733902
28.8875122707318965	40.7904182296501645	14.0619782660748349
25.7315379460681726	0.0740607531147627	17.1604572226592715
24.7960602950752076	35.6304538260516352	16.7627280387075146
29.9194218476546325	40.5696274924226401	14.5511142746787741
27.9779627049465844	41.4468024442427350	13.7559326765611978
26.5974855869586015	36.5523950527255082	17.8896969554143155
26.8882026513019170	36.5340610409090871	13.4354553132284167
30.9514482185667283	40.8825866643331395	14.9909258236972605
32.3277364638293108	42.0809135570070225	11.4275329074723722
35.0927843758045839	36.1982835317886824	17.6356469149470634
34.5218130743211731	41.4412260128923720	14.5989858619095028
33.0162401023898511	41.9623672875912348	12.3995044849048597
39.4116130297505052	42.3193238585469587	12.5987458614840673
33.5212928301913919	42.1504365796278222	14.1671804572344406
35.0859671046516794	41.3977970012838341	15.6315967044512600
34.6150575803269902	40.7865098321839881	13.5887945975603852
31.9184224143376696	41.4798093504952945	15.2103801442904807
42.4383179390259144	41.9430558102616686	13.2294353216246456
37.9076355342038909	36.5419963469656963	13.8782130160749340
42.3921157440716527	38.3462891586125352	13.5756413350244642
35.9609815409251041	40.9545296411280617	16.2658745334542338
42.2976545603533793	0.0208982969194737	16.8991588589755359
42.3668423995719010	38.8863033932997197	16.9499707701376252
38.9536946619173250	36.5834527155960032	14.4014029547296847
42.7755960369902652	39.9806954679176911	16.9867939259037470
42.0072211554266488	37.9780372974505198	16.3298594091384714
40.1688379346154250	41.7050096891140782	11.0834243891350877
36.9362052371913734	40.5512904436742119	16.7237513526789172
42.2039582975817709	42.3503241179405663	14.3752315961161976
41.4653822010530462	41.3988904052882845	12.7546845792289645
41.3472720146265544	40.0538758686136376	11.1206111426731908
42.2362123690176716	39.1813250776539874	12.7689994393052721
42.5852453697356736	37.5128485019422300	14.3909403678839301
5.5914703243876387	5.8392696206251697	21.6274896827833096
5.5465685547113663	4.8820614191066616	24.4632714167662293
4.0256955580861655	0.9208416954845550	23.4901054470920272
1.0354587228573184	7.3046688369104196	19.1248379984407819
6.2528847275430541	3.7909602850394162	20.8090812578752704
1.4979502539949801	5.6287059215741042	18.3434211991820355
2.4685636808591553	0.3596556973299655	21.8784883244387700
5.1361577529968434	2.5791455113215305	24.2320723283648185
8.1002917674592219	2.4546595449008946	20.4907949461736223
4.1996323460512581	1.7772127927184835	24.3364537643846539
0.8181059256573904	6.1083517920642842	19.2221990480439153
5.9836359198707170	1.6817537023127145	24.2835491392232790
3.3219707060322592	0.7138586532045630	22.5725435122283393
7.6601785428128579	0.9463129517128833	21.9307702448800121
9.3525765355105790	4.8731875125638506	23.7339362518687338
9.6962704863568714	2.8477178082861108	18.9348475993799710
11.3149002064429549	5.4102644099943014	22.7477771255232426
7.7709896567246490	4.5474421118745241	24.2701788513464614
11.4751783450581168	0.3735332078611415	20.8658138254280949
9.5088181156123053	1.6242945491018803	20.7181542027620438
6.0415993680563780	0.7548820794471807	23.5002824131868309
12.3913165901534672	5.6735457739502504	22.4204700664461392
9.1851098559595368	2.5195201426187879	19.9291194957447608
8.3996240210284441	1.5119186027526876	21.2150115894629003
8.3558090154489850	5.5457835404895048	23.6207659095564892
10.7679585818756163	3.5390247554444265	25.0258905348782505
7.1072483128559689	3.0773512570725718	20.4692982867211697
8.8390557289331770	3.9922319535067832	24.4388672882473159
10.5355089630809324	4.8617460487504571	23.4507954286547289
6.7402083237306973	5.1693170385871250	24.3616233356973169
10.5622361074416968	1.0920666450668397	20.8069911467905975
13.4931280158891305	6.0268636727073366	22.6659766270071756
18.8628981483673321	3.8402909429526995	18.6457969069838612
15.1201205372199912	1.0758875432000758	21.1939831054014753
13.0768283013065822	1.6263133827900911	21.1915714680156455
18.9475423494664668	1.6488311623079352	18.9518833853038196
18.8133084787319440	6.0590256798681539	17.9162182954321025
14.7841322437794034	42.9518101585099359	20.9304475502152982
14.2207330671374130	1.8194944884331841	21.2272520046293174
18.5238381347700134	2.8515267510819178	21.3672805184136791
12.6586363566302822	0.5603361270634696	20.8442494835810095
14.1783788375496194	5.7238855268252884	23.6498031861038456
24.3573684784061690	3.3869568083063073	20.8426404402297898
24.0790310905765992	1.8332391720464476	22.3312695980271272
19.0979121342912173	3.3895262335919951	22.2222075096558349
22.8937036390412807	2.8785855920340131	22.6943694936323972
20.8774035195008665	3.8961454080254905	23.5439793200220251
26.1299241061206189	4.1805204282244004	20.2202817823760626
25.1407376409246268	4.7570331521478568	25.3258489792036698
23.1224276418357846	1.4711386103132700	24.3821603849907582
20.7536519953442919	0.8533173292919622	17.8102066556987140
18.3884697872059704	1.1809824349248050	19.9391093120543417
20.8849436851349921	3.6558371676141186	24.7642085386070470
19.9097711638891965	3.9061649525383606	22.8746115178944827
22.0379281022072746	1.8271803186490712	24.8693567985504664
23.7844813158019228	2.8400149127811716	21.7462150705571737
21.9379180456225527	3.3092338790449136	23.2769609755968183
18.7003459187839738	2.8311278099793675	19.2180974144098009
28.4359613745099651	6.6440092210910882	24.8045105196581765
25.4040470743502453	3.9593386027511337	18.7647057856762913
27.6605612906687988	42.6045312701008498	22.9893962787821948
27.3209044350830013	3.5066217469394063	22.0378056899346007
29.7347423015635854	42.9827620510692014	19.4040218091847443
28.1427407493944521	1.8965440850669111	23.4320557654344377
27.8522814671719452	1.7349070669141629	24.6418002549507982
24.9893025230763826	3.7578244513763432	19.9098026759878692
29.5886993830105105	4.0636697738470193	19.4840350404755753
27.8799403821648646	2.8696024886997291	22.8272009492588914
26.4953586778180323	3.8383086412715106	21.2833302605309989
26.4847637739702364	4.5258515926042850	19.1243889619458720
29.0266529004662104	0.7706801729844487	18.9196610195066945
30.5732096694458946	3.5305574329404306	19.8088698411763886
35.0425228039374730	1.6434638697362582	23.5233435241777933
32.7192548971155119	2.7582614388227649	19.4554229766744236
33.0092003102842853	4.6063922116948950	21.4265388757119695
34.6566288735374641	1.1895820468505549	21.5611221922130731
34.1612623117040357	3.0900479081288594	22.5612190379839532
34.1569883094797078	3.6479568371672437	25.5224425074795782
33.6124085324954152	3.6463265205336044	21.6702281398634362
34.1682137641425427	3.4941107536204843	23.6970378311392054
34.6750547342695583	1.9814508389393979	22.4331021879237866
34.3926165909227493	1.7148405405685232	24.5471921430068925
32.6589125880226874	5.6739660819942186	21.1193629157586997
33.6786125510616969	2.6100731184326507	18.8154545039089918
38.9450414653431949	3.8349377616133977	23.1556324612194331
36.0316635256532081	1.1595652165574160	24.0327598901055453
35.5587013642129151	1.3431693208946787	26.2439448878382926
31.6442764438632267	3.0838841476710872	19.7681413419800229
39.7588586876261871	4.0143309647572956	24.0232961288772913
38.5775526057306095	4.7350284113162013	22.5377796204914276
38.3625380321891640	2.1699168597148049	17.8093655817461212
35.3975946105959736	1.2621828245011448	25.0751507154390580
42.8663817249958043	5.7440140146167424	19.8145897744057642
40.0673172576192158	0.0487539613235084	24.7879864311073845
40.7551591738676180	5.9028409153589374	20.7628354075166293
39.4193148756596514	2.0433436808671965	24.1429060365309205
36.6640830176123345	0.3014850349015762	23.4790986800579553
39.3639566730906836	6.1464474349474791	21.5329402084017687
41.5308360373627821	42.7231352488811496	23.4122646196609736
39.6791429040887351	6.4231590777083580	20.4048299700012734
41.7979679291666457	5.7105802204886684	20.2556641561496313
40.0004305633062671	2.9708087414210680	24.5421155036129441
38.3290559292362261	5.7695312206308209	22.0004836184661485
39.3914435703406980	1.6114012005394240	17.7838240842861737
1.9764966448864596	12.3772638864105904	21.7501843438491989
6.3360537200177829	7.8144242904660572	20.9413185781635072
0.0754499624563397	8.9375846676440940	18.4337100354452126
0.2111628436684859	9.8979782051225556	19.7825465540987508
2.1067763241473210	9.1222537001538040	19.1335890785446772
41.9039616759971523	12.4822271003012641	20.7898437945867904
4.7701621073469642	5.7911612289781695	24.5631168793530072
2.5252204929211297	10.6165431830556649	24.3139922383114850
4.0774611595244759	11.0801321849916121	18.0093796127629915
1.9097724604125064	8.0038885317368607	19.4756520838811831
1.8799242101425695	11.4874227749629760	22.5153854458129032
3.0340524653943248	9.7959056973894132	18.7775057698656376
7.4577312822079627	12.7027341990149214	22.5406494812392424
8.8288445131257003	9.9214848438142198	25.1549862237649116
9.9505158194716525	9.1225277045641153	19.0485041231921741
10.5139378064847921	11.8772547595300022	20.5974200380558798
11.6798290958337336	10.8995891282369683	23.9858557805737327
9.6185800654012006	10.2223115584551500	24.3584385810852027
10.0598711746786638	7.9857445602332087	18.8637891331437721
6.0329066639567639	6.9220135873151678	21.6222284277224226
9.7489252091498617	10.2739796040649392	19.0485186933407427
9.0181461890989691	9.7087255012182361	26.3059440536905242
5.3850401288866969	10.0747991793413512	18.7926215177920604
15.0805219587299906	8.0254841448695604	23.7152501547701675
9.6917415506958591	12.1006902017399582	18.9747694555291346
7.1725366477817571	12.8171407879515655	23.6560472275824516
5.7811538229658277	4.7794736764382009	21.1954593397308955
6.4977874199179233	8.6372185213773225	20.1355783487056037
16.9335523705225555	10.9209521480021738	24.6258358546211795
15.5702366529794762	11.6820467981307328	24.3869441735275458
14.4298850782319619	8.1984639895868412	22.7269691049529285
10.5708074786711723	10.6087803009055577	23.8010186341006538
14.7107764302648878	6.8084468754154504	23.5338428604029275
15.8136359342260597	12.0461515338375769	20.7101616154870243
13.7586724307450634	12.0229296086412045	21.2609129012122899
16.5363511858172139	12.0101360725877804	25.0536302183427111
14.0577575991641250	7.1074687470500741	22.4972979952499195
15.8526546607113055	10.5119807417686175	24.2093181714376691
14.6944638742942875	11.6822786504833740	20.6477986346296269
19.8930985143051871	9.8106285435201830	19.2945769623159507
19.4817000181915141	11.2897852519187580	19.7855042213627215
21.5105103642810889	8.4848199216559674	18.0778656578083243
19.3942109342639704	10.0445433300473272	21.5634554375251177
19.7777928153909279	5.8094542021010138	19.1995072385735810
22.5873795235897354	7.9123881322016558	18.0524303323917970
16.9329977486274217	12.2493318533405855	20.2425126393895098
18.8749250671345870	10.0306835103325405	22.5975686442840242
19.4581113583201457	6.7844566531027377	18.6530372752813101
17.8090025286834255	10.0909077550741131	24.5773222625975656
20.6596811543478189	9.2363794642690440	18.5765291317317462
22.9457861049713294	14.6777847695008230	18.4748782277644494
19.3529299182648131	10.7863816616276011	18.6857828540149171
19.6712192584638785	10.2798782039134853	20.4243340997862859
28.3496894598802349	12.4236130098651500	24.9133612013285273
25.3822251687221474	9.4642540207525752	22.0139887039792868
29.4290779908919653	12.3903858040302666	17.8974955661952606
29.0274090006539289	12.7466893178650569	20.0809115541006626
29.8003341607694665	11.4311632524531408	23.4699226878295768
30.5187489245890120	11.6426104059063782	21.2239219558225365
26.3851636166557668	6.5294835914771454	25.6499409528588025
29.0141123017291420	11.5683304104680591	24.3505591182254797
27.4281845114839875	6.2079566336741987	25.1716067126669358
25.8159378734297320	9.6268049956463209	20.9671894073615803
24.7418156085243517	9.2373730083135683	22.9665335977115497
24.3446485373811718	8.3700887281007166	17.0990784398675899
29.9994559829967606	11.3227196901894231	22.2803622453844099
31.6898592925470659	12.1052843650205570	24.4721439154463702
31.1508335618148848	11.0957932612995869	22.6145541685441813
35.5228785309018278	9.3981632113844995	18.6016026720076582
35.0909368708212313	11.9554705773380370	23.4343945155344855
32.6894027303246162	6.6562554749188454	20.5018994615298062
28.8261338142368118	4.5693303109729317	18.7681923588857948
32.8075141206074790	11.3306610869610580	21.2284395464110496
35.1153251210406623	11.6134472923660805	21.3837628245504732
33.8460208140635288	7.8971161543658832	18.9800336251139328
35.8124379372777710	11.2496318989351103	20.4941262953817436
31.6761328777999189	11.3107538717482523	21.5525905637531530
34.7377092501590354	8.5325143486370827	18.5928409861214483
33.9326193065133310	11.4566755063170049	21.4612613481845287
36.4904267562866309	9.4496460163333307	19.3579278254553522
31.0294661367154418	11.4218022834210853	23.7716251611429392
34.8717112164099561	5.4015946024802570	24.2880667770427543
33.1164156632551823	7.4492809561097033	19.7678363090073574
36.3627335034537396	6.3588736362534908	22.8321610577627894
37.2651681611719354	6.2741545828629262	22.1196626568340164
39.6927960147709058	11.8184158922201927	24.4759342927133261
40.1695272603553022	13.2104052010852193	21.6602141902886025
40.9076408361664150	5.5278036635058507	23.0032089441467384
42.8586625223117039	11.7670161755750549	21.0620864769862735
38.9583111208282773	12.3154575641032711	22.2614524818302328
39.9785267412776051	12.9104962066836002	23.3189226755942123
41.8080203657696927	9.9574953270119053	18.2898004950291373
37.2418711658732846	8.5643187475405202	19.5304625115144397
36.0058407678299091	10.5829928395275932	19.5421521161391887
40.0401979183369221	11.6304807720559449	20.3204305644693193
38.9885094224456026	7.0266537540307139	19.6679380815072697
41.6677612432111744	6.1761011625508777	23.6787655700316080
42.2231254330287697	9.4049115213033421	19.2534347923649527
39.5560973776217821	12.2292084048404863	21.1970360206439210
0.2531026812258453	10.8733404739621733	20.4289629581017174
40.5850783761764902	11.9573111359050497	19.3303187160624859
39.2795503841732341	11.8495077674161280	23.3180674212936516
38.1014386336548725	7.7842966271648928	19.6621350670856216
1.0198716026289198	9.6355771298767401	18.8862608160277361
40.9265684125124096	12.8297356536904754	22.5458554169055851
0.0687189937658104	12.1720297990977002	22.1889523818126193
40.0387390744377427	13.0132243936646947	24.5166951290428763
40.4050737740675103	5.7102143326082633	21.9289129254733837
2.4519867061866556	10.6802144617295429	23.1610329001361137
1.9334571725085359	14.6177865035203549	21.2757833402382026
0.7614599852984003	20.7657451280052889	23.8829230544468132
2.3633603998164867	15.9735619084542133	19.7541892550312568
5.2598792550718381	19.3485453393719737	19.3566624851918974
0.7360087696771763	16.0855005676464451	19.9414785364055653
2.5724904196227918	19.8569403076402153	24.8999495925086372
5.6153757153485273	16.7535973362922839	21.6835844854549151
3.5356507806850299	15.9324627900775635	19.7788455726398453
6.1177347739852266	16.3108264049936373	22.6547053387295598
1.5996972553227560	15.4991977392928355	20.5824720370650951
5.6676444188402577	16.0999375093723884	20.6482916171393711
0.9613161523106826	11.8911802376126285	24.2389861227331807
2.1286192650873961	13.4976834402670107	21.4945413547317941
6.4482473631986750	16.7958900493484862	23.7154503593191031
10.0580499195443789	11.2107659928796153	19.7514829590900085
8.3081929247446258	16.6995452719642330	21.3310308517501852
9.8245650928018637	14.6878810202387040	18.8779996991406200
10.2425192235261324	16.8271039524448049	22.5692307234384160
10.1503724813915053	12.8041391185285143	19.9147766350768158
8.2864953960427670	17.6815628123774538	24.0110902329040030
7.2897403899353304	15.8540669036863449	22.8015327786017075
7.8141190825000812	14.4934149271312531	22.0136531390620682
6.8746730606331532	16.0251696143679396	20.7692967015916103
9.3829730968014502	16.9016262274882152	21.7942792420647358
7.6529468267972209	16.8707765287503761	23.4520131831740777
10.1683490432970096	13.9682705591392562	19.7070672774290649
7.6929080657498439	15.6329185239519006	21.5838968471713493
7.7069441233596150	13.3819173937051001	21.6273917138061229
7.3913921964063416	17.1180805721049296	20.6318400372819362
10.8321337023594548	17.1771838909405439	23.5476465473510750
7.4917372382846317	14.7080073197515517	23.1621745050165870
11.7657234240589155	16.8319034921717332	24.2090700514679469
15.0783520277769210	12.6442456858606960	22.5501825927995334
13.7532301620728941	12.5889168355808252	23.5712570018685774
16.4929436541476235	17.5782983553300625	21.9184611783512011
17.0490672237720737	12.9287855511892769	21.2701299246186331
18.3144092175073183	14.4675305752485048	23.8242229793689155
18.7751046589332589	15.5060002818361689	21.1186911667739068
14.9678221447222253	12.4768413425639046	23.7424761117017979
16.3996376702550606	16.3949716909860825	16.5411765835443241
16.5769041971377931	18.1539257049846192	20.8911949163297059
18.5639151236534730	15.1587974804718755	22.9018612325214939
15.9662310174160513	12.7187830389582519	21.7483792155380229
17.4747866167142085	16.8915699454277828	21.8391772348312294
13.8732895554595643	12.5242732494126017	22.3286666055673315
18.7237017761490030	13.6016938070698252	24.4874497042810582
12.7561760407237159	18.3646944821330891	18.9138396279049665
13.0189215318660523	12.5365798578766672	24.5310806688052381
17.9432945894357090	13.7002187620303442	21.1549568118738947
19.0823056908483615	13.3149231489509887	20.7454945914327453
18.2444142384601342	16.0199450116223190	22.0995713000433867
21.4868400479251349	17.5256229527395355	21.8405656548092395
18.1388318018857149	14.6936637362489542	20.4850931574482331
19.2906205010911869	14.7718142784423048	22.0099038551248434
23.4295437015823076	16.9354343908953240	22.2836340458601718
19.8163996539673839	14.9038944959362869	20.3368944334817847
21.5450756976708995	15.8397662482737420	20.4473513277109120
19.1957992201819820	13.3382785723089583	18.9222154184302447
21.0904999787294791	16.6306438122777678	21.2167838599477463
24.1384329198190031	17.3880345080304082	23.1399683984088007
19.8809480653690613	14.0551990634100257	21.2659127612723502
20.8041222912239654	15.2018455019904728	19.6997114256486796
18.9354953909403037	14.2578002920747426	19.6866040776707152
22.7323076680636760	15.6651076665089448	20.4071092990561240
20.0585488360820676	13.7894193922791874	18.1950705508887722
22.5255842771146213	17.7063894921640106	22.3669683775810810
30.0906318589028494	13.7524874470002949	20.7188341923619426
26.1002914104217467	19.2666086833502419	21.6899298710164103
25.0328161736399792	17.0405077898089807	23.8372516731446460
29.5594299865843873	19.2148466719524080	22.9380341018032432
31.1027867159027593	15.6492355904152856	21.2542090808408624
29.0539444418003860	14.5885655517549786	21.5892588346794909
30.2736535469389061	14.8103802766033041	21.2776617999000166
28.6229701718334546	14.5883170975238645	22.6906296904335427
30.1989476892701845	12.5698202636584497	20.5528515050576779
28.8695957972121100	13.7930743240196723	20.6927618207192339
26.6993711036311971	19.1593106221611507	22.6815491057857734
30.2631130146842402	18.8862889390346957	23.8047491495118066
35.6498225765921362	13.4531737130822044	22.1808010104702475
34.8574238051763245	16.3787321714516629	20.2690016660847085
33.1997505388648975	13.8645524133262352	24.3266913535470444
33.0144980705218103	16.9544971508471711	20.9553567227615112
35.8920186085005213	15.5145479582248811	22.1509718379731169
36.2346479997114912	17.9764803278477778	20.5407606301940362
34.8783047309877148	15.2395035957697242	23.4293670036175037
34.1795696883482591	18.3417412414125600	20.6894569180637937
31.9865252078725497	16.3739074699707530	21.0210228342575292
35.2881898620482630	15.5568315973119997	21.0167100449527098
32.4679337505159751	12.9712179045003460	24.5620148107692877
33.9542335824005903	14.6786000990078147	23.9625877870641020
35.5418190968759546	16.2646659405419491	23.1043802233445632
33.8734401348243708	17.0341950750083804	20.0242986621868724
35.4530410620325398	12.3050664438146811	22.3645458573755249
35.5212440466007706	14.4806559375408685	22.7013429308596280
35.9339503121801798	16.9391087350620033	20.0725496764881051
36.9962713260316463	15.7455803250888309	21.6292855021128716
41.5091163346531928	12.7311538356688505	19.6916878045767092
39.4416780792500603	16.6681131577346733	21.0721409496768928
36.3854745177819296	17.1133208043260723	23.2643197208053465
36.4047497232753727	15.9519336170982147	20.6307060889848550
37.9984317862723131	16.4204990128832939	21.9217609538611740
40.8451333557398044	15.3451138945672074	20.9249048137739955
40.4066701462536031	12.7473356633921373	18.4446485784654648
41.6415402169719115	16.9910106051975696	20.3854249170560351
41.9671997491125168	12.6560254726165624	22.0216946508451734
39.4251712677324804	14.6425441336756652	22.0511533732355751
38.3426331130911464	17.1110508972181847	20.9258636971881415
41.2628353831660064	14.4521951434420295	25.3975680143620117
39.1961058170603707	15.7992152503923542	21.8927296624331795
39.2241073070486692	13.5179804661595231	22.4813096898482350
40.3753866356468976	14.3350109617496599	21.2792087333680193
42.6070874743942767	16.3752599267595578	20.1554287886887842
40.6074026537756723	16.4946461719943542	20.6925673096126062
4.6822643252949394	21.1347693647029082	18.3314692595781281
3.7501414488147473	23.1194486884979895	21.0338833430237884
4.5264412478431186	20.0091439604763366	23.9639104996142933
1.0240015384634182	24.9874489225329590	19.6691186398533802
5.7558597518911823	17.9355743206589686	21.4777113116547049
0.1653675987839071	21.7662625247855139	23.6764335148269254
1.5924151776282247	20.0347637193186081	24.2629878603695026
5.0405182426299096	19.4313626606467516	23.0855403394101124
3.7367510449563892	20.2154459882434239	24.8090829900035672
4.7661226985801779	20.4150023235710911	19.3135801309441142
5.1284984923169654	22.1308836157296547	18.8762152329984900
2.1585166052199578	24.8841018063663100	19.8809915012386611
3.5970829003718583	24.8058820485870477	23.1498956754513507
4.2186294247595129	22.0906665683725940	20.7533118384292763
42.2385852048981221	23.4073340778204013	22.2337226892622759
7.1564327982995177	23.2749576856146270	22.8172254481752326
9.6058516021031330	19.6143995766665675	24.3216516189861451
10.3397405283052226	18.1921193083220274	23.9884124834577221
6.4883225849227388	17.9054026235300796	20.4764818023083990
11.5858687227338528	19.9000210665860564	23.4603750548248122
10.2261002489381134	19.4572218046126757	20.0803585559254429
8.5936732251007939	25.1665143049711801	18.6843822728543429
4.7352426797915372	21.5189378941215033	19.8716609863225742
5.4229510678225861	18.8216487966006270	22.1780441100305019
10.7779088038194892	19.2974886785709572	24.0685199905815423
9.6624815574366547	19.8945300970156111	19.1651658107242717
11.2257587811177331	18.9940283795248952	20.4887578642443984
7.4832749870293336	22.7185912952163882	23.7899276335005396
8.1818217105337911	25.8753131961227076	20.8619645680139207
7.3813880702208605	24.0936529107600030	22.0228740705663171
12.1230749681251204	19.2215915318766690	21.3302040013986520
19.1177078811435877	22.0909886172232106	24.0882439035369096
17.0203738572054348	18.6907385772422785	19.8792525894453789
16.2192181001853619	20.9313056097356487	16.9201138908261619
15.4067278098652025	19.7617624196051089	18.7954401997299634
14.1856550017188923	23.5223191913764573	24.3239211842928036
14.3528381671398151	24.6227663002930086	22.2854679018294455
13.0032742178154024	18.6647452418277062	20.6924520094673063
20.0156493675377121	21.9676305953381572	23.3529229105683598
16.2643006550315405	25.9724034227088225	19.8392640636687041
14.1963669796802510	24.0396311782422138	23.2769532668274088
18.0480863417816977	18.0692714720074044	19.8276064692984129
11.9778938227755258	19.7153369461640615	22.3822887706636635
22.3318820785828862	21.4949906433517803	21.3739179614490808
23.2791017794726010	18.3079828320542646	23.1701294751757132
22.1334801716068306	22.9968760989662400	19.7623612679742600
17.6762559003578303	17.5079861043197837	20.7930165179785327
22.5128845158305317	20.4397671470923008	23.2053632608739484
21.1093571245381426	21.6348045232258350	23.0949356678667748
18.9529057921923147	24.8600395487007688	21.1006999013226562
23.2214829456696386	22.7621013896943687	21.0086108955450506
23.8095610581761754	23.5267169071579865	21.6905384425412677
21.0945772498601798	24.7719303533159732	26.0637018832353391
23.4109366638314391	22.8835231682321201	19.7303172132003830
22.3038628662800313	20.9076051709137687	24.2833182198377422
22.0714912670317283	23.7724273095862344	18.8720868518979117
23.4720679806860417	21.5186899176838580	20.9593500197010627
23.0312789989320059	19.3973190822859003	23.5591537811063816
21.8781941550271419	21.0509298421293778	22.3848359119845384
21.9732928673428134	22.5352654642272228	20.8530788899481294
28.3423926036665819	22.8473503779003764	21.9266218727786040
27.4952493165696232	19.7845744900675093	23.2886943559133464
26.1906413119055017	22.1462246752454419	19.3196708788905411
27.8511495192017513	23.7983279818793676	19.8511672207021839
27.6240641052125113	22.1954168044698612	20.1015001485456004
24.5567715945941991	24.3999256868450765	21.8619166079853287
28.4618308796468398	21.0778339177957434	23.2594418655123327
31.9086966399659069	21.8030177806307499	19.3698472924421203
27.0520995745855046	23.0130732454106486	19.3622042660194715
28.6604938467837513	24.5564880319894954	19.3753211584277949
26.8753431095366579	21.2951736325757786	19.9435460705995276
25.7026450205137209	19.6976191176140283	20.6888066422722048
25.1418209639850652	21.5829233594567782	19.5308638039717977
28.1934928120383255	23.0267398251846416	20.7747095000206272
28.6475126630982899	19.9405975907359974	22.8340859328716448
28.6461151191884262	22.1476736750340955	22.7933669237443297
31.3041029058717832	22.5874567272258986	20.9261477327355152
33.1654887617094758	19.9310115446167444	20.0776595076242650
32.9938583724846524	23.5512669263986325	20.3834777247236687
30.2111646759542474	19.0587234750203685	24.9612330706783503
32.8865665953831936	18.9534010725150495	21.9956186552982160
35.6157675806126122	19.6652858388192300	21.5197078816818959
32.4731613185819015	20.9755180188272981	21.1296307006463913
36.1859612083746356	19.9279617913198450	22.4871090048157285
33.6729913688446771	24.1172105573868336	21.1784317749533635
32.0371783571931843	22.9023798249854771	20.0392836335781901
33.3444027590426870	17.9900462567498174	21.5078705462341482
34.8867157675476278	24.4713388154317109	23.5576730492521271
31.6549609127417817	21.6921648752898086	21.5680738023116838
33.6205060493628594	18.8816219363328059	19.7122500821453279
33.0143005969540866	19.9120434929778796	21.3192394502766227
32.6493123670846117	21.0114032277113338	19.9123366441871887
35.3357527670850189	18.7092128932325217	20.8697978108637940
36.5733981596702264	19.4619345635053342	23.4855650662731463
39.6850455165602796	23.6326017316860550	23.7205055020837605
40.3109472217580844	24.9629818702720776	23.0754547769732845
41.1166517381179446	23.1036747255934252	21.8542942215859561
36.2529407159326027	23.8845039901218854	25.2325217353244149
37.5772488398954536	17.0463868893512043	22.9141830412104639
41.5684407784634047	23.6570781674882511	18.0234967096910985
40.7944645616167065	22.3563596418941657	21.0247802479389811
40.5245014569240425	23.7918941004888893	22.8222318395751671
39.6529468539099099	22.6701049786754076	24.3979358263408592
34.8432316803433224	25.1485650557175475	19.7380156858970963
39.4054063342969130	24.8622782427342308	23.8809400944800565
5.3021830183633432	28.5953044202430213	22.4725837008947344
3.8442291834901363	30.0722878715609241	23.4483874000576797
3.8528474107364659	25.0328791773746460	22.0284189960795551
3.2834891123471737	25.0435639537965820	20.2167347661796946
3.3476359025275979	24.3851490591206996	24.2169086887074805
6.0045711212493096	27.5643503145133941	21.3835072436513123
5.0618686184822632	26.3682824300864240	19.6071238363930540
2.8186741942211455	31.0706294177386582	19.2121319445755141
41.6212383443834781	27.6231539922133500	23.8581723727926551
1.7715419326322444	30.6467057546349970	19.6936100492279174
3.0707052074943961	30.8848478104245068	23.8172315364598326
5.1406280683030277	27.4404667622209040	22.2017319907073478
5.7707598457858724	26.3782294652832086	18.6748718450173179
6.2482470489872508	28.7559331708659052	21.6701777360939367
6.5349127392489432	26.9757183665920266	20.4882717496064615
4.7659355657239599	29.4728723678765121	23.0832859189903274
4.1027120033215780	25.8946977257467417	20.0788709784320574
3.6817618375838577	24.2888887982576129	21.1145127362638156
8.3747823278575648	25.4628350388619857	23.8034999516110943
7.4347517573147028	26.3346181713687955	20.0375998258523147
9.3329045956399650	24.3034729039685296	24.4911688447568103
8.7147548895802256	26.5118368378395495	21.7545618054723384
8.0251449417287990	23.3588646690083124	24.6165255356299788
7.7689043606618027	25.1788068714102025	21.7848450859850722
9.9289007110549505	26.1416082918784163	23.0707321982029221
6.7957814749180532	29.6576344371345151	21.1767924362144662
9.7701574878975865	26.8449560665025544	22.1848419961452272
8.2276167491552314	25.8664856448850529	22.6934841876357360
7.8142218438620583	26.0542199046299032	18.8801203273885854
13.6923850351776544	31.0019207643140433	20.9852850218308298
19.8894861127305695	27.9704605337746592	25.9084296878776321
14.4419890210526294	31.1463477265285107	23.3834338536732318
17.4326250524279942	25.6942601908581914	19.9035386924230622
19.1248086425311392	32.4872197855388336	18.8092645377540535
14.6281788965507538	29.9874835004798506	18.2886056140611046
16.5813578249435309	26.5097506236821623	18.7608108342532667
15.2982096453171348	25.7178043499181541	20.4696981122646804
19.3600581848041173	26.2073455736071388	22.9336453169309920
15.2747977295983262	31.3562480811965294	24.2395978263247329
17.2117170316973933	26.6854045558220463	25.0249596035312898
15.0876357389757896	31.5969560186657574	22.4431059898628860
13.3131467099225791	30.7973461175786305	23.1376457518646568
14.7617268391545320	25.1539341194167996	21.3309465052269474
23.0213240443306901	28.6427612125539568	21.7230567193451343
19.5915838790983265	28.3569054548939015	18.1645805253081249
24.7212966263990026	25.0986722045906490	19.9373268350789559
21.0520188247236888	27.6504696455361874	22.4277878409774658
18.7474042632615223	25.5665516174226610	18.9512859354376353
18.9664377926016705	30.4621069865826719	17.8961336959185999
22.0490337139328183	28.1156229921051626	22.0262077643193415
18.9106418112794685	26.1554440429457031	24.0636747469896406
20.1715926806764791	27.0909191996043717	22.9429371393300450
18.9825205776692272	25.4941208319294468	22.0645703314050508
22.4010038465537669	31.4473767852369690	20.4756555196045866
20.3823184699796620	26.9123271911916859	25.4842355468826938
30.8177345276995176	26.2547801373869483	18.0680809157809499
29.9551769854541199	25.0751651892107965	23.6722513853232961
29.5258003019600821	30.0265697662681461	17.8006880891333665
27.0728654375487814	28.0438327331622901	21.6819801011023436
26.0488244113425154	28.2548471822609528	23.8607651297276639
28.3667142820657467	27.4693922246710436	20.9190898625159356
27.4539044336500027	29.0875519324637182	19.7145985843109806
27.7644383827667944	28.2372620315014586	23.1629462517391715
26.7843249124834486	29.8521451412269165	23.8269866545798550
29.0853277154379803	25.7458608904394879	19.4841073464808225
27.2270994490624183	30.2502719761719305	19.7109159598136081
26.7543436446154956	25.2940224241232059	23.7910908776577799
27.6723941162036269	29.0642615955822023	24.0751863761310574
29.9717352183010526	25.5777440259302118	18.5948355863220414
28.2075441781292895	27.7651421392365982	22.1132511419756241
25.6531031506675404	29.4077754149398700	23.9742700369885924
24.9817121904639592	25.1502736120629216	21.0700167242645584
26.5815534543817158	28.2309842913025015	22.7582512309754961
28.8251093010085384	26.6415693965526614	20.2045394262811406
28.9862330113409641	25.0032694928029500	24.3703372232730615
27.4309602802392583	28.2285207639398195	20.5328846841127906
36.5983608196914645	28.9745494429384642	24.1148474887094082
34.2859552257825726	24.3910920168367866	22.5011563927712785
35.2732335530948120	25.3181803255714577	18.6805950031965509
34.5205744779211372	24.9765932804986939	20.8714846607884219
31.8064858881791004	27.2851932216106192	17.2609237865090996
35.4817119434380146	25.4300519251754089	23.0329367306909063
35.0335521636167329	31.9795590265685625	24.9863472078058955
30.8085628484605216	24.6604539593632914	24.3420794184612532
34.9126821819713200	25.2942397076979084	21.9646782154402231
30.6150298940740377	29.5327444072960326	17.8098413623015510
41.4327856891214665	30.2294961498467600	19.1391444061901197
41.7099440171532976	26.5029140510875862	23.4881693820046991
42.0897033683322235	24.4730952404527002	18.6646153988185404
37.8132526130652806	27.9711576259323849	24.6502732381511684
41.6881603320727052	28.6670971774033632	24.3816969913175043
41.7414744913789093	24.0805442192220340	23.1769755643753257
41.4159630590829195	25.3817442631330614	23.2356217652511958
37.7248418414409201	29.1755373162930773	24.6673931239245832
36.7340037435238287	27.7691176804267350	24.0715061676267972
37.9897874237739330	26.7973338582858318	24.9699524758765392
3.2879646113938086	32.0571963854233175	21.4485357305890147
4.3165547590770119	31.6683350150539624	19.6262703946883192
2.2147679178744619	31.0469757606106995	20.7444042556896306
1.9216126486724809	36.5584628550048336	22.6270079453074153
2.1780972709182937	31.3123847250500091	23.0533331985711136
6.2317055029299810	36.9230462554919185	20.9242749406387780
5.1570472265369292	32.7614843504292850	21.2360591395414176
0.7551096776400081	35.3699217154147121	21.0009592456865875
2.3707425805068660	31.3718166167631090	21.8856811923933030
4.1608142323358148	32.7196608632214065	21.8543877017012633
1.4904510022427853	35.8981933622325258	21.7491866672658887
3.2354917711670037	31.6036427383046075	20.2975687572458874
6.5734163623368396	36.6657921299343457	22.0222504076498993
6.6012501364334355	32.6663008409280238	22.7955879836586561
6.3318615541772942	31.7849229673014513	20.7314081135428836
13.2702664542687572	31.8158720351464588	18.4480767688831655
10.0554491716065701	33.4406404907273398	17.4681390237026548
6.9666431035900036	36.3172864965255329	23.0593419815600384
7.1530052537599405	34.3278629592256976	24.0405434842134014
13.0912343239252156	31.1951730010474826	22.0205894112585554
6.2729472707829999	32.5710753094339509	21.6833747434967385
11.5853655425736797	39.1696118741969883	22.9076533540377305
6.8957589762820461	30.7576803292548142	20.8236138758408558
14.3461449731594346	31.8803679630483430	21.5451522194029259
12.6936587175093134	30.8552873465214894	24.1709756540593794
18.1112985463570766	33.6789718856119862	19.1300420496255761
15.9664164271586682	31.7187715855842463	23.2879900623159948
13.9897190566868854	33.7008542080292273	17.3546460325643928
19.0932378539132230	37.0454548547100373	20.4980326288969970
12.8668538545509712	33.1469550346553987	22.8511173563944148
18.1435870738475309	32.4991990544605045	23.0435070554482770
12.4377889894199818	33.3097331936426286	23.9195684706572322
17.0844266003791212	32.0923944914775419	23.2428213416594005
13.9215403354685865	30.7722068729259135	18.7951117640010992
18.3391209705876150	32.6334439002465260	19.6921532802763011
13.3532915471661582	32.4124299675445542	22.0847825839625713
20.0586329869090427	35.2440306079399832	21.5990129301921350
19.9624111718487498	33.0894179848521901	22.0932439310757083
19.6409508900543983	33.8670988124310028	23.7984758515568338
24.0950010160411559	36.2327734907722459	25.1239809231660551
19.8968460762923414	34.2917861119610379	17.7759244651409603
22.4481944676106764	30.8748692688421826	19.4541607568400856
23.6472083250698262	33.9345936049369854	21.8629661327707510
22.0905934243136635	32.2796412149346850	21.2722206568493242
24.9510793720858004	35.0297767503388542	21.7979018173580812
21.4996631338032600	33.6490784243346468	21.9822333771548415
22.6163648361596756	33.3441617423597663	21.6956440936877932
19.1938546493304649	33.6722525788470151	18.4808909376747650
23.9811663675163089	34.8672174251602485	22.5744650954598463
19.9859992795513222	34.5268795319683335	24.7011224545249846
20.9873132030832927	32.5511154365085886	21.7714122463011890
25.8066917589050284	36.2978610745134489	21.0916755049052966
28.2923442521290660	32.5952717844677267	18.9595520203863224
28.8066985898514503	33.1666170876626296	24.7014185395867720
29.8850912807199123	32.5323017247732906	19.2832911047241815
25.5810221947793259	34.1521296482667438	20.5101047303954118
28.9956302583106833	35.4795582195941250	24.7773926457335740
24.2042727076188520	36.0550037212153924	22.9005111753991457
31.2341462969937069	36.0970981721639816	19.9569960485454985
29.3010496228890354	37.7837669322294829	24.6635737095869985
28.1571457643585923	30.8120392521877520	19.0167086962002081
26.0802123692827905	36.9704352578202773	18.8915265299883188
26.5552466684539503	31.2047493675937240	19.5176426870839492
30.0404118440180845	34.2119515376608803	19.3960098507170464
29.9213896350659212	36.4492010954466252	19.0512924309931719
27.2769931042570661	31.9762852730866172	19.0139879954165387
24.0455528142230364	36.5830920918204043	23.9736355306225732
24.6058002442951143	33.9284347133494961	21.1252263653231651
25.9339043999804844	36.7910379689122351	20.0167694089526620
29.0972029026934997	31.6273085143734036	19.0618855459229373
29.0867330063855860	33.4734738591059582	19.1496241950921906
26.0161550731031923	35.0764973052484450	21.0806988047739594
34.2037628106221590	32.4394984436223410	19.9313181124539902
35.7313285248919144	31.1405937511076303	24.5616646175677786
34.3905335302262429	35.6823719987054773	23.1445046482784100
30.4076748921635165	35.3565943836486625	19.5070071916076699
35.1600513091712941	33.0094664644675078	20.4476425281980525
36.2167333780408924	30.1081711960539451	24.2357420923282838
30.8312127896732306	33.2409114640277537	19.5525230284841598
35.1867925611989776	35.2875735028994129	23.9387233456040711
37.0242277845734193	36.5686221948922352	24.2457426892249330
30.8870425701346925	37.1311400469222690	19.4810652865763778
34.4757588699001190	36.5449062372564839	18.5736916426827996
34.8980557427213256	31.6887802579639626	19.2452650586883287
33.0376856044842668	32.6550307481822060	19.9281843647709991
37.3350279575726773	30.3282045179567881	24.7633828963551004
40.0735108185555688	36.6839099511702216	23.0169826660994588
35.7642755079250634	32.2855567314842418	19.7580351735250481
40.2439259160017926	36.1955381012941046	20.7830941656989658
40.0408847688177190	32.0025791191245261	18.9698236682258354
0.7227890212459300	30.1767670320584145	19.3935040582949476
36.2105753589936938	35.7253449284371101	24.4820439819431996
41.7448811331254888	34.8767371611888279	19.9602401249459795
1.4630419414713980	31.7415351531799388	23.9016765355438565
39.8171557439283959	36.5856208571977390	21.8228776521273637
42.8311316106134612	35.0179000736467216	20.3687694663893062
40.7138777490709742	35.4586310445138224	19.9457251015603667
39.9644476170915794	33.1610085804132737	18.9701786567879047
1.6827931648614738	38.1382176868737020	24.3716813162328059
5.0415979868160878	42.3596220263066385	24.7264281581662821
0.3098747555978855	42.7990630545871369	21.9407654921031252
42.3464941540824285	42.7107080028333144	22.5897457389649823
41.1536590732597460	42.5486581657958780	24.5331122800411023
4.9844614410411685	0.1908899340756672	23.8341082226472025
5.9780258883933195	37.0334924923493602	19.8023328863233488
1.3968035716464886	0.0037663321583423	21.5831743831101939
5.7087416762316714	42.6602376417022882	17.1439376916847053
10.8213092922147549	40.6026595993935047	19.8554014163750097
11.2040430373104165	39.4403568530750448	21.8363836543489498
10.0328599125583651	40.4763160683587273	24.7714543640315803
9.6512021512936368	40.9284611857756744	17.7482157923957544
10.9092535033150657	39.9166494993540724	20.8167660696099901
10.1817974912604576	40.8052855794619589	18.8117145046990508
11.7176042634844357	42.6663417959792710	18.2367472927200751
6.8026662430336460	0.6057103770350553	22.6208570708213657
11.6027372225946444	41.5429774624482491	19.6468417109049795
13.5940819913651296	37.9535195880218126	24.3106134691944078
12.3708344434481798	42.3318176711798131	19.1869542622024341
18.1047882087702838	38.2922263560782596	20.1069973626482685
18.4322587017502570	2.3455991830902367	20.3104204437905835
15.7796687107860230	42.3067650443350303	20.8284140844389611
13.6577417498824651	42.9371065967741004	20.4847570517254596
18.8842279227284955	39.4014798623441465	20.9678675074984362
14.1533396875340003	42.1291613166441650	18.4229383625872174
17.8418091632531670	0.2220816707894902	20.3380860122569622
16.7616633766427761	42.9063639094491265	20.6658705200274362
18.6749330184662732	40.9060250271423342	25.7875287466336367
20.9852173189805384	41.6743281362358786	18.2890613899964336
24.1794591454158088	37.7233021042718946	24.5156347432630106
20.4287727527604517	40.8102901356134637	20.3102292699471185
20.9011734829047953	41.4333453939848368	19.4564714962578229
19.0253184992369881	38.1762111595818681	20.9226222696091497
18.0447838861676857	41.8902316121560077	25.7259185387243043
17.8265223644113711	39.4149525478002047	20.3563499835283572
23.3673235854832555	1.8808455113180353	23.2710318766810644
19.5644450913519883	36.0543152185749634	20.9439425806313793
18.2677346241065486	37.2158877220535089	19.5672566887936199
19.7028933062425047	40.2531479466442121	21.0269067262711324
20.4503398805012786	34.2550225397840080	22.1291939945397189
24.1932667346532249	37.2904931260197898	25.6673696067621044
29.3925186786723245	41.0098686293987029	20.3942488225023730
27.6955253901755469	40.7072489596725902	21.8541248154004215
26.6243601821251943	41.4946147167709398	23.6644482260065843
27.5960919931312390	0.6052188882578410	24.2837184257558150
29.9177006818664708	39.2633044506204385	24.2613654302978752
27.3136855921942185	41.5158212477779074	22.6185657283096369
24.9634964014396417	36.2557579866364179	21.9678266688487511
28.0731726462200051	0.7191217974349172	23.1392181678510269
28.4830487062307576	40.6214240805783078	21.0047623510582326
29.8803988662692035	41.9385282424578349	19.8907751256123113
30.7374460156564524	40.0950971253804909	24.6373434407698220
29.2632048288277993	38.4772508388315586	23.6702214918911551
25.7881639829433702	40.6813926426721508	23.8424089141774651
31.7150789587324837	40.0879978182354435	26.2143722234667891
31.7022971407844558	38.0100536723951308	19.6685410236336224
34.0080442012547266	42.0150497779947827	20.9122409945477870
33.7902639250877641	36.9390309965488299	19.4227987193997791
35.4131945089377425	42.3383033056343479	21.7647569653661463
32.9274830751775056	38.4037637032601253	20.7011153139391766
32.6687191064581057	40.0494810224412277	20.4763490297712423
34.1609253358734577	40.3836897898521556	21.1905604079940204
34.5308943427571720	0.0681878268725718	21.2275009503604366
31.9947880154785871	39.0676582699583435	20.1891065771635994
33.5544937111537820	41.0689352283526219	26.2151895074414369
36.1614883054092147	42.8987765928582903	22.4846839135371575
33.2514105041071630	41.1004403644590113	20.6573927194393221
33.5905506768128959	36.1297226005780203	22.4545684653974433
34.8853827185932843	41.2976542454761386	21.4500200800543226
32.8304463708970005	37.4527082278204730	19.9249475071109003
33.5956528020466934	39.3451351452489817	21.0074715009208504
38.1666760245146861	36.6440701879737034	23.7646050452780244
39.6059870391145807	35.4925352370663205	19.4619832609698875
37.0803928829839293	37.7804904750014074	24.0725304966040241
38.8100876153101666	36.8339254029272425	21.2296094932826804
40.2844323495925067	38.6426882798519600	23.4351216773495494
38.4509446310672303	0.0811415282871402	24.6467036087694567
37.3389907131681582	42.7468016611637012	24.3620929724655184
37.3389978979707706	38.8372420523580573	24.5339794495616381
39.3411111979269990	0.8516005773087949	24.2223420338126729
40.7867743740385862	37.6166174555419417	23.2460137724519136
38.0442252968338863	37.7539406520494083	23.2703786259240211
39.1332740582300715	36.3376312363368754	20.1740550557170728
2.6620123967462104	4.5874062352300040	29.2052495815637769
5.9324216442604678	0.0296902959325030	26.5939840857797236
5.0689341339929390	1.0621810566719938	24.8262274049812142
42.2291999909099687	6.8041089025875925	24.5405363143344992
4.0476085982094405	6.4209321233260956	29.5319875798482059
0.0526096423502776	2.5545916730098814	28.9690634560634805
42.1710372021534354	6.4084170915825416	29.9653337922999796
3.3059433341544793	5.5251375733127430	29.3872818273184713
42.9670024081516004	4.2922426870863752	29.5801072214182916
5.2956086007336864	3.7400230498606337	24.2667845613587829
8.2892978552184946	8.4769926882512667	31.0143870264359585
9.6990118005080106	42.6678149998497886	30.3508158637044438
7.2913555542546371	6.0493526431353208	23.7937191819699301
11.2756945897963661	4.2255579002103731	24.1723419567483120
12.0722892590825897	4.3715437813868210	27.7503394749475873
11.9005968518497163	3.7381009666346072	25.5390222593497604
9.6084590662868532	3.3332085128269182	25.0505704105980342
12.0915133049202641	3.8971545576588258	26.6819474857497241
11.3764213189852281	5.1122976009023464	28.4199014106338801
12.4079367285978019	4.2751007442152993	24.5538082706256873
12.2687844068863168	4.9353543484632931	29.2570988936887808
15.9893520219245513	0.6005825366690116	32.3181531857162128
16.7960304599297139	42.3049205143734994	28.5832519413744812
14.1491788178684423	4.2608085719925057	28.1773829101852904
15.2917193940055132	4.5315743148793830	26.3373360680388728
14.0221726470550561	4.8402462622944231	24.4576467063102925
20.0411016003000668	1.0539625744177590	29.5248200976070514
14.8702591449396699	4.6427709147417318	25.2606203399661418
13.0373270528268961	4.3441580299162545	28.5514503782632296
15.7146338633334377	42.5668780696680713	28.1324007629716100
15.0585725224632387	4.4230390343717554	27.4726073344287407
14.9099206585488187	0.1045400912005179	30.2969360360126139
17.4978288446882928	42.1542108125719750	26.7267428791843003
20.5167258310259335	3.7805062204148654	25.8804386096514065
20.4755422849465276	42.9965223261847100	29.3875825819099319
21.6716041080549715	2.8277621358507323	24.3641146669887938
20.5336759625636631	6.0055085770200840	28.6934367702750315
23.1246039499942562	1.0186541998924055	28.0623719921822605
20.1832685097919899	3.8333102848575780	28.1978424388823932
19.3790862141412497	2.0494891569346096	29.5761552592409984
23.7848481423991167	0.8437714241860566	26.5559993988322915
25.3483730492593509	7.3243136554030910	27.1930476890985062
23.5034758088141231	0.9296679656771849	25.3921924254826799
24.2273059983644679	1.1865077974548683	27.6023279755896809
22.9128437579129169	0.7922499336109418	29.2337271524011655
19.7958733981212127	3.1187617678048283	29.1383386368074291
24.2566577641026733	1.5016763693683073	31.1065875181648472
22.5619060725683518	0.8952209018740870	26.9766225030246467
24.6561943526416734	3.4852960460047568	26.8649961489140630
28.0841399489063761	2.8671860260340027	27.8599804659756636
27.8978459587732424	41.7358303109563522	29.5678280389279564
24.9090872661941027	5.4788984541949857	27.7859879786732868
29.9577499930338469	2.8081823849672705	28.7070809366949895
27.8559814438522473	2.4240622444582991	25.5945079977469128
28.6266055076454826	2.7348069229504750	30.0513838187089490
24.6898984757679116	4.3396871193088353	27.6641136332095350
24.7902043555132892	3.7148366906726089	25.7217544456734686
27.8685071202743444	5.0864249579025209	31.6968090308781001
29.3821647218908915	1.9148049362203436	30.5158323005344947
25.3845241343015182	5.8840889620446815	25.4713757678934911
27.9387375693933286	2.7187416516732519	26.7191337125472188
27.0744187691239091	42.5491091204183149	24.0973793105681757
28.7552814871417617	2.8889703529831254	28.8294572209310651
30.5003064444226837	3.2969545718136062	29.6984598075574375
29.4592294294583752	5.1042614106659272	30.2633018769190727
35.0283474220050621	0.2867182596853279	27.4316289017265937
31.0900076137924408	0.8102882121557493	29.1558030164199913
30.4755394370146959	2.0957115793904761	29.9778923981301340
34.3874679786137989	4.3583501304311216	24.5705646594501026
33.9714466903839565	2.8147245341467988	24.6957871108271014
35.0877437768273168	2.0377522352527997	27.0695450226684606
34.8123533543722843	1.3233975652009895	27.9640007472927188
30.5107871761298561	1.7425092445149652	28.7223456668903090
31.4694315452852891	4.9515925741250619	32.9869903677975174
30.9361242721729646	0.9734925809299722	30.3252978722847075
42.4158558655279307	5.2108628502911936	30.1138599159336842
39.3983372938582335	4.7869190980002330	29.3526938959695904
41.9883568341761020	2.1351359077467031	28.5494730542403943
42.6559346720178851	3.6699737425941525	28.5727125257624124
42.7449189831439895	3.1261886541289297	30.0004835383150592
41.8187942480304855	41.8035764012915294	25.2117015338781876
39.2049011634162241	42.4818793670368606	26.6862558778838910
40.7657349060061449	2.9729368243943926	29.2220812747475804
40.2005498204728795	5.1548235003738947	23.9644907486269858
38.4110294923861559	5.2970587521727177	28.9134126462534411
39.9772437757904058	5.9708274227189193	29.5404933644233516
41.5777194282784777	2.9914440605495400	30.2226437907419694
40.0128845811420248	3.8263053048332076	29.6950844190520407
41.5505542738762799	3.2814315718959604	28.3292826551956303
1.4763567176050540	6.8487090456629520	24.9569652779239917
4.9734309138065944	8.5372220422052809	29.3886951254003144
5.6319560008864809	7.9625601046677099	30.3738628138853741
3.6747194413970550	6.1268576546940965	24.7545637927039017
2.3000839177387435	12.5621613885564472	26.8323619203778847
3.0289131516225116	12.4277058142131391	29.0254365714888642
1.9028464818573665	11.4352729740324488	24.8881505073821714
41.7656675202513199	10.7781203668208345	28.0398281015761803
0.3236723019403399	7.0166955201791978	24.9162074929632098
3.5193363411995451	12.0698295226486163	30.0191474818835324
2.5948062365128854	6.5182578863748084	24.9635107466796065
1.8442155457215450	12.2201622732399198	25.8084783011001804
4.7446019391661531	7.3514809630979938	29.6876267548186377
42.2160276581015665	9.6870386570166147	28.0089339993585966
41.1138667690455151	11.7373906778237274	28.3494430728173690
9.9128375193146052	7.1249633548660567	27.6785846233483390
10.9574338236311064	10.0176607575860857	28.4539544893140359
8.9626315817918680	9.0625900948154623	29.0011645475582966
11.2018521509585725	6.1441764384417343	29.0590594450872182
8.6168749156572613	8.8175505426140202	27.0609388734046057
10.0771247946610227	10.1139080658087117	26.6387349228971679
7.3153400560732784	8.7995031257548320	29.0767548600223620
10.9137640747412057	8.2003973146716778	29.0502747983266794
10.9303898768263590	10.5256208077906734	27.3394473962226492
6.1955012059226489	8.4530887592187671	29.3864889066959982
8.0900884106000781	8.9657573248555629	28.1307346394351114
12.0900405725664317	8.4497101639806278	29.1394028615431395
10.1665012257998910	9.1585240682289957	28.7897725222670999
11.9165585750055065	11.8846030152402147	30.1956139933981724
11.9526425806870815	10.3669353808997169	29.0828651381816279
10.6298254528861431	7.1056016582634660	28.6100340775863451
9.3086724520932318	7.8502418426001244	27.0021837035867449
12.1313346511023994	11.5878719323881043	29.0501091168191827
11.7220890612628406	11.4258750980358901	27.0202956632855837
15.6765321839685345	8.8528454171275399	24.3997370408033269
17.4823114824841142	9.2527505380429247	25.3632785117438253
12.7410292680721717	9.4507022436637094	28.9312880245067561
18.6295313115618448	10.4599009727408188	23.7043608051844217
12.2814118080463093	11.5806633087945716	24.7276184963122532
13.2103952572207586	7.9896345305566996	29.3771339246364356
18.6871503354086919	13.4268684268753073	25.7073498725279705
14.9157452640790886	8.8317940150975875	28.3318454353583817
16.4968425779406438	8.7615653722619964	26.5985582528929996
17.5074936151395129	12.7455176615106787	30.7524101984499403
13.5936265305023660	13.6472935945726395	28.3695116689519864
15.7750695838718435	8.7410492794477079	27.5400104494771654
13.8348020130989369	8.9274704969228136	28.8236662544692557
12.2381954949424383	12.0182921387550561	27.9418497841142823
16.3594769887759028	8.7762858864514790	25.3714909988743820
24.5043910737309645	11.2057461580428583	27.4339990797495474
22.9873415526681129	9.5307641912782284	31.7478969378277114
24.0426014963156369	7.4574300791473016	25.6396166717255873
20.3447044874337237	7.6021854448134727	26.9395442449813238
18.6160068657035822	8.9446389193744800	27.3036940398146903
19.9127777009710698	7.5226245731510080	28.4947598592279761
24.1396702901509705	8.7744610688467439	23.8430202248483276
25.4506120031262490	6.4632051331133145	28.1168803076804608
20.5425769008605705	6.7608217005925706	27.7418846005513906
19.5564341160075159	8.2740673480400257	27.5804276585754771
17.7295792626402502	9.0166763099550629	26.5439666601277082
20.3324363763194853	4.8593893481972099	28.9551650923323827
21.9166825904374818	9.1514593803139235	32.0036829665771307
19.0732968245417744	11.5218563815520874	24.0235390577896482
23.8938288651964577	12.1976449340881583	27.2464867621959925
23.7462131837655477	8.1295265618084986	24.7280508453404089
20.3115298298813194	3.8459014629090023	27.0249884645152818
21.6936036260025524	12.5395132815515034	26.9233580715672787
24.2339686273222910	7.2696334280926722	26.7703973292932780
20.1274714056643624	6.8942216413988726	29.5013426719911500
27.6234333007540371	9.7232363277041500	28.5617284036245636
28.4912569330617202	9.6586758648234206	26.8057680935150238
25.7152516021653881	7.4000726388688829	28.7983726443641466
28.9509042360295830	10.8006947907503861	28.3885109362933186
25.7161962935787471	9.4461622638250624	28.3709355784816779
26.8725402628827936	8.5240055484399750	29.8734834941079761
28.9454501433719962	8.7585124574840201	24.9942006109377814
28.7330056743916380	7.8566757594715471	31.3500454470594789
26.7061872614230893	8.3739113392500233	27.1186321158619208
28.6868924456617300	10.9028430369389717	25.3496599748770564
27.7722686886008034	8.3565898200055013	30.6697100187328253
26.6176174383689705	9.4656620248103351	29.1943405356921808
25.7762608107002720	10.5022828867233677	32.3226600850566257
25.9789402148866664	7.7078707561865745	29.9220908019734111
28.4997151689680059	10.0970851436290125	29.3004126210080784
25.0238990149940328	10.3038526273105333	27.9422302888063854
27.5409717362531197	9.2073342713267277	27.4311680670081124
26.3148963668731284	7.4674941632136909	26.4212695782066334
28.0210464613425856	7.1400704854460910	32.0337592628914223
25.7939467004173828	8.2902343392204099	27.9649103582573950
28.1435363829186578	11.8089374317264078	25.9244159816781270
28.3280695880814548	11.7453650521063633	28.0038571221229624
28.6491127562004877	9.7281382700770642	25.5867964381572790
32.3261654104191223	10.7842382249026087	29.3667820308845933
35.4294327888609644	9.6903895326282807	27.9560587386748090
33.3358986992256945	9.7830982801906181	28.5456190020845249
34.7576685341411178	11.7888389311601465	25.7353222523857816
31.6103029548819343	8.6379370819056014	29.2684067785104496
30.3452102646604018	4.3656363251130896	30.1523075412255182
35.5312705316287492	6.0267147350342984	23.5786744367273648
35.8089799513746172	11.7391773363459215	27.5746073656878359
34.1112720564927585	11.0125950323860256	27.7372513371440164
31.7519479910231723	6.5392529678701266	30.2544898235390072
34.8869241487767283	11.8228117899786795	24.5819453093632845
35.9518845988355054	10.7031706870775878	28.2488747713304704
34.8077049529308198	11.5746875831120200	26.9100407862854567
33.3940439178982516	11.0253519977946404	28.7350718013212614
34.2671067542988652	9.7708279712484583	27.7854717318702384
31.6741743359701040	7.5745326363079286	29.7371740556559914
32.2472467102408160	9.6049166014992533	29.0248160458763422
29.0382881381834501	7.6390096997867829	24.7212099032490684
32.6735298861287689	11.0844504038382592	30.4637912709867145
29.3460839947283816	10.1241587098631580	27.4762023402048072
36.3290781818671888	11.5078024262848970	29.1015012110025317
41.0722597332105508	8.0139964398713435	25.7342670012216246
38.9571671907676418	6.3156280209430333	29.0368272542296104
40.7997114527449725	6.0194709496554584	24.5537368334822084
40.7549097873449000	10.3134178021887202	25.8781513633362650
42.6971048267024074	7.3387602185668230	30.4591052231792681
41.8948427253104114	9.6521984336428890	26.8727148621049388
41.0203897130437767	5.9733497393339414	30.1065402995139415
41.1688725554156747	9.1404509133041767	26.0548579218984990
41.0113656269537401	13.0721935287925195	26.6968036470015910
41.4276567500577002	10.8216413673751219	26.7979507826147909
37.0403982480085574	11.4897357993923954	30.0714272430773590
41.1818426532853934	6.9562221930200181	25.2402943535660995
40.0230313050740705	10.9753442908637240	25.2467017693832076
1.8742080179761684	18.7941344991769377	26.4602698889398091
0.8056757415203801	12.5638049462206531	25.2397268399837458
5.2120576253478328	13.7038945336910736	30.6147261591724664
2.2859997080262202	15.8480015796659579	33.3662718415355215
0.2874223622539928	17.0689052070744118	26.5163238570129742
2.6689129223455463	12.5889505599863991	27.9337775206179693
42.8938881811526329	13.1064647527764233	25.7227784335101930
6.6490045642216629	14.5059019602929098	25.0086996821943863
1.1391875060803345	17.8771482627327991	26.5147887439299339
11.7265875126557813	16.6230328991954757	27.6361888983465427
8.2357476389475952	14.4223494565313377	32.9810411330129796
7.0974758570550600	13.9503439380635310	24.0540250964010838
7.4552167888216534	17.5097911726901678	31.1517037290262095
6.2987499382697019	15.5657909260639933	25.3119928996200940
9.9398718568006448	17.9031427784462238	28.4558952596099743
12.2814818067675038	15.7862098878802897	26.9766724316221698
12.0577912886388248	11.7668515785277989	25.9136978506898252
12.7147639541381139	13.5681291465760054	26.6074727440157837
9.4207835140949925	17.9934540291847256	29.5391634081511825
9.1706797243008840	18.4417956867225961	24.1706492388704781
6.2034791803588689	16.6317890563518844	24.8520011403672108
10.6938697895281347	17.2917022098311293	27.7187692356199626
12.8941816926377868	14.7378485065364906	26.8444361796241502
17.2902047234269283	18.2051239624303172	27.2601299570197000
17.6182686835424285	16.1374370772535300	27.6248554157885273
12.9951371565373162	16.0915637879691538	26.0136539093721808
17.4107901953676709	14.6651969239143352	29.4320473254150627
14.8837249248754890	16.4096483830195581	29.4089179422219544
12.8356389017049128	13.0380855937494449	27.6944748815346919
13.0062806315817259	17.5951258397161752	29.2717457487900923
12.6483858004792573	12.8253033881010943	25.6719870840221844
14.3803947236919214	14.2370906521436460	28.9944830701725031
16.8718325205054605	14.4657345417388523	26.4691296147016111
16.5711721851870522	13.0247458310404962	25.7089282617803008
14.8589977480623272	14.6419012599420935	26.0906049844578583
14.1267887342689313	17.2805005875463245	29.6313886394673851
15.8259416710541974	13.9715107918970975	26.0201792092076154
17.7085624136334019	18.6074038402331468	26.1563140408943262
13.8274996334809153	15.1977902409238244	26.1798622504489700
17.1084111515168296	15.5904849151160949	26.6788012476493144
14.8693265993220916	15.2579313447633353	29.2534495084346524
12.5342346811447083	16.5623433207184370	25.0277742035270236
17.5909028003491699	13.5488482953467582	26.1317472825134551
17.3406854484743107	13.6935552526743898	30.0653787328772317
24.5318516572470067	19.3925493733150347	26.3466973510530167
24.2776439464417386	13.3457194717669072	27.4919232901489821
22.7818617735502542	12.7245717499344497	27.3418861328862057
19.3040383059607876	12.5136545856419197	24.5981138035139466
22.9625691849392943	14.1581610816507961	29.0168100368660973
20.6522535266584271	12.5568300732556342	26.4095805325606001
19.6841373828780810	12.7275603026216775	25.7649373775534585
19.4940601877145383	18.7883370853316372	26.4328403780665866
23.2006265605066311	13.7049371150055830	27.9652012158332575
17.5737149858982917	15.5103121475475678	28.6441682401606883
18.0438489647107190	17.2618950086308764	27.3690869063699012
23.9569833973079014	18.8578524164311645	27.2528901290602938
22.8826925127683012	13.9197310941893075	30.1494393600947284
27.9200228760861933	12.2871444833952115	27.0310371810924153
28.2375344571953946	14.1572507940444314	23.6945786847595841
27.5306060049191714	13.9588811736880167	25.7396822213931422
26.0538902525115468	15.6807124035325263	25.4256148262645674
30.1648420585767276	17.8202378738263896	29.1730400700173682
26.3972083841682092	14.0397201141498229	26.8883532125566802
29.6386371428834821	17.3392787070736496	30.0882970553163993
25.3084244071572080	13.8633499195780754	27.2900649655703553
27.4012558759525682	13.3640702409777408	26.7767695338648508
26.6595724041290225	14.7934415201276419	25.9071562209018644
25.5122705641761378	19.9733283440725273	26.7154601511139305
28.1962353175343985	16.1183854056109972	31.2295886181632234
25.5982433747083036	16.3530667029229448	24.5860238193558658
28.0665342879016215	13.5831214625681618	24.7183497683249023
26.3526257959516172	15.2420582476908280	31.5354011750464167
31.6819641743165761	19.1838782246810275	28.1176420727996401
38.3500340285833730	13.9734472938838508	26.4201647482642628
37.4701847480459875	19.3083411490129926	25.1200907001027467
37.4925270168294205	13.5583872466231909	27.0782851214656937
36.3207391926104037	12.4718406765198289	28.3640058674594826
37.2653839407558607	13.8711353966678246	29.2586799918123788
34.3069712359867225	10.3019510095877660	30.5302546933739478
34.5276189408833361	12.2594442043020209	30.1276606087170720
35.9107377762317057	13.3524599076822064	31.0441628918374839
32.7151667772293280	15.6796042474061395	32.2864256928647464
40.1600836108435431	13.9950827999662089	25.1692931228157910
40.4770628426384036	14.1612854416222937	26.8292344332467358
41.7764795615357940	16.0470041489439090	27.5344460474535815
41.7066982092781231	15.3436675804152003	26.0781977330011152
41.1052249473449152	11.9728269611930536	27.1274746767827253
41.7672774533433966	13.4148008446809186	25.7988490404005937
37.0594178777703291	13.4217689805227600	28.1718498180096226
41.2335487587164735	17.3293346828937658	29.3314436540835750
0.8112031506513573	11.8101914269947592	23.0609998611511493
42.4380568354953382	16.2371865420557562	26.4976358471743794
39.2923100933987328	11.8652279034184787	29.6840987900263151
41.1235726326774014	15.1185731215113481	27.1441423508243247
41.7313481553045165	16.7843501453818611	28.4409687084947720
38.1348297973554082	18.9099690900838944	24.2524736332546915
39.4666889841082167	14.2006486517473043	26.1447785201021219
5.2188851740188813	23.1541637953607342	27.2925314127123535
4.5609848104685415	24.9139305391898560	27.1775085517864312
3.6235271683475392	23.0458722543673531	26.1184624849587905
3.4902615222407367	20.6699791297264639	25.9623469630550687
3.7041795562120163	21.8213297276458711	26.2660804390568892
6.2474298683755922	23.6626658197507247	27.4900448090320353
2.5853233642490516	19.6827522132985706	26.1136894773385002
42.2628757217344742	23.3429733653407254	24.0245239066765954
3.2744647436972394	23.7466318179550910	25.1940121155875758
10.3170079071497067	18.8365364414454071	29.7750247427714143
10.1490470835219533	23.6457481956878830	29.9506695515890513
11.4982734962819215	18.2030566373811560	28.0121755002255561
9.2243920754387805	21.9296295362331968	24.4399729559255654
14.2709838959261059	23.0679914548331730	25.3820477385989562
10.6325221145705004	23.8323696474019862	28.8964514026588475
12.4134116296081487	17.4613493718121902	28.2483989806686573
9.3609591287505225	20.7709216406027330	24.3595579181633788
10.3818035208622952	23.3555583573212218	31.1068473559447334
10.5829369205648955	18.4020963126124073	30.8666394906465804
9.2430628829388830	23.1030379567749975	24.6077732051358105
10.7604150594411792	18.8565398460164317	28.6696464123222903
8.4454414254838319	23.5312585926224038	32.1313368040162430
9.6302315399149965	25.3470869888735741	23.8884417147234522
6.6957298439935347	18.4009183002459018	31.0520497857975002
16.9223554565288836	23.5787151331983473	28.8177704094577543
16.4049784332262441	19.8211554903811802	30.5701749989504279
14.4933465007262701	22.4053992922800305	26.3458488691067849
15.4584273471315665	20.6911322904086035	29.5120134450722240
15.6815733874148613	21.9761055461031951	27.9958651846248863
18.5289095675393085	19.5171869301549066	26.1606741708931487
17.8873062646125085	21.7004887981681058	26.0171301180547729
16.9139285421355829	19.8110207385124575	26.6207275080278727
16.1168594841092734	19.7864698996402844	28.2512601636381966
16.5674816811303707	23.1868734641828134	26.9913580336074190
18.6490525603168074	17.9016063562067558	26.5469658852202137
14.8445677644285716	20.6016782312905633	27.1635927304623372
18.2322558631204110	23.2713023683530338	28.7980312157252278
18.3864547391012643	22.0416430254239550	24.9860496208058613
14.0542291476300125	21.3811653191779634	26.7837002435102747
17.5420245380336510	22.4591251774531599	26.9061982031653848
16.5965004501567464	24.1373758685028115	27.7648443477697917
17.0696871030432682	19.2683244653906875	27.7437374997850945
16.0397038128914318	19.6019025674390157	29.4562199496253569
17.8688329011410865	20.5063046633839221	26.2689695824912768
16.6229823391749392	22.4064529950733515	28.6090223927222027
15.5086109914120911	22.6213071092494111	27.0019012561527880
15.3648991562780743	20.8475971829282969	28.3043346762153014
15.7263615158476497	19.9465666487468987	26.7093242254741234
15.7327456420073517	20.9229644023436556	30.6598650957909875
23.6184083080553222	20.9389179204079561	29.1709070314027414
22.9817829654062677	18.9674126490242720	26.5635618618208937
20.6528545268563803	18.8945797875893895	26.6080549139978579
22.9726604502584912	19.9813160399164964	24.6813318485623618
22.0321611140679039	22.1088446281907380	28.0419577440771022
17.7492721396991762	22.4155389728533372	28.0913687390236113
21.2604244430729814	23.7157548483558394	26.5373366579186012
23.5645484100860401	19.5146959057069509	25.6054762852660822
21.8054359033461900	18.8466002731984439	26.5708308437089613
21.5861131307430085	22.8980437119592573	27.3062026786913918
22.6820342981127610	21.5625106282904824	28.8434684256617011
29.5680969426898521	23.4094398621888189	30.8757512751720498
27.7817893611930558	25.0716515287362718	24.3097784069668812
25.2910871984719137	20.3325486312505106	27.8514811501382482
27.7551897364533424	21.0587827701249743	25.1717340896255273
25.7834544058151423	21.5257744898637711	28.8950480213697638
30.1470005772843415	24.4044077927952223	25.2868315409620834
25.6606793526103267	22.6574364237449686	30.8528123958305294
28.8127171082872131	20.3911899493431079	26.1071598406732726
26.6289963245727037	20.4324090969196028	26.9028364248362486
28.8829479133911100	21.4741891257149575	25.4718571942845458
26.3633624271201406	20.9683795045277748	27.9738824965396198
30.8536151619784924	18.4571059691786417	28.4875435113810340
27.5817220780182240	20.7484425214602553	24.0386430702325420
24.7317062675357668	20.8632947909315938	28.7830101326213743
27.5931512918858886	20.4274176950373025	26.1966619755632983
30.0284710351466373	23.7557840845612631	29.8136728972384404
35.7684696488269864	24.5895783996912236	24.4246382622511256
29.9817607216727815	24.2174688674415393	26.8827865463288305
33.5320362002780428	20.5478722922380364	28.3382098011820567
29.6590864507846881	22.3370522317325424	25.5986500092127507
36.6892138078830499	22.2987209578157675	27.7339711393410546
35.2992031462654907	21.7419912110008369	29.3104609778072636
36.7675572324283735	20.2352581151325595	25.2488132924794648
32.5915848320973893	19.9074946920942679	28.0753140698269839
36.6967022082186816	22.1929452524291335	26.5207942212978303
31.5746818430699321	24.6882280181080844	29.6651070037103466
35.6295140062106057	21.4186555235539018	30.4254546527251861
36.5032777306440224	18.2771202522747060	23.6753828798412869
34.4203782005375700	21.1875755004171360	28.7106753597105460
29.9870966273732549	23.4019888891793322	25.9875540313065763
35.9967154736742501	22.5403945524880420	28.7051389110461024
29.6707590984110894	19.6363070747459894	25.8115846345460582
37.7509735353316245	18.0351142243295079	23.5548542966691450
40.2815041855044385	23.4612904339593022	28.1193556944641578
38.3838429702876951	23.4244069190255715	27.5616301060434559
40.3998190051527430	21.8391727961856148	24.7217753149034252
42.3782067859234814	22.2441502134504958	24.5099519196377038
42.8347263157937732	22.7778832288613486	23.0629380667510411
1.2997640902365180	22.9880900574602514	30.5139954498819428
39.8665027405656218	21.4802289494166665	29.1646209880642289
36.6212406785146740	21.2763224581303696	25.7742828490696745
36.9186347145268883	23.3356879037001725	26.0448649764309295
41.5084580683237405	21.6222286229792644	24.9998532008614411
40.2977212636051263	22.4422140817299720	28.6698612216134876
39.5807897042384838	20.6704315806028092	29.9533291479639381
37.7156639720244868	22.7365143853697660	28.2366139466196238
37.9119136090513607	23.8297969364008360	26.5330789158170397
4.2367466329373551	26.2917662822158817	29.0671507239495348
5.0099319116099350	29.4077653971357407	30.2943615034696165
2.9105377362066998	30.0267378655888457	29.5218536054794356
2.4354067319890320	31.5137372849242645	24.6540014294008927
3.2117683625767843	27.0894396979104286	30.9421071341765277
4.2489553246031360	23.7305471055911568	26.9657303433249211
2.5118235492106140	27.0926409134023807	31.8660512380578638
5.5491200306997861	25.3005740052840693	26.5719055476474111
3.8969769992303895	26.8785480217612474	30.0206058984774558
4.3396334345601622	25.5839544205296541	28.1535111990969185
7.0671937200387607	29.9970725206147861	31.1681056679297122
10.7659843577855820	30.2428773691117065	27.4881212909532096
6.5586248435955525	24.7329541602153036	27.0977956526264059
10.4101983106126443	24.7575904100109376	28.2284413695423844
6.4116370047780320	25.9837946200043142	26.1390154307928633
13.6718090710401565	31.3438250632535969	27.3886572450280816
7.3357997616282589	25.5788693806189791	26.7313677276141206
11.7971675209578031	29.9911042044193081	28.0124000057095515
9.6667247620334233	25.5758609953123894	28.6097569234759384
9.1158888519951020	24.2891140537374923	30.1853880237605132
10.4334389467005160	30.3111639270634612	26.3823418747234832
8.1108744880477968	24.5495151993309655	24.5205144239682760
15.9758367792672331	25.0999090368102600	28.0352959294787532
16.2254731763507003	25.1888586342411536	30.0673122052234874
12.5071115160537438	29.0079888346206261	27.9968038651143090
15.0583063012030198	26.0977674515724161	31.6879027133828224
17.7147744975303034	27.7082730213900810	25.2832350442664016
14.2756709859500734	30.2229089858531843	27.0777441420529392
17.8213512044879039	25.8894256963366054	24.4294900867281264
15.1593068464686382	31.3083495546701656	25.4262637858813534
15.7510316099758683	25.6043062501705663	29.0578995917857981
14.9716972253876968	30.3917796323418905	26.1619664514849859
13.5217812137217397	29.5491253284349327	27.7380071771489867
25.4820303902558791	27.1265570688049138	27.4176624156453990
20.6515537985117419	29.6697955254454442	27.3039048281374832
19.5336871359915136	27.0441315346602913	24.5945090649952540
22.7130716529446701	30.4807771472820690	27.5524564434677117
24.4894202830157077	30.5388426029558602	26.5091535230482229
18.2034395939616793	24.0303011818710033	29.6864992582987064
20.8190540090505856	25.8464249283145726	25.7202987779860095
17.0709150776440417	24.3450479297235809	29.8034710935817913
18.8796789707378458	27.8845695861892544	25.2099936722615254
21.6011519497369413	30.1979009927973294	27.7226203812322751
28.6078884610901198	30.7529748396633167	29.9837389892489696
28.6438500774544842	29.7162940293780302	26.7162239443200242
26.6878133477692820	26.2270802532638712	24.5439490930442474
27.6761827892150727	29.2367194170690539	25.2957995304208509
28.8193052982511304	25.6805423334224940	25.4581332276783989
29.6501742964694124	29.2049876053929509	28.5580444706047452
25.7655874909367633	28.9413960330687487	26.4875803141097492
26.9236454629752870	27.7323210779009770	25.7571302663863548
28.7328222369274791	27.9401870383541286	26.9633289667457205
29.7475374144676437	25.8261576213466277	27.2404262724244433
25.6165435682449356	30.2991012455125741	24.8132963265992110
30.5287011644248807	24.4965746476156347	28.9887522874684969
27.6692099963225893	25.9227944833293300	25.2302782592266155
26.4759077323564860	29.4909251483277188	25.6757351151285178
30.3909742807798402	29.6917170619134332	31.0702061571765107
25.2486123998217344	26.2783961543934623	28.1910841575130426
28.0814981334715092	30.3229522135555207	25.8865401595945279
24.8313437893583888	29.4948173288894608	26.9451317960458816
27.9917198315414986	28.3181529135232637	26.0515727561169186
26.4611601356049349	27.4138748842074520	24.6573771936487027
29.0485997111732068	29.0009912608787985	27.5343902494862185
29.2961196163765187	29.7917527409410852	29.5987901571441547
26.0799771204587252	27.7818080869213269	26.6464349707659167
34.3749392194162482	26.6860505813137969	30.2382639431789784
35.0798796010353797	28.8213249877031927	30.1798265945562854
31.9308194236940928	29.7308384727759112	28.9126019224562611
30.5968220761208300	29.8240515257843803	29.8717719167516513
36.9100528733846716	26.5966829789298522	24.3109418464339981
36.2529866795894193	25.6668454497881697	23.9425709811511069
30.8426414146516343	29.2770402311551976	28.7326566214375916
31.7513363864710882	30.2689520615140744	29.9403421152925162
35.9998430063592778	29.2891565564752590	29.5682683805565460
29.1823925417865446	26.8600615181938380	27.1704166081886775
29.6797240206393766	25.1945563474840633	26.1568069493325055
30.1656320593146710	24.8497164253290954	27.8905311604790889
33.4625924867863915	26.0172427861064506	29.9563478256822933
38.6813012606304909	27.4392750043813720	30.1149664537928814
38.9009224326932141	24.5356520719383546	26.5523558526753902
38.8680481187873781	25.5198814312958149	24.7393699491580392
1.1484525884213233	30.8504463521806080	28.2820265152537509
38.1841408225994527	27.2406696104530042	28.4680923864362576
37.1322417397136988	29.0120288471198364	29.2228850343036761
38.3442371984185755	26.5558583909174928	26.1948732875246080
38.7354533326654860	29.4000545804258842	29.0079123809581034
37.6966934377023293	29.8754225312650235	28.5749335243026508
39.4376655347764213	24.0264289931662418	27.5265053276312344
38.9585178906763261	25.5345746716319297	25.9257034364054171
37.1935172581770388	31.4291732485419502	25.2081203290781275
38.1990382879798744	28.2953299979673361	29.2909907248235619
39.4936443535333055	30.2575820824002051	29.3274496149005834
38.1846509710975610	27.0093482345414202	27.2987257723495347
39.4018971315929463	27.6335029613549068	31.0517846362833616
3.8983251072820697	34.9593413051442923	29.0575205399281273
1.8531654472640922	32.1111398831610870	26.8139486283237467
5.9795987290328325	34.7091571735604703	29.4228952650010918
2.1005831913813426	33.7317774265229033	28.2587695200469540
5.5193220899277167	34.1023875862108596	27.9533067405527937
0.8453482962106763	31.8029010068703144	24.9331739362028557
4.9517756540798068	36.1954948000791887	29.0363349153279664
4.9963748273206257	32.6273041240441728	26.4943007821251157
3.5672400135982620	33.3825626139568570	27.6535428154397742
5.2563750889323249	31.4303290624003147	25.4796338882745665
0.9116889607121674	31.6378216862635142	27.4371867431955536
5.0648295229340539	35.0265699156609003	28.6212611557430243
2.4413070227473859	32.9762936162116631	27.4156840645153963
6.5113628843781575	33.9219648685274535	28.6619055234393691
4.0529020492971872	35.8781752648748054	29.8163426014361121
3.1640822482138429	34.1896460815872700	28.5387054226173618
4.3796880375134473	31.6404609436237436	26.2258570164760201
4.7369411728630304	33.4114669760415097	27.3641284199044676
5.8882807129052841	32.4444325283484574	25.6445736042241812
1.8678571726563509	31.8537771159375431	25.6555828157176258
1.9779446318782186	37.3133469669545619	23.5510919063713331
9.8534362564583180	33.3870170472868821	27.9683133451060684
7.6091703284181387	33.5079536611349127	28.5293630883029508
11.9238944821801720	33.3510309000721321	26.9114419308485964
7.2620088060236396	35.4990722621404515	25.1593402172355347
6.6234469091877957	33.1828600785924408	25.0597454392732892
11.9629611097359732	34.9758259932229194	29.6637200098386451
8.7483125538539994	33.3846666747929106	28.3446976321133448
10.9320890617768676	33.3219799377670824	27.5299338154488638
6.8030765746795598	33.1898110849443313	23.8290443190497641
11.5940556393558349	30.5543700122161574	24.4995651345043264
12.6901040235457909	32.9121282166668294	26.1345230258749588
7.1959894453260089	35.5158927468076371	23.8998078239162766
7.0525836992281787	34.2953620364034393	25.2629383471574016
17.3467135805568908	34.2435091625312964	27.4080153610473758
15.7281922869271256	33.0198936155028520	26.6552237907657812
12.8646052602936827	30.5955356226791260	27.8640878462189150
12.9044770954848254	38.2139687188384585	25.7269359301221421
14.3544022917417422	35.0842677078625584	31.1178875591947914
15.6455965118513483	35.7580978174705635	27.6816805980813392
14.5133940779948745	32.2060421780544388	27.3825152567268653
13.6180034665365692	32.1052091094608514	25.9671416378204825
14.7781911317883381	37.0680866691003672	26.0629591699714958
15.4327889051042888	34.2286526962294673	28.1430940062971793
13.8837790772273486	35.5248938646322188	28.9735259860356926
10.7477272912179682	30.3401980493964700	25.2567565806110430
12.5796712971322258	32.7093194281629280	24.9210021070992980
13.2169214823811263	31.6645830949907285	24.9171775404005196
15.1705278530625165	33.1181661924089568	27.7707709022365670
14.6658484974343359	35.1691805758208176	28.1354199664475289
16.4438176613506215	34.8735752819511760	27.9349040353583788
16.8053221994607753	33.4825795159702793	26.6503275484237214
14.8192588812145853	32.2934564138015645	26.1729965134393936
21.9202307188050831	33.7447719430130135	25.7022216715086138
23.3528442505852425	33.0130786509155740	25.3638117386806421
19.4122472953028193	34.7696699332796797	28.3558391239287424
22.8134634610956581	31.5495717145847330	25.7856259366453635
20.5170750778331055	33.7749001457618263	29.6742721939903440
24.1771840718685063	34.3767996126058151	25.7894596074581237
20.0272015828031087	32.4937881211568751	31.4506304058603590
19.8074361510100232	35.4830921880805832	25.3581192903251065
22.8051848157492039	37.3602337448996522	28.9841467794559939
19.1854280252267451	33.0776048515454733	23.0295430306280728
22.2194175215870899	32.6058837151144232	25.8544269378016871
23.3557518772590385	30.9315473377919652	26.6742045054469799
22.9934750687843632	34.2107553645865750	25.4930134769854071
20.3380565272710570	32.8812929881570284	30.3787284405011881
20.1862254414956048	28.8458249802045330	26.6354264083277812
24.5191103365188745	33.2219628096414610	25.7715199265750456
20.4450448626316081	34.7538690773380878	28.9765385912015070
18.4837118080245126	34.4290623915600307	27.7720402861319755
25.2416744884083180	36.2336701386344657	26.5778024117021694
26.9349594723990791	30.6566447474846768	25.6169549636294072
26.7661318259207839	36.3525212785997240	28.3705094434982499
24.7517763359171852	32.0991385508573472	25.3987097727618227
26.6947010934435589	30.8710753860133913	24.4628740992553126
28.9248795277470983	34.3036199146779310	24.7478119428096868
24.6423103748220989	35.4621619865011297	25.8801793512416687
29.0844019867083396	31.8225628747980736	30.0686533992605689
25.2512065124133294	31.0462709220881585	25.7103686084961005
27.4301554216304844	36.5149409490338996	29.3312146027317837
23.6356698442153039	31.8785166492970653	24.9577833219281935
29.0757928035537638	36.6298613704805476	24.8584093247868587
25.9698482942724205	36.2431424546079626	27.5136674162843278
35.7932609928312289	36.0809332251882466	27.8665009855968542
36.8953271538269831	34.6374833306963907	26.3826160409676369
31.2063571663590267	32.6712670295917675	31.6408657068621224
35.3773190147511158	34.5632552679754141	26.4020354918031224
35.2225180818743198	34.3871957521660505	24.7564721402014669
34.4671844210365563	31.3992575143665960	27.8316826066071599
34.5559446483759487	32.6315939392282246	25.8701863327669273
36.0791017419984499	35.1164228485573346	27.2229369861585866
34.3661905280802884	32.1555577154457666	26.9583369680579352
37.2580105255182232	33.5112914074570512	26.2873752867456894
34.7259059852766327	33.8421792849101024	25.7120593971383506
34.1580218724724318	37.2364423067179402	29.9975675623099178
36.3590172154923437	31.2836348717231338	29.0119497147077361
34.5583716182214999	30.5087032996048926	28.5924492168161102
36.1627779968185337	34.9288235815470500	25.4239944193872844
35.1638498152209920	35.7797753754174153	31.4414487219367764
30.2653267715660483	33.3468415972885452	31.3134812571345869
41.0173737225811479	35.5651849982378678	29.9524273319158318
37.2526461958637327	32.4993113117554202	25.6942850170194461
40.5087892939206498	36.9435724080585217	28.2215861525413167
38.0929985463416330	34.4386844028573051	30.7766083955425636
42.0543264745017709	30.5498663898434550	25.7295624919197188
41.7332903713358760	37.2580710036218790	31.2053750610566283
39.8807553038093872	33.4961767982307634	29.9667804148962240
37.2562676354209614	30.9379732782464139	28.3644119862653774
41.4907806976273505	37.5503949781175592	29.3512647293770499
42.9208032728681417	31.4529148853488891	26.7672823616661582
39.8695599070631559	32.2576814504205203	29.7813274660147123
42.8949862229471464	31.4791832112548917	25.5608484933953939
41.8460129019436167	29.6779172013539387	24.9664638511823753
38.7386670814027028	33.4905608768970424	30.5013395035426846
40.4696713184432397	34.5130169753912455	29.9034070075339571
42.0199896002420061	30.7102555112685742	26.9497143813699189
0.3839175274236095	40.1076667231592197	25.5983010767046721
6.1734658371708724	40.4793082363277250	25.1343722144370219
2.0841986103343766	39.0802296862137126	30.6392538734917750
7.1364687810384364	39.8916637394844003	25.4106194515274879
42.1033139294415122	37.9501604728363944	30.2996613263479730
5.3202111922820379	41.2213730687114008	24.8608475827698214
5.2419887302834720	0.1717687694174634	25.6542545602468088
1.0517877617295297	39.1760484842205940	25.2513635377565393
5.7854386623641485	36.9546604680258568	29.3509663171650779
9.8243408315438412	41.1616243889673683	26.1950977176732849
8.2123989352940949	39.6135908986936656	25.8409642472418177
11.2806512853142600	40.8838147496742721	25.6438126974232325
7.8770568686174052	37.4890186962152683	26.1427676166378049
6.0449806320685084	37.9998718533014710	29.7833106103875593
8.3093028394780255	38.5359247467867405	26.3630097621391890
12.6873166850432266	35.4499143149336078	28.8973942828155934
9.1837605625211349	40.3019409977005196	25.6139592584309597
6.0135675423533623	38.4261773832213152	30.8883674255036134
10.8457100219203912	40.8430582513661165	26.7590716969143685
7.5144825475876944	36.4308391779515048	25.8215532055300692
6.6445721247486960	42.9436117411994900	27.4824956646781047
10.3903419026596957	41.5855969510115173	25.1632555229098358
11.1608305405733148	39.9751522626637978	24.8229664976694444
10.2040027860943923	41.6536690352886865	29.9558437962888391
12.6107103086865049	38.5460713789830010	24.6209978938782719
11.7309752072163302	39.2157018123496286	24.0861633777313280
14.4410947342479563	42.7875368535406935	31.3426222766190286
19.2039399065589116	39.5164328859058500	27.5445181685909368
15.4260858013582673	42.9475358267396459	29.2190652724364206
18.3627953144273022	40.8631411332275647	27.9502982648607379
17.6317682741347852	41.8241696729435191	27.8602297759845641
16.6040860305579798	42.7419090786261577	29.7039500260520448
13.9362855266109396	37.6316675853707636	25.4325505326889640
15.4510193568995717	36.6121282347864039	26.8786583935224641
18.6846478066930075	40.4059882188652253	26.8428598256664799
23.0311817327656811	39.3635832901664671	30.1067592550923955
19.7386747813674859	37.5488974545457168	26.4060393762527568
21.2789944908922735	35.6125467248782286	28.9402147804074268
22.2994000679355118	39.9039954836326345	31.4704331857481030
22.3433140737257929	1.1468205928741952	25.8232516081592536
22.2582168151522168	0.1022227381367890	29.9914964587975774
21.5991896816850897	41.1389261789901823	29.8134699471552587
22.1066441974733117	36.4238969271289719	29.0035445503292131
19.0409606857485265	40.1145856017048317	28.5885700755401615
21.3904123564826421	42.3002792341705671	29.7062293135371931
19.8496577948079711	36.4602779495746105	25.9924217963393041
19.5823651379836576	38.5338625347666266	27.0007381533091646
30.7370191361138581	39.4431587218475386	25.7353892275068823
25.1015086192363128	39.7462492939161223	23.9446567095818210
23.1697219521495441	38.2113907831302271	29.7224902659705528
28.4782130050348101	40.7277883636131079	29.5442598865537818
29.2263362130413924	38.8156951413321849	30.5459870841756285
29.9252504469670519	38.6377097255064257	25.3566535137314446
27.7438762490455559	42.6019785170010223	30.3283611368269419
24.4651301726186290	38.7816530718984751	24.1063610841891531
34.6742173414431960	37.7940462524729099	29.0602654226267703
34.3233332178518395	41.2041951255279244	28.0984044706714826
33.6559979232520590	39.8279318486711631	29.0961081845235121
33.3727714381510765	38.3984822435524720	32.0899419254329530
31.6913508999654496	40.6059074085394087	25.1354083327030082
36.4693492131437367	42.1826002004077196	24.9569252287608627
32.8256513342252774	40.4335128643994537	26.9251783565282992
35.4813789773188191	39.8046623055638875	29.1648331703479009
34.5331652382454664	36.3505890669423906	30.6287875735637662
34.5739411485784416	41.7100113670374029	26.2722665695994699
35.3483010577756573	36.9941089790975681	28.4300288336672473
35.5194207650117164	42.0474005184431050	25.6125642423765214
34.5708658263603112	39.0155191913588482	29.0321549045300564
33.4085945842702898	40.3758639725953401	30.1887303524174406
33.3529060104534452	40.4463021449575280	28.0641672872172911
34.6856089098617986	42.1436583160716935	27.4347350203071052
34.9020550152260896	40.8957335309706522	29.1380530986772541
38.2726319973171201	38.8813894026134079	23.7772900432682484
39.9715654929668318	39.0205037005623012	28.6882497844773070
37.7613737857433875	39.5285218291734566	29.1940066005672278
42.7082864239225728	38.9558924428429094	30.5739740320981568
38.8908621604989051	39.3331690156559048	28.9569138417939094
39.2032059978711445	42.6035841690040868	25.5142591019781051
42.2583218395916518	40.0044707121572927	30.9359312192502074
40.6839876852789146	38.0794661409628077	28.5768050370404083
41.1417233578554260	36.4061621915328004	29.0704416919499415
40.9968661474359592	1.5033199275852001	28.7375378074111971
42.5926805980130183	41.0066750229357808	25.5927383997712710
39.3700188314467923	39.3198745896799267	23.6543124081591891
36.6320455709909041	39.6622980244298162	29.4066977183297062
39.2510746852385140	36.1954613836463537	23.7289013467320231
39.8084040425906167	42.8811661964684063	27.6017205705865187
2.9195542526818143	1.6902340063399111	33.4206516487308321
2.0720148933326308	6.9333789726075699	33.8569090549458025
0.9954404329657061	1.0437747768623995	32.9155273526988026
4.3243304705493006	6.6625636546085278	34.2192489275205745
2.4231780974538668	0.8993725711284198	34.9393804702713382
0.7402322879715481	0.4597672520762430	34.3899862092777155
5.8558074555443653	0.0311115288943612	38.1665462777321238
4.6020582974740627	3.2444367696024203	33.0343501150086141
2.2932585236759442	0.0686899588669950	33.1699990561504805
42.6675589046538946	4.0287977171306508	35.2683875663441881
6.9483174537561494	6.5389566058094060	36.8949297190122536
3.3719053227499591	4.3677683562767715	38.0108699160453867
5.4300344448194142	4.6199598345382009	33.9955795177356208
1.0727025274729374	2.3881633079358187	34.5092552741423475
1.4087784405536012	0.4059301540676392	35.3576512940780390
3.8366479340403270	2.3878606843044339	33.1050180667051634
2.2117069843592523	1.9802963573502959	34.4166814844932460
0.5579442377717415	3.2874710697245710	35.1167898782672339
7.4257420241051006	2.2207327279224791	32.6998225884213340
6.3583188761710199	4.0138984320431783	32.2288860026909418
11.4060768357607643	4.7578912058955272	36.7054062021051948
12.1331921057756098	1.1898003918911775	35.8542663429676338
6.5603012723184264	2.7511550272600531	34.5575123180891808
10.6219251819571952	4.3827206514306045	37.5286359069161293
7.8003625852441960	6.9718369145715462	33.1509033051148450
7.1927280954126820	2.0917047898219523	33.8358808085868361
7.0841903106933684	3.1264447429604525	32.0470400708691088
12.0610932197809628	5.9145451632924164	29.8963994344744570
5.3533889616663597	4.1483511172927789	32.8436061341972589
5.8860954903371852	3.6978878981941912	34.6061199512133228
17.4836693486346242	1.4313406755318934	30.6887711552417244
13.1703345143742059	4.9802672877580436	32.5442817031025129
13.7570699675330879	2.6139688655573239	35.4229931280365733
12.9913422288336573	6.2503362809167227	30.6131874138349183
14.1086098422341042	0.7304314064068476	35.9113746726989618
14.9960506905684579	1.5583933340292724	34.2237706856700967
16.0239014318728614	0.1027590181264809	35.0520270596595225
18.3829222017997900	2.0267940037539320	30.2482907030514951
16.6449797327154165	0.9259812325401763	31.3627063161354265
15.3457450004223528	0.8159924558898113	33.3134759272371426
14.4675218816962872	2.5840889934117754	34.4719022691698243
19.9086579832167345	3.2637709754747091	34.2744292981491014
15.0662029111987774	0.7756081050683846	35.1842746458197695
15.6143061972493538	42.4814980547690340	31.8849094909687913
13.2123070415881756	5.5049407643455330	31.5311527673114043
13.2419810157415458	1.5188908835334940	35.6201121320349401
16.7638191476523666	42.4519832964282671	35.6751602567502530
11.9982622833004946	4.8150583477013136	35.6660512433490524
13.8057691934496152	42.7542668785956863	32.3359973432070475
14.8524962355510777	41.8344299008020855	33.6804482855696463
20.6856493020829717	2.4754832465367240	33.8582399598814945
24.8799120985990676	1.1528380959792512	33.4604138269800515
19.3315386473463846	3.8765772415935813	35.0237095767242508
23.5640465394840959	1.0494414901848999	30.2178241534559042
25.1267653782285514	2.1043396606238818	31.6171780434432144
19.9319879158300317	4.0986260286918412	29.7726901747567432
22.6360866838132182	1.2024054569270959	33.5344737171977201
26.2673337150664672	2.0917911096831299	33.6160050568059035
20.1604413691562279	0.3789384889827280	36.5738710540777845
23.7166373875973520	0.9698905270953012	33.0680594801619918
21.6002388647239805	1.7316442343448306	33.6923278421291101
26.3588077187578413	5.8101856397918041	33.6718428301506094
28.1027840591845539	4.5035619147654096	33.4375278541111456
27.6954334766410888	3.8777028965199336	31.8525063742016172
26.3102554139931470	0.4320244530812615	35.1270656854422469
28.4050887835597621	4.7531868692316186	30.6697038960753758
29.4036165742555156	0.0658360240867400	31.6491328123324820
27.4223824711530320	3.5814500351183005	32.9837623846334438
28.0798941458295168	3.5594244577698286	30.7334897347869891
25.3442238311442978	6.1681934099311810	33.2252449154818805
25.8151251305971883	1.1753702944454807	34.3118754743999546
25.4481883108993792	1.9893854354781766	32.7426103725627300
29.2917608674239283	4.5959201788969501	33.4058713718420393
27.4952223735143839	5.5821590595052744	33.5028833516080979
34.9504420540718570	2.6020471812418093	36.9021516042857627
31.9598249558747263	3.7666188251963013	35.3751462043102833
33.5844425522117689	0.6835149501567090	33.1361150261920869
29.9058475236250700	0.9222157567810733	30.9813093718859704
33.6018809666961076	3.6565302799460184	35.6262583295266282
35.0537170603481201	1.6832699861007629	31.7477348658860521
35.1338944476584558	3.8409070174002977	30.9426900225499324
33.3221732744119024	5.4999843417549492	32.3178994972724283
36.5443618149762415	4.6235780609169206	35.7086188682885961
34.4099378253033024	0.8355818112389373	32.2611014505315552
34.7151229362913725	3.3889887539322978	36.0077222072047576
31.1373358163990197	4.1649592485304927	34.5867454479322731
32.9695299006708566	4.0558831730711287	34.6322575141449391
35.2496283693633714	2.7468029240172731	31.3290208010296460
32.6199838492657861	3.3766661872832398	36.2709606957239146
34.4043355538545867	4.7617087835163314	31.0698010908457718
33.1146887852087843	42.6727169666638773	32.7769106216943129
35.5757373676445567	5.6839259135807181	32.5259396219554660
37.2309264766760890	5.4108432275238547	35.1911032868256584
37.9702981304731608	0.8480716418206631	37.7476615226430354
40.4503583322016169	4.0412713077876781	36.1828510025168839
39.1782338678863482	2.1863921092325893	36.3588838702770829
41.3643858180613861	2.8751013125014793	36.3322922713923973
40.8491222372184453	3.8890082478445951	30.5709053895848903
40.3325051139688284	0.6282782104224959	28.3313912065839766
41.3692705154764795	4.9577360864815443	30.6747472901282450
37.8951845748473772	6.2886861758303354	35.7454742829900738
40.1565823171296401	2.8159258574478430	36.1532743875719191
4.7382988972180105	9.8452741664616763	31.3266517425460158
5.5812502712574572	9.1062277032425420	37.1708751703972666
5.1730377178905069	7.6922299515066133	36.3609389305651831
3.8765525923138253	14.5085639115699294	36.1275218168538998
5.5676505454269760	6.4159437061586857	35.2152386739797336
0.9392484551578404	9.1615469774910405	35.9146886877072973
4.2327203437288734	11.8577296792848106	30.9326812204833956
1.2431375918164933	10.2854477900835519	35.8360699174342443
4.6925134869800731	10.9782369853831696	31.6550487293134353
1.0041295636050309	7.4315878775383331	33.6538510340910619
0.4059929145648549	6.2756183251245368	35.2749046463592180
6.3388204805273709	9.9648850511415379	37.6050518648190106
0.1450829058570941	7.6087637566025554	31.5009573262100844
5.9301829884598156	6.6816510949429446	36.3317094699261531
5.0943317240583275	5.7066574765277736	34.3737476777793773
4.8809705328811068	8.9543210228809489	30.5692678296331870
3.2117681451659794	6.7567936964646522	33.8340955626847020
5.7070193357973835	8.3887040286203263	34.8623133697521013
9.7345412362970780	12.7795390541218996	32.9133945075335461
8.4709913356435251	10.6881668591898151	35.8987688374109482
7.1462625068121808	7.9929554143579926	33.0982168729775310
10.2596969735424839	11.2519966654438033	34.4726399452090391
11.7621428470356673	10.8113897531125698	30.7343799003599720
10.5971163551376186	10.5947292945638818	35.9156728428252165
11.4034094670168038	11.8222180885157417	32.9144292704673234
5.4639744321379480	12.0371366132600794	32.1209873076675692
8.3667261256531305	7.3419419562438080	32.1795557205790033
6.3582918954665217	8.4194413758966427	33.8789173496591687
8.6301851559041136	13.2149775518525345	32.9250531669987794
5.7914849298240956	8.7152188966233464	36.0286247492275393
9.5341327941515868	10.7787927292467494	35.3926270714472793
7.5605652181840322	8.3354083132467078	31.9783147531895580
8.1857627048029826	8.9669314134620137	29.9284139079080589
4.9024488191052491	7.4327360488586702	35.0055935557236637
9.0429919753684160	7.5692428053752820	31.2293861256141305
11.2918190692005940	11.1084920689399400	35.1248028363214218
7.7323095417435042	6.1956351691372333	37.6702302767722728
16.4465711587892685	15.3588642676446572	36.7878929097854410
18.1467142251920492	8.5281682189688972	37.7185221421488919
19.1812936763452200	12.6353854506233443	32.4048828634826478
11.9992528114880024	12.0821885612306588	34.9261837183950306
17.1366778149145382	6.4724150012393027	37.9582130429965332
18.3491483097242565	11.5638939182767722	31.5141749784945588
13.5774244474949750	7.1562265259572024	30.1071030220293068
18.1846164070453007	12.7821663523785762	31.7959709896363663
17.5863209941021879	11.5413341096607915	30.6137360709154684
21.0810840658302077	8.3053433111176975	32.4096389372816631
21.3060326756275060	9.8415611055311913	32.8256591520153194
24.6380332978334913	10.8139838576773091	32.3043214097957829
22.6012323642105457	11.3790186269235232	32.3127209209380553
20.4802176424243392	11.6633070926849935	32.6295344180086531
24.6145181279262317	6.6848825545951982	32.4791063925683119
20.3242925112034385	7.1027037685158589	30.6459264196385845
23.4965409444948428	10.5193238198261074	32.1657448013431022
20.7525004358546639	8.9502192370840383	33.3708873716264236
22.9382486804467014	8.1378192168343944	37.9224986754497877
21.5006847646852677	11.0208856589680853	32.6801339408671012
24.4627207008737493	7.3507864299416550	31.5371488675543787
20.7008082377139999	7.4562295241373784	31.6750075051849009
26.3594240019086783	9.6564878640191871	31.6735221692778808
26.9141480146569805	10.8337149823871250	32.6520778832089178
27.9969915229054855	6.0031595741338428	32.4656631907344746
26.6585104668083659	7.3632941482677543	37.2973346432017223
30.4554776731409866	4.5758808412806600	33.6473422588194637
25.3513365488140217	7.8440273524510653	30.9418131171039867
28.3444530019553120	9.4511203206905581	30.8990429906895905
27.1256889292996419	7.8025954397831274	31.5727451275589956
27.6327062292698855	9.8492867075913750	34.6144551827882765
29.3104522863856509	8.9111676761004190	31.4880661292505302
26.1337702723369993	8.4821423826433193	31.6334374545745725
27.8760725520606130	9.2441310084257928	35.5815916948254625
25.7127624075664549	7.0317307392215049	36.6937014401490131
27.4890204021519864	10.1051194215711746	31.5734172756904883
27.5892727411278393	11.8049890745589519	32.3466760704098277
27.4946403415083189	10.6404381883035271	33.7504725243250547
29.2557288761759473	10.8493703105196229	31.8597816409062489
30.6609699812913910	10.2439245136881691	32.8474448773496377
30.6745428418906485	13.4757197079017335	36.1591484191461063
29.9458717198243853	9.7999711947002677	31.9911947301107986
33.3071674430724372	5.2434002801761785	31.1095745235477423
29.9384412735152878	11.1889204482782425	32.8215297493543616
33.5458930087281075	10.1803526674206228	33.4617635562371305
33.8439445426638343	11.3064051714475191	29.9143715983393790
32.1186405782746789	5.5247495169924870	32.1763049498186007
33.3225611052735360	10.4871298167678990	31.2680838275071693
34.5088417666231493	5.3235427516233349	32.2006395636815839
32.1214484288433653	4.5000907761903211	33.9110478809272422
34.8683307342469746	10.0828359271913328	31.5816781040333332
33.2986623772530237	10.4965181191766117	35.7657203488832920
32.1728990880463570	5.6644282424350099	30.9283404252319976
36.0125308559091479	10.3620790931491946	31.7476310990182782
36.4989341802412426	12.7262038625314471	35.1090346603757553
33.4615206148195767	10.3223278623978647	34.6202785368873052
33.8717875518455642	10.1981273670552000	32.3203127516891939
40.3115935957449807	12.0350759172479016	29.1536986011109178
37.7773968191194882	6.5021002745788250	36.8919166609622380
38.1629123393911485	11.8609187207659836	29.9597313646163173
37.8624126523029574	6.8627353271767584	34.6666026744505587
37.6847753755996493	9.0322833272434604	33.8411229188764793
0.5243115809119342	7.6501671367298343	32.5960441449059246
36.7964374992769407	12.1828311362612762	36.0868439472569804
1.6778661184943784	11.3635326166240347	35.8284015264534332
36.7800446208499707	10.7608590135316877	32.6337598278638978
0.4527019465041594	7.3264933747784138	34.7293047686683778
36.5140728443174396	11.2774038809568129	31.1308155163992240
0.6959928879443041	6.8945896006696765	36.2615919085380440
36.4637043624822681	5.8838635304859430	33.2330688257716176
37.3302433875573456	10.0488614192875563	33.3954417559314010
37.2515834894461833	5.9642734201809002	34.0887115722539207
37.9127345662690871	7.9756162503298151	34.2703013705702020
36.8624117206972386	11.8942819207390986	32.1314087268334276
3.8932469256466327	14.5569780284195147	33.9961561735036639
2.2827618921099617	17.6969143268114912	31.9268165337937440
5.6976435585449448	14.7282866795185505	30.3970344829934582
3.5361951493336301	14.0778790661380899	35.0626252527020768
6.2884089954690765	12.5897214469513408	32.8155330742007791
42.0832513179653986	14.8191114060797808	34.0222016603152682
4.7778911655684926	16.7803164316527571	35.0753289885433475
4.7841070260276028	19.5900242063620311	31.2626521649530069
3.4036685683843002	15.6556159581517402	33.8268045284223362
3.2485504415804889	13.7379308211068949	36.8053835906982414
5.0557088235349950	12.7055450067502615	31.1962592092508828
1.3007280133325658	15.2284605616524757	33.6734176573845190
2.2036581248089129	16.8231957544573767	32.6832151590465756
4.8651735427031104	14.0958324161554760	33.5022458007183488
42.3022458207280678	17.2968684584547781	35.9127118795413836
11.6462195100266008	16.5692120884288983	32.9120225485991327
7.6216683394577629	17.1534401460293928	36.5704958383978393
8.2656820312851202	16.2277328573105848	31.7413777045821739
9.4932719199035951	17.8393271692283371	30.7502895005817720
12.1090753358491234	19.5911107734219847	34.6932235475190041
6.3284698731953606	15.6477271372710351	30.7213908996691814
11.6998274193572396	12.3426766221425659	31.2998564997609954
7.4239593564085764	12.9985459704133053	33.0177737225589354
11.7210842842504146	13.8378338853193448	36.4602574561408588
5.9635937173185338	13.7437570571364898	33.2678827047995327
11.9118053690388805	17.5006030295561423	32.2283008708914025
11.4679369180929669	12.9882600991730577	32.2785111959336675
7.1695588699154413	16.3139352582588053	31.1839913758387688
8.6810557010496439	15.3318873596658918	32.3874577670289909
10.2737547477932178	11.8658689958339334	33.4499076665053039
7.1111521764636754	14.1373914299218768	33.3360463405311478
8.6441256110975715	17.3385114251007586	31.4060702244545098
12.7620762129884611	16.2418828493534342	33.2126494427373231
11.5725861350836734	11.2125440850743807	31.8404331666176468
8.2315379934111981	17.9196934366697747	35.9284819106920779
11.8285374340664688	12.9315250338455812	35.7521075571513194
13.0696020046241230	17.2186087535600016	32.5266397901703996
13.3842194024959138	15.2410313883849611	33.2827074070416273
12.3683923613223001	13.2048061251712365	33.0983430987965122
18.0302796321616299	16.5821852445369515	36.3563876199542264
19.5524494014851804	16.3369206376443863	36.9796216422145321
16.0368444026120400	17.0585844187840543	35.6935624495684607
16.0367121523369072	14.0781528966425462	37.7383343572546650
13.7467461991544475	17.7097675792706859	30.7025650142448221
15.6612702098936936	14.4765846927487640	36.6665233248424443
13.9717472910196232	17.4276711801778035	31.8199220257398530
12.2217883650369856	12.2022648870140564	33.7548311154311733
16.8382219585081252	16.3674982219803518	36.2230007114595267
12.5885535891138876	17.9491780496983822	30.3662331464169810
15.3224549526789477	17.9629963948402924	35.8038159817148909
13.0874383541501782	14.1301187010999278	33.1888069190585284
22.9311049550825992	13.3062215129487686	31.1392261256872409
21.5081973695710111	16.1632301362910908	37.0676240689682786
23.5473108193056682	14.9490190609734679	37.3356397759871612
20.6591107389058912	14.7477622999874942	35.7074817054889806
20.4710552926346345	13.7448523642286933	33.6708759123524359
25.3372487124453620	18.0602671098186853	35.0877264919575467
19.4121113977170161	11.4600632264850049	32.1018398642788512
20.5923195950629889	14.4639243245725382	34.5690832461493756
22.9246220425886307	12.4415634200421366	31.9197732239073630
20.2109504155845237	12.8088006674067785	33.0191602175269665
21.5559071101525994	18.7433448937003355	31.9174836262939081
28.1634616954257275	11.1488016947146491	31.5093857280705585
29.6519693523937988	12.6425604012143467	34.4540330104880042
30.1585708336326128	17.8808676509616227	32.6418931436874686
28.2210002778899565	16.6490146804761707	32.3476437948711819
25.0768274992895996	14.2904593120977701	36.0249010768151123
26.6329959884225964	17.2082464080336273	36.8337177477529281
26.3662991838466887	15.8004875290772056	32.5570734673896069
29.2978854899873440	14.2793611943817389	36.0541054237184468
27.1588806354747305	15.2465813455408696	36.1762790318682619
28.1794511813675257	11.5786031315861937	33.3622208096301236
29.1438179441213379	16.8516739571587735	31.0296319525962510
27.3162746392825753	15.4059611339487752	30.8971833564019285
29.7534583087662483	13.3368040152875320	35.3993719301048131
27.2390742623291970	16.4504890213348389	32.9752860775618757
26.0471570494579616	17.6768471784275256	35.9285099137867832
28.2885303354393329	14.8122273290184427	36.3670853479323171
26.1393436773118957	14.7295572639738648	35.8904882914918417
29.2647648445343052	17.2590198614262356	32.1945846514920362
31.4264523595639638	14.5520716887857269	37.1683701369324737
33.2451150735278205	18.6028337935886299	35.2686851757099902
34.4682053885845932	17.2586319307520171	34.6799224112118196
32.8569920135588305	13.7168026218737200	37.0261731212912153
34.6931108227769727	13.1578781784979757	30.8806492642574568
36.3455306778927394	12.9716668424540238	32.1000075630662991
33.4464870704525623	14.7655787264913751	32.1065546768913208
34.9048750759530364	14.1802586149611507	32.5896734115070927
33.5506094717227157	16.1066129950581285	33.0390399735751288
36.1023893455976577	13.2121749262638311	34.1327996737172015
34.1364628882410202	13.8529638489912852	31.6911527611610957
35.7945198684250627	13.4983656678250288	33.0362188516974342
30.2756812540106388	14.4882296900808445	36.7581891711273343
33.8303371860471671	13.0878473633816323	37.1682650498079994
34.2902761556895186	15.1205507569586945	32.9913698977471697
29.3178186731957418	11.8656437170207365	33.6400074179255810
33.8282205741549262	17.0232621114214631	33.7369519334785579
0.1867745935388870	14.9066610215169888	33.6670856151436979
36.4396303447375018	13.6806424969721991	30.0449230751596588
37.5405251813877783	13.6691113684108956	37.3454712387084982
41.9411167356327823	18.3618829751947494	35.4994353381566015
42.7821916389388264	17.1595485542532131	34.8532737440951763
41.1060377620040711	18.4423502525646654	31.3121184446219480
41.0325904077786490	14.7001457844612560	34.5258526470702947
42.3506096972913255	18.1406175746107117	34.3189567513410125
40.9480604141071112	17.8569856675899921	30.3249712982533595
40.0623688562352029	14.5655425422893234	35.1703116932316817
1.2147679059411132	19.2532176252137930	37.2960650906710285
4.0838562052597362	16.5471027684370000	34.1729338705990315
5.8835032417695086	19.1936763606748997	31.2875080686470390
42.8219617708873344	23.1475239120780216	32.2836633748916739
6.1366798410197045	24.0822186076306650	34.4704768468120122
4.0131929004665317	24.2817629028404838	37.0064616166997027
3.6556904907363017	19.3178115707631903	31.2563667856534551
0.5533357310091992	22.9967911052523739	31.3817491503879147
2.7195128830363045	18.6494546244515504	31.4217576736631088
0.6914317909939289	19.7453734127902827	36.3830836141133105
0.4873360275364683	27.1557966580217212	35.0739481264005732
7.8741052463404779	18.5312441921086446	34.9986162212016794
10.8038405739892625	20.3332230169155110	35.8588302842112938
7.5907616729783527	23.3309672051452637	32.8858497949309339
11.9910913438042126	21.6250801027922286	34.5989101987463883
9.2182367313852005	23.7397783399592299	31.2742842322180152
6.8430530803266985	18.6908063402229558	34.5192901679290358
6.7455162659439596	23.5182405747319265	33.6678794605204672
7.7606480369941560	26.5372208074910532	35.2975781177993753
12.2916470304970673	23.3906521265686251	32.4313833013522910
11.3598078439258305	19.3489692974029346	35.5485667560667125
12.7983768628980332	22.3728663142600084	34.0933684729763868
12.5857479959220218	20.5562480294880352	34.2351325075917075
11.1443916442826652	21.3350388334143801	35.3701982595571849
6.5401300193713583	16.6172839268342045	36.4357052067288478
13.0455932530482865	23.3034538474652635	33.3420249379524947
15.7623029465876616	21.5648585130965884	33.8187974784442886
14.7254163686250266	22.7482571761729560	34.1113682001785321
11.3609219789291647	23.2840112828044141	31.7518462709020390
16.2186493282521127	20.9731259501746692	31.7501920627500347
16.6271241828781058	25.1542227241116301	32.1675651192503480
11.6912741222717678	18.0585408330525148	31.1745794604231641
17.0767756068214069	20.0898163888175283	32.8443539845139725
13.3988725134847630	21.3443507420900183	33.8345238829976651
16.8409495433643066	25.4548917990143728	33.7641127346147840
16.9605719264879937	23.1913368598098799	34.3636474757645018
17.7966252172207504	19.6568484318141294	33.6705818188714758
20.0233069203732974	19.7087971923596790	33.3831227532697028
14.2094190105647940	23.6494346582261485	33.5286462599276405
15.3374960346463229	19.7737186093676947	37.1070762391445257
16.9001942391928459	19.9265103642614001	31.6548704771501939
16.3999894756079172	21.1153483359372451	32.9324142198293188
17.4686913511049688	25.8101964887795852	32.7340937323406820
15.9215270380822282	22.6548436114226313	34.3521257567629519
14.5615071462003982	21.5599806307250077	33.8495455037327559
16.0834402908793237	24.7054107937635834	33.1910908201837742
20.8889263521281983	19.4612525270929844	32.5732192653979951
24.1926318459189673	21.9338864104639448	36.9778290440322479
19.1260807883182586	22.5923717609651646	34.1592747415527782
22.3779002376460205	18.9032236540534804	31.1031574470253034
18.9362765858444995	19.4954034686578090	33.7735665052435934
20.9747390360536805	17.7058817981438494	38.0673895180844326
22.2044892131389346	24.4686405628867263	32.0675314326070975
24.2713333023012332	23.3750853462310992	32.5486223042541596
20.4228527870873720	20.8760939827503229	33.2799603800096833
19.7390027256360376	17.9909027649167790	36.9955146635915924
23.1468036715126750	18.6507741603632091	35.1030501051109454
23.2485517383044993	19.8597081697266660	36.6629203420737966
22.1535515444120570	20.6962397197521106	31.6566280159193028
21.8738924977604938	24.4238392954304295	33.1884382474786648
18.1234336567480376	23.1512522088879571	34.3676476290500190
22.5766886227469215	19.0882792469483391	36.0383423263795635
21.3080560475219691	20.6372951428088065	32.4723926182487332
19.8735429361789748	21.7728317838125918	33.8053726943859658
30.8047931641203760	23.3850523984119540	32.7489949266258620
30.2575068188687162	24.8352831039204709	34.3627315259066890
30.4616658737704924	19.7442615289062360	33.8189684389959595
31.0578566999747210	23.9245275946191462	30.4690724920642353
30.6439229403334394	20.8687098904844355	35.8003719497146236
30.7448244093121765	18.6983937117854389	33.2722043238149254
24.2514174811441805	18.4010831617608517	34.8412175245011966
28.7089415728016242	23.5843278410446544	31.6685822396355938
25.8166177643399131	22.3686065213598440	29.7338780133933938
22.7792293955804688	19.9998257873545704	30.9570270652693154
25.1323877152905624	23.0070786403033409	31.8329776305217109
23.2922100005217878	23.9936938291975075	32.1683803249127038
30.6438314015638440	23.5647962167519758	31.5481332573491997
23.8956893616359096	23.2898945881222836	33.7631743780162452
30.0435972073946509	24.1916689485784495	33.3809693722242926
26.8539157905358792	17.6498823366470496	37.9709826447247494
32.0648453327133964	21.7141150105820273	36.2840131970417445
31.7125682669308446	20.1199692844133082	34.8214904261523372
31.8869153662078055	19.0936460386862521	33.5300382558906662
36.9332775709935675	23.2610613539654416	29.0438924808959769
35.9400895324171827	21.0079774149081864	31.4650348654999767
31.6648342381381802	21.5282545404453813	33.9212365173034911
30.1972994880322219	25.5436925911543717	35.2919108417910365
34.1117734110285156	17.9111624817853965	35.5794528006063970
31.2367055447172888	22.4915746682035085	33.3970150112584250
31.7609288613398704	21.2975511756985227	35.1740398889895047
32.3621038790138442	19.0969690685793232	34.6696468189491682
31.5476421296081178	20.3313293744177699	33.5775140160808689
36.3463184199571145	20.7073649892610732	32.5317721946031639
35.9551171441972883	20.6477970294734732	34.8434749167929425
39.1430381744505809	20.2766609353725613	30.9502292276664797
42.6172729140520943	20.1441919661114532	36.1343840438794430
37.9914528840440084	20.4127176906334142	32.9373808165367237
42.0167370372435229	18.7661630807821354	33.3861146417770769
37.0996566640225325	20.6131456000505686	35.1883256621034448
42.1265488735373665	24.2589307641952630	34.1461455156177180
36.3587076965470430	20.6406631569759114	33.7208545823258774
41.5628663509324312	18.7883978960901565	32.3208179273310279
37.5765428271256354	20.5286854432789490	34.0511774715138316
37.2610941842330945	24.3693461495622579	29.3477382225074095
38.6844606069634054	20.1979569770681344	32.0240232621825527
42.3381299581370598	23.5211098038273789	33.2691392231120631
37.5142389170205561	20.7203307616763546	36.3498598574904364
41.6664226280994541	19.4926176697955498	35.7503079829029886
1.2421428266098666	27.6710241707582831	35.8431185073679046
3.2525582820753320	27.6239652634586115	34.5824265348578166
5.3493424457723213	25.7184891956642119	35.9118303451442742
0.5543868644668943	27.7483550180003533	34.0236311339324899
4.7772033679942947	29.3789067684345362	36.3351516525465925
1.8287868145642303	27.1808002653969893	32.8380080919049249
5.2151120028077962	27.6206400007984563	35.9114458780720227
1.7138534515536796	28.8010029716846212	35.9162276320890399
0.6111863572524732	27.2362931035725708	32.9203335221666222
2.2875215301352387	27.4856530136042245	33.9276225436754189
4.2380649550808638	27.6327406002511893	35.2368190855374550
5.9542782258028462	25.0731627719660644	35.0818501982638153
3.9381235413170055	29.6974867389818193	29.9488094465792649
7.3220958584930127	27.2724223378638619	36.1127665231242645
6.7352308068853759	26.0075711697691396	35.1031138115077113
8.9241689763367251	25.1471336823771452	29.4023027785841187
9.4344996346552872	31.6587760272372698	33.8229928839885901
12.6741664782702586	26.8926269436513508	34.7690345814734059
11.9274582091851578	26.8748560813880175	35.6812749369807705
9.3609064682076273	32.1566465717776069	34.9144643230531102
11.7402623992612689	30.9236017775943210	33.4147838999241600
13.4169450314827525	26.9694934116820697	33.8623874434047494
6.0389354532661716	26.7337672474119366	35.8970955538471870
7.8963894235134937	30.5879919409686067	31.7255370427510144
7.4400025924308864	28.0744624198588326	36.9832898924947031
15.7373184426876520	28.0994325261802196	32.1922284819852607
12.2431968551119077	31.2380536678251239	34.4182421772840570
14.1231358318862750	26.6704674096054859	32.9541564728885348
14.8572398051274721	24.5630942669157974	33.0948072009324505
16.6766846239641033	28.4891320011375804	36.7302063046846641
17.4483231021972429	29.4850136670027823	35.7245777691746085
14.9459141312983306	27.2295739910292980	32.1640507030533058
17.6109841656576087	30.3634695432223758	34.9367059688396182
17.1820284350354484	26.3845542317541337	34.4351455387933356
15.9944657043486949	25.5074192726601368	31.2153133057442211
16.7375951685686992	28.6527841506313585	32.3946171749492322
18.4777532210792330	29.8079291513895193	32.9224825820735134
14.4302812321718825	25.5530033308157520	32.5666882981557251
25.2173510265260639	25.3589491674770571	28.8784878087181838
17.8331003996194717	26.7248456621804245	33.4204787827354082
19.1743420854858719	30.5085455359011490	32.2705209171371976
24.1526797909527460	22.8849795988909186	34.8481339649617468
17.7751227892809780	28.7974993164393283	32.9607293049370256
23.7669873771461475	30.5509827559558182	34.5246963445959665
22.9372776000234708	23.9187352359457286	33.3815395377260131
17.3425419414122786	27.5452400903933849	34.7380110927012922
23.6694287014459377	28.4914716968387438	37.8260518175876044
23.2529229655310949	30.5484664066985907	35.5740328739884006
17.9680273389681204	27.8775650579308447	33.7248685328669993
28.8647381862663259	28.3141085309050169	35.5147680512549755
29.1209741210641511	23.9968612998835553	32.6675699809560882
29.2245865169383805	29.6356604007513944	30.8801372309659214
27.7181005048290849	30.3497778316858522	35.5137646357154111
26.4361429371305903	30.5583552201905206	32.5217735282609297
28.2754191233026688	29.3189326190778061	35.5543518954051407
28.1878341621178379	30.2357850044428886	31.0236830943698934
34.9745003849548297	28.3180057393279050	31.6428695317152417
36.4098839896321422	25.2250412627887002	37.5121509617479276
32.4418046441355088	31.6438795840883387	37.5186768447683292
36.7413662565576118	30.2271796636564396	38.9586960027033555
32.5718880499746177	25.3207804072789173	29.6850071058119234
30.1071173014447950	26.3373808684524313	36.1826225612045249
33.4415948590906922	29.9090680806057776	31.3621964544501743
36.8550376545670986	28.1278876970320937	32.9865871518657414
34.4326173158201883	29.3086612324548170	31.1119890259284375
35.8191990491591454	28.2184836016431895	32.4598639515428999
34.9351140412289283	27.6641701275649723	30.5817452824471516
29.4669974312474707	27.4417616943208493	36.0405193323943678
38.8931173870902640	27.2949806434523481	32.7046949013747081
42.2159574159541364	29.5366096748384237	34.2053414586058366
40.0993661749625048	30.0267676566002351	35.0959554944500596
40.5298397054655908	27.1250406178571772	33.1092858843807534
38.9891460968066568	28.6964046293192006	33.6151880793310980
42.4978049111256269	27.7231842381668905	32.7621765514228116
37.8147179546114032	25.3842765934602141	29.4767480075134607
42.9345516405472054	26.1241499606076921	35.1911261165017848
41.9780284848395340	30.9969229437943099	35.0123222499170339
40.3359194151841436	27.8970528720598274	31.7807284593800681
42.6151438616299316	28.5094283739465340	33.7319310145880351
41.3944357269291672	27.4728171393110578	32.3213465596505074
38.0131995314092919	28.0214037130289100	33.1668121999950358
42.4313984586929394	25.1370017503861085	34.8475474141757502
38.2421765755936320	26.4898843015148628	29.4391007509734841
39.6039558920217232	26.3843179490370652	33.0142702927650120
39.2451571921487385	29.4524015125895673	34.4868849130707247
39.8127136716920518	28.1555191032161041	32.8842396627948403
41.2438895662150458	30.0701646547938815	34.6918338920616520
0.2633786064550539	34.9995446859772628	34.8699321253403980
7.0263369902062385	33.5478415474227774	36.1820211780593510
0.8781473220652884	35.5768481209932332	32.9285071343098110
4.7570725946831836	35.8919706202965827	30.7844387475236871
42.9319832524378810	33.0944156465362980	35.9792265872142210
3.3752491736299417	36.5070088479491375	38.3689264865928195
4.0014361775926091	37.3520722337610351	34.7839980492135652
1.1387611873834924	30.5224411965181730	34.5053140622401955
3.1864765299931306	30.4514188930153828	35.1404343731900823
1.3724602983009022	34.1964272309506256	36.3567663412826860
6.0966042186977214	29.6054964391447513	30.6632290931106297
1.9870775657311461	30.5194781092014367	29.0126101348207577
2.2652761539447619	30.8036666610872700	34.5301514381273691
0.7380751076754491	36.2659878266417266	35.0362515675729682
5.7850318632110387	35.1767177569264433	30.5025218357281602
0.3925832247439042	33.1116279190610570	37.0714466894322570
42.0974686446751818	35.3358435679215148	35.1369922545520268
0.0546741368027452	35.0748289438544134	33.6021778753839300
4.1083997254183284	30.1398355099006032	35.7786254605273299
0.6267577266223852	33.9989686034184260	35.4243147971326735
42.9687113423269764	30.4977331293513778	34.4776223623686704
8.5227885192757338	31.1325431331121614	32.5552254081785861
6.8381635767929616	37.5204569350160639	36.7792298214262772
8.1458994005119916	32.3551838369237004	34.5945371222580889
6.3137544190000643	35.8958421175138511	31.3188618482512098
9.0356853981031087	32.6260371553608337	35.9454295631726879
7.1147406474919324	36.7806611362203171	31.5608824480548407
6.5444013551342977	34.2714742632765450	36.9576512340451089
11.7384348684989526	34.4425102414011519	30.6778574210569630
9.7292138337916665	31.0229088471171650	32.8495196414605601
8.2453941454543553	31.8539898889755442	33.5166967480044846
7.8939800502694046	32.9289449504165503	35.6622005117261622
8.9920303801231860	38.0778596218280043	31.5476665694758509
17.0601923303462755	33.4336905785300260	36.0872645969401376
15.8886574392367841	35.1317816124874085	35.6196738614330144
10.8384106033862935	30.6489352269036566	32.7357814050264011
12.4862241296648389	34.2046569063319836	31.5406710605412393
18.2042824050987200	30.4490564143928459	33.8921745165413526
18.4588180740138981	31.6263112166004632	33.9683864757187166
14.8895866807097637	35.6552122989707740	35.2021053411984610
12.1695959259701816	31.6668989277809452	35.4970017716397876
16.7227448314495426	34.3320378428384956	35.3065405939913788
17.6994421992722195	32.7585723341139783	35.2349802551338271
14.3296502249398010	35.6100583365602787	30.0863822758246791
13.5968840488855687	34.4662295644823899	31.7534524493137020
17.7259582099265707	31.5657061016324079	34.9828190429294636
25.2264287313078590	32.8922427530742851	33.6024344787028610
18.7467096075763777	32.7356757342814930	34.4050433456643319
17.4416536077000828	33.8013615285005855	34.5259312121876860
19.5253627797858265	33.7691432498045998	33.3875730289111274
23.2137908608565198	34.9638515061052573	36.9057328191620755
23.1436181387717355	30.4689361008856601	36.7262835131931098
21.4008553364479788	35.8890456619113962	38.0159181459417042
20.0252374541136078	32.2569594359668912	33.0782619715472421
24.9584010098386422	33.6039271025232225	36.1799538587564058
22.7355204722649908	36.2229682883016935	32.0413473953031982
23.6106399644122220	34.1731096195146407	32.5240645331822122
19.8435772275475877	31.4724753715954293	32.1588765827445471
24.5636865955781722	30.5463109103272288	33.6833043191329509
18.4103554077328404	33.8091341503895677	33.8440911069152151
23.1841420406845593	30.4988382279584940	37.9052389476333076
23.0130975042132171	35.1051699727348350	32.1523534952150030
19.9337129400926294	33.2812698303717411	32.3685310097798720
19.9277813524929002	32.8428204157142147	34.1257840642077355
28.0912904805270713	32.2227218301413316	35.9807371233117976
25.6381242988456144	30.9325789038417369	33.3252512705464525
27.3313693770264194	30.4924196458069474	31.7948300653486555
28.8472197779033266	33.6855486314365535	34.3846450267057335
28.1779135291027565	36.7584488804409446	30.2048927493514334
31.0855079640257728	33.9987306150183670	34.2890530027510678
29.7595725758957528	34.3902097849964505	31.5417457054819721
29.2441310647292489	34.8540177556531177	33.3033755238931093
29.9476220265285242	32.2548734881144341	30.7368989483925823
31.4182327074966565	30.4968104171423064	31.1598939146398344
28.9853171981516482	36.8568400537774963	31.0707790438154525
25.8911575583073876	31.9768469264230859	33.9148828102490327
24.3925903643605366	33.5185532125344707	33.0778609697118711
29.6581349232493068	35.3261445835199837	32.2630832087965729
25.6873118067511577	32.8797632387659817	35.6398909707159817
28.2173146911319890	34.3539224535608128	33.6111546236842074
30.9103250247807608	31.6406164158405900	31.1689698260928125
27.2910287702791585	31.4450911653649641	35.4621694134373726
24.1092527945568200	34.2804963090362946	36.6119751835905163
35.0436744557148501	35.5611789470188384	32.6445105872678738
37.0192404425223387	35.6492552430452037	33.7806444169816800
35.5843269200245231	30.3899761333235681	29.1943906519314638
33.2103646914224129	34.5884900992385056	33.6975052652953337
29.9661886728789923	34.1531709954908180	34.0045068954569913
28.7427006886707161	32.9217655414803900	35.2758339026419634
32.2177605795266189	34.0712219322415493	34.0297960674043338
32.4451052010959771	30.3137435754071127	31.7923216195864846
34.1692621158766840	35.0761395940977465	33.2658895688148419
32.2570280461923389	38.1584235640620122	32.3088714205029035
36.3523900216395788	35.6427705985659813	31.6899024672580083
42.5247975687908948	36.4258190089842486	35.3636803716121619
37.8143496126131211	34.1370496711287856	35.4033104440182740
39.8833699132426531	30.7834361569198300	37.2570993366405148
41.8764444988111961	35.0838715948374897	33.9813282955016618
40.1719081393458310	31.2037205639964448	29.3092693620016824
37.5689297958702042	35.7475900962780386	35.3233855471815232
40.8089255178318737	31.7717060341727233	36.3543985851203644
38.8139700840419195	32.3147611659918255	30.3425675225628879
41.1255328244833933	36.0893448161531722	32.1744708970692486
41.3157760583738707	36.1266934102510717	30.9926095007342361
37.5609835713423905	34.8243453987913725	34.4800499915289933
41.8057165162106372	31.9896167254757700	35.6934752475659991
40.1302857124698846	30.7775772838934678	36.0733227937576189
41.1476789254316415	35.7704625944724910	33.3279274516554480
37.7441385116016264	34.9740291780307615	36.2695138308103679
37.3232910513580975	35.1984204169165409	31.1873797653819977
37.1947900840304158	36.6078896551653727	34.5718816050652933
1.8491895148968012	36.5056973852697908	34.4855734890997070
5.5244753174640868	42.1138804935987991	34.5676348324607901
5.5924050711444311	39.4967896898129638	31.2089659839528650
6.2169281466204671	41.5400191779537593	36.7086143956295885
0.3775864668585883	36.9862392874546870	34.0720441443239110
5.9559756226646359	38.2214571800072278	35.6933312346004215
0.9220945335627988	39.3512733952827389	30.6590995456120510
2.1418225321116662	1.1433451052424601	32.5966044347056609
3.2240707957129722	39.1072391347765702	30.7779412637837204
5.3640995289309670	38.8672612147736771	38.5824185697953652
1.0904434992520966	42.8733980022367689	33.3743190030486119
0.4474624688565702	1.5242844397490423	33.8756846452375484
2.9384121277007353	36.8718520422658003	34.7195399772315767
5.3114473673537876	36.5443944383425219	31.6196254951891760
5.0200840407448890	37.8258613796124479	35.0991468013898213
5.7507928613290753	41.8835436381452197	35.6876019641726216
3.0300871547095767	0.3455031944519058	34.0588321266991656
5.7899602740324978	41.8574600510958774	33.4628566719899538
1.2728381120272638	36.6023749018357378	33.3664108440756095
5.8657813442273623	38.2767939617266180	36.9511656113397038
6.0426636405895842	41.3515411982812395	32.4507536983393265
9.8093674702449665	41.2326736537897460	31.0932422662972670
9.5368078536822622	39.0683711994834155	31.2891484257380341
5.8142108196935265	39.3798782457888308	37.5866410207009736
8.2648609416676422	38.0342600037857181	35.2447962407462541
6.0733676027466510	37.4726961673708203	31.6242487769266916
8.1969745525361795	37.2351512934898210	31.6153651769869555
9.9475243964705680	40.0497232792728184	30.7771816051679998
11.5547519250956139	38.8507912530959771	34.4046161240303903
9.3717174859284818	42.2799706140711606	31.4174484018857392
6.0419955567448209	40.4221363256026294	31.7475198001437811
5.9604906560585471	40.5473639912390240	37.4010802334337384
9.3833753872199406	38.1611505974333340	34.9299629198071244
7.1742861808879912	37.9802543417639384	35.6966563360943141
12.5966563439505901	39.3080846198423401	34.1613404158939105
16.0878113929769029	42.9825530228870605	30.7667775760603099
10.4977077034464337	38.4500783615748389	34.7168066126410437
15.7712189961213838	38.1972703780959790	38.1141346644732408
15.3609678412792423	41.5248616005179940	32.5780106437191108
18.1565031430442332	40.1279974564527322	36.2255445045206628
14.5476703628015080	35.7282206309567272	36.3357829415143101
10.3133679760434571	40.5068491066523393	29.7014802864615604
16.2272050443654763	40.3752877233260463	37.4468375894788039
14.2984633328964268	39.4010327315764073	32.7341059022473075
14.4981248467836572	42.9311234107701196	33.2863203916511310
14.2547409175672524	40.7936597610424627	33.5758457580957028
14.9062282341281094	40.3979677128664321	32.5741692298193115
13.5792362968347149	39.7427322477647422	33.6452773784218522
19.7482947562557030	42.4003118274250497	36.1370559528154232
23.6248879312785434	0.7513293624229764	31.8625999824382333
23.4730205757376496	38.1249492304387090	34.4188219223004381
22.6677035629805950	38.4568061899675584	32.3444914706850923
20.0595005663553394	39.6786284401460136	35.1117468334925888
20.2718278561833074	1.4872379374706375	36.9855645172887435
21.6724721129404791	39.0629013400370582	33.5479794006633583
22.8695681090037191	37.3582367827482855	31.7719770033644302
22.8764006131264708	0.3329036964238654	31.0083479689816741
19.2171925161539683	40.2073323793668820	35.7398800318768934
22.2278425863876379	40.2653904990360587	30.2996859621567225
23.2303290292341273	39.1032984372699843	31.3145990500422222
20.9249236226793087	39.3463943140450922	34.4190713017725685
22.6948986367823693	38.3645539796491803	33.5744829055428866
21.7587192202275155	39.3472479656924961	32.3706865090503086
24.3282446225560633	38.0256423151013934	35.1957077768468167
29.2906667211424185	42.1731516440152561	32.4276664594274138
31.1623204656331509	38.4312525729718359	32.7139577082647861
28.2465248933123974	42.7669171646715043	31.3698173973218744
26.8652460047611648	39.6314015383215406	36.6957117590203978
27.0453340568043394	41.4594354235251217	32.3937390741579136
25.2711884142843459	38.2452485574847856	35.8456999316770109
29.5477298205455625	37.9426638316834399	31.2648672325828514
23.4039009971508207	37.9721340330771895	30.8910637931869445
29.5157752678148881	41.7630001324746232	38.1075116300732120
29.7070400479579355	36.5279609233072478	32.0160222361129811
28.9656500537334693	39.7247821301270108	29.8744343364604674
26.1244407186237062	38.7531622191088729	36.4447710125484932
28.1305593636306774	41.9281389223310654	32.2841776091440167
25.9095066333351625	41.5350660962628027	32.5245704082174285
33.9461815061978172	42.7215780282569568	31.9088760526225776
35.5418709305379750	38.8363339378043264	32.7453442573289024
33.2494441437690753	40.1963242507646896	36.3158364809398577
33.1597130897511718	40.9455422528729187	31.2011202059111064
31.9451069288619109	39.9515756155867479	34.3653341560880321
34.3491123798581413	41.1841298879162920	30.1514558145168508
34.4452722994671916	38.7884903911530543	32.3622133460338759
31.3174783477780743	39.4527495671420922	33.4871917676457613
34.0004798117292424	41.8101406007028871	31.1415322507630918
32.5798349862019521	40.1880357232588423	35.3434099893894924
36.2328342870768978	35.7121456900894501	32.9088860202521047
30.2212124930873856	37.6427272898502139	32.2325607020258573
33.8550952015323432	40.0163850716475906	37.3101515475418424
0.3626731488093652	40.3787026709187344	30.9523940213400337
41.4403586918123779	36.9502214409356142	33.5594316769363061
36.8510550426485182	37.6502542559963445	34.1358546234944242
42.2727013612804612	40.7802560189782994	34.9777675853524954
41.8355549121446160	40.1267396896205852	35.8155046529054175
42.2502967059768650	37.1703902562688313	34.4154363089834447
41.5748363429247973	37.2532563691667846	32.3959988466481477
36.4084104102379129	38.4555287831832828	33.4313812249848326
5.8630877294509505	2.2632527984375232	38.3417305618424393
5.2900068613016318	4.5114644835954048	38.2583348718566185
42.2999159858986786	3.1205233506169185	41.5480416987303869
3.7007926056538967	6.0314989685770461	38.8855316877289070
0.7551647836471984	5.5376236364398421	37.9932842527678218
1.9958526817995101	6.6549013145148646	38.1515406799554526
3.1576068674984779	5.0607177748439112	40.9964204110176951
1.2941740724301962	3.8331783531769075	37.2383942671408050
1.2995461617406623	3.9415864862905443	41.5237826000176113
2.0254425443819462	5.3335120922118131	39.8768446887455994
5.4900757961378011	3.3645366783221387	38.2834105077527127
6.3024424921029931	1.1295690596658523	38.4085945902065831
4.2625729102081475	5.0950496765055266	38.2956062435640447
1.9800931408344538	4.6627885204906887	40.8859325075103399
1.5390806220794899	5.7661956761314617	38.8880508705542454
5.1117628673394266	42.2157762685148157	38.6765557907695623
0.4491931592030374	3.2063148375161914	41.8120712915801462
2.3808656079808519	3.8966296630369097	37.6439349554096836
8.8665494909559861	7.7052014251785694	40.5516708894970037
10.0699420132980304	4.6434298024172049	38.5653622201424469
11.5530135639187925	3.8810154578574854	38.2523580121823201
10.7821003918291467	4.0197095456743268	40.4787162327386696
7.4674805293980775	0.8901323058621550	38.6104950882509712
9.7651620905215051	3.1321051681872940	42.3116138995938442
12.2318705722669456	2.8047175098258394	38.2187510520736780
12.4393067508666686	4.4264404730199782	37.3923992734291204
10.8965444545182617	4.0904517679989985	39.3090952734355668
8.9707062507799460	3.8576981305549105	42.8781840889138195
8.4979569214234978	0.5098364632811553	38.9107780263166561
11.9831829345843524	0.4089534885694745	36.6971743468357516
10.1846270020419070	4.0064875347230773	41.4958960173231119
10.3358579224473157	2.1293154884315166	42.5511223922447783
7.9827126985484869	42.7347005558496278	0.8801430953858123
17.3970081664453282	0.2772592134685919	42.7220507749713292
16.6929346168363182	4.5928135514113126	41.6600174318458301
15.1418596341088190	5.7639498652658894	40.8907199857944690
12.9875735373894496	3.3369805988852663	37.4442874803504751
12.9541110202919967	4.4404885313065527	36.2494305537107806
17.2650029382793555	2.6088712343823239	42.8938682213950528
19.1099167405840014	3.4927252902894184	36.9749165622948155
13.4940885902895182	3.3591450912798573	36.3376641653138819
17.4007719298134838	42.5850043051112976	41.7601114186444349
18.9027061192479096	4.2017092859953618	36.1047215450891841
15.1252166759984323	6.4276034462244018	41.9383402599172328
17.4435892425658707	3.3175481185495825	0.9111644644542858
16.1993076026701566	5.2241762243575955	40.7940299426741504
16.9679822286228053	3.5335159922807011	42.1642309709929322
12.9368989607630684	0.7266664327508638	38.4518118940424714
16.7549868665281991	5.2575473283119685	42.7383631633330694
20.0795125690027341	2.6446968431070754	42.9607836976718573
20.0628877289088123	1.4131678202989124	1.0410827903229334
22.6209953862071096	5.3060099311852094	42.4274022417405092
22.9960884843695368	5.4875325764547158	37.7501969396573287
21.2869475425435830	4.3636061199451657	42.1289813485971933
22.2595521216208603	3.7347941887115566	38.7193211642812471
19.5856366830208728	2.4367093747907833	37.0142426127263704
19.1626776417058693	2.1538658749369302	0.5947418577830139
22.8349966053396933	3.1313580401091325	1.0772781948814760
20.3936010243790129	3.7753379137956711	42.6706366295101489
22.2369008971663895	6.4779265842439031	37.6935419729257504
24.0168360961465339	6.1102703911527181	37.5405712026697316
22.0504885336026568	4.9517764697622022	41.4455604832796922
20.9843033589588721	1.9700094250353422	0.4371079739443103
22.0296266259238642	2.7989973458975155	38.0961036947697167
22.3892311413316527	4.9124824271650622	38.6225763987074373
24.6574305514251364	4.6122829964445664	42.6143508171573160
26.2115176484583259	0.9444438051022720	0.3363507521632582
25.9042970520346039	2.7842091548939552	42.1150018662970069
26.1205175373595218	1.6911974473573230	42.4500946716877436
25.4473436203419183	3.8485878215362770	42.2400794192315416
29.9238951141229919	6.1053603343919773	41.9424454758895422
30.7417691040101921	4.9225890650338417	0.7383738785208509
30.3959356065993624	5.4109029370408646	42.7178660873218590
36.4887487327391824	42.5911395461108455	40.9279701742605297
36.1210019257718002	2.1322447954350188	37.9968539392923290
36.0682146898094231	2.9899988435921037	40.1926839408281964
35.2986503449664539	0.5129299525249255	37.9731816711499590
37.4908910252321732	3.1211873738806668	41.7178983484227004
35.8636080547226896	3.8191280165769830	36.2589467416037081
36.0488834359803576	3.0746668778904893	37.2221444544941420
36.5028575499520400	3.5621837019630824	41.1183502571310271
36.1186857775754717	2.2672928877499738	39.2700137145993153
37.2726741781059872	0.9276320629118345	41.3750128626248710
41.5672511593623426	3.6164252990079238	40.2286657050414647
39.7090211680654690	0.4051942983619670	39.2017635782502438
41.3726741169060404	1.4487624347316166	40.2458856325594923
42.4403481317328115	3.7647261892193220	38.1571973264384710
36.6678672530007006	1.1728867484214749	39.2854733830794700
40.9020057003371988	3.6966573248515582	38.0845066210675540
40.8563479461453625	4.8253601280232079	41.9388118399961130
41.8325205182878435	2.4611548723222811	40.6068235734134362
38.5158059193426894	1.3498407618716033	36.8017721539564775
1.0850876894884003	6.5208954243197716	37.3207108345903720
41.7668958747248809	3.0358466060064462	37.4486379261860947
41.5709379978937221	3.8989724219873856	35.6825260914065012
0.3877521662564966	4.3994893325373265	37.7650281205152609
40.3293934709484887	4.3737117198869058	37.3099066891407531
37.6805854314091775	1.9702477349247747	41.7031855208999787
41.6205995956649275	3.8641212312329767	39.0620573225386138
37.7748199832039120	4.1431330037648548	42.2905179017497090
41.6050218739403306	4.1014610980310220	41.3316729625247277
36.7924653593859361	0.5961641476461633	40.3188065457298137
2.8578256326616547	9.3717413852861391	39.8468864805735237
3.7655933395755392	8.0110949398910911	38.1623074897180246
2.2175133034624110	9.6473100139156855	40.7999362845470230
3.3136322421719986	8.8225106807811606	38.9286296278896060
3.2239871816077930	5.5632301860867184	39.8900881760511226
3.1596616102815327	6.9151562591446725	38.2588246601914932
0.7067111830404291	8.0262935765017289	35.7017958002671136
1.6985976600174428	8.3744292145962351	42.7451392727140203
4.7228658710393336	8.1953033201987715	37.4120898713341390
5.1595606405840737	12.9694100145270710	0.3583996299046478
0.9672381024457843	11.4946370197077101	40.6251856395389055
9.2058934305261051	6.1459686814474086	39.9789536416866795
6.7734327662096856	11.0917057897582421	37.2560986555533162
7.5570229521147656	9.8823836129207674	37.8527061684219177
9.0250155959746632	6.7196290719662493	42.2088792344531427
8.4971388058389064	6.2930906036431420	38.5586119607339484
9.1773310580520420	10.2044674239411073	41.4147201832312248
8.6922229894964289	9.8872267549301416	39.9068766693757127
8.2158524924879082	9.8225934284441365	38.8333233133642182
9.3678897185785956	6.6387233129030125	41.0437615647646012
9.2019944849761277	9.9228341461337841	42.5675024556869062
9.2802798001719680	5.4301869022168017	39.0173082304216479
8.8659607553905051	10.9613571475915599	40.5476617587749786
8.6716905715983117	7.8449485927005149	42.2905928131963122
8.5891352012911053	7.0875831413180039	39.4946706448669786
7.8705903023341071	10.6193560809971856	36.8970308473675530
11.2622925220959083	8.6488809374284621	42.6160164722874129
9.0752855548094313	9.1058969619479289	40.8324442553445977
16.2065605967285258	12.5889376230302954	39.5127828804240266
12.2104500458874998	8.0154945571499123	42.3942081053183983
16.3104219188900785	8.3259628020778553	42.1861624126189696
16.6486720640637458	7.3647585245294396	42.7890687796618607
17.5322840940722777	7.5387783426714838	37.8031440572689448
16.5818235915929186	9.4078315648968882	41.8338000364060605
14.0313389887112763	6.0276043619848156	40.5607185985910377
17.2714721346248794	11.6145579520614319	41.6069865887909600
13.1553526399870631	7.3759242032380703	42.1272516981586236
23.6699293220078104	11.0074352178514268	38.8737804724642118
21.3750584133939725	8.1266790563001940	39.7111023610916973
20.2848792051610012	9.1639100656148518	38.1498130284963395
22.9140630327027850	9.6063451112696843	40.1796024974371591
25.1885923329112487	6.2749894993105908	37.4163431070636889
21.8512510138280724	7.5639810313286642	38.1771043467813271
22.5142821737269188	9.1328685265744163	38.4337080405847544
23.3108670939369098	7.0954940552302199	37.4573674319027816
16.9174782507715484	10.5221929152601614	41.8178507709893736
24.3020171171601120	13.0334287007737935	39.4689922275023548
21.8166759090196045	5.9620979829401852	38.8269550143265860
21.3258255628808442	8.7444935920900200	38.5296303093996855
23.0864842089482991	9.9952948321075361	39.0642759867376199
19.1561104536748950	9.0749903935690330	37.9174779557471595
21.4523225834599103	7.0374856290706251	39.2261267359534003
22.0703127054035271	8.8330358427169759	40.3436627719986021
27.7892420262347954	7.1592975580602634	38.3884271099267309
29.4966440301021464	11.1607429094816535	41.1997637933462570
28.1075925664213067	8.5274231481704934	36.4687269011676705
28.5084124169225248	12.1834434957672624	42.5129830302975478
27.4807564365193322	14.0146066946254155	42.1936224211946325
24.1469829044435365	11.8648625239718584	39.4898693206291540
27.7963906023050313	7.8305568654031745	37.3727524832965585
26.6791223248344025	6.7609916262017977	38.3421040087421972
28.9966563534247221	11.1389559943192999	42.2574569452960702
36.0426472966964084	11.6182254400610816	37.9270318281207466
33.9028470012025736	10.5840229592689994	38.0093056311354900
32.5494403655514049	9.3976325048195548	42.1981366733980039
37.2800122173874442	9.3646335703129857	39.9315113289941479
34.0563306556457022	11.9352746350560981	37.2319691318728658
33.8958633182162785	7.9098076535262312	0.3184343161871437
31.6220565168540908	9.7502613533474953	42.8224277017189507
34.9001853594608562	11.3595731151589998	37.9043225778327724
36.7977676523793988	12.2884632724115939	37.2670728643513840
33.4990525491023377	10.9142139570118957	36.8495309111872871
36.8608514843424331	9.1148268229964735	38.8779959609148875
34.5607253098705414	6.9811245154263473	0.1280002504158379
1.3403708949350086	10.5023206140072016	41.1271919884283577
39.0005790120367095	9.4273790690821802	41.0501187456327514
40.2437965709100780	7.0025773373739169	41.7718173842646152
36.8827675662558150	8.2259698000131092	38.1223472457064076
38.2353726555532631	7.7677394918821818	41.1355673540970201
0.7789880436779746	12.5928505305813534	40.9866691111791113
37.3679347520896670	7.2907875321731073	37.6419776437564337
39.3439123807872946	7.6994994769134548	41.4896724831794756
39.3792772900506662	10.4983498019399590	40.8257906062581597
37.9708150508614040	8.8585614683684142	40.7459139878279970
40.8264974378298717	6.0158585524921202	41.9092010026506543
39.3126986413314370	12.0671365140559388	42.1397173974958505
2.8736982143194640	13.2885520825313659	35.6675228039202352
2.6076422014806497	12.8344581022010225	37.2141058433370944
4.1307598506034520	15.1275613838038048	42.0980290117544556
4.4784387421112344	17.1535570106418511	41.6653216932330110
2.2320596644857122	14.1802924993729427	42.0148270396970531
6.8064333260651821	13.4308760462654426	37.4994745892105712
3.7997767362883734	16.1956097598347810	41.7384772371654620
1.5858596519447503	13.3488689358727601	41.4534689900167592
3.3410131471619717	14.2361595531859795	42.4294457017965172
5.2765189349021462	17.9698191659243385	41.7697100918115609
2.2416101647858326	12.3525487408160934	36.1644867702993338
1.3375853709850734	15.0357670723540906	42.0247255571737099
42.7973186201233915	13.3522127550456471	41.1367594804966714
12.6744627374174605	14.5644787779249754	38.3275290976905652
8.7177988059079254	12.1288764334334562	40.6218625000249673
9.2178819782386281	16.3053247323043848	37.6348086469876009
7.7603569115864381	13.5527655389734996	42.0765032905716652
11.3012132666326721	14.8939718312281357	41.9235556133882739
7.0287050247593514	15.7438889126715296	37.1583719199664628
9.1726284142508430	14.1230795133900688	41.6231419415730102
10.2734568618609980	15.8991562725191429	37.9124445939357813
6.8242245547342755	14.5964453713578468	37.4044276633017176
6.8479920708454829	13.0974393439627796	42.6913475645183880
8.5526098351846809	13.1023506159902112	41.2585070374099558
10.3314238478780958	14.3019619494352952	41.6889786576630073
6.7026192312395558	12.2714208463091605	37.4002547654130169
8.5346449655941825	16.6872144452517865	42.6290064405095066
11.8701685462867754	14.4444786056130816	37.4635250533323827
8.0864988235685527	16.3400756372511786	37.3506790277689191
8.2757691821635166	14.6164535388341328	42.2701557370700414
17.9382978283550365	15.3563483314615059	38.0795476678131593
12.0700486581075346	15.7391772357767614	40.1445044096975820
11.2612305954643848	15.3126558792554821	38.1219277849974532
17.8195778324668055	14.6683848734762226	42.7578056647084779
15.9950230580333432	13.2506973798957048	38.6012745136709299
12.0849815504230520	15.4551834220492950	41.2654200748857463
17.7319414733307354	13.6116335794140451	42.2879544387708677
16.8242839357553429	15.0453828753547878	37.9238209581271732
19.0094404488068704	17.3069998702194887	36.3103621135553922
12.1113910592951175	15.3327389714736135	39.0378550234898114
20.3739117096430498	14.1102532703183901	39.5937630458749013
17.9648894783437498	12.4574470656085108	42.0984033248259877
23.6147011274424088	13.2284164605255707	37.3818085977368568
21.7013856413803659	12.9679691590287351	36.5152895153258541
22.8377162065540276	16.2267265317657916	38.0643751823198357
19.8571586084814378	12.0188786346384902	0.2052095976287409
24.1735851641717581	14.6249600521144867	39.0859982216410842
18.6116894530431196	16.8225783390250498	42.9642342524248804
20.4873314088231417	14.5711449381585183	37.3262165923338500
19.8015102711609003	12.9126559722867960	41.4897036514392639
18.5021702064483655	15.7427623059745834	37.1341418735866284
19.1046587887419257	17.8032852662293557	0.2876398663747471
22.7053870810918710	12.5938827764942989	36.9728706581781950
22.5235266742466997	15.5107343765845389	37.0699349236114415
20.3554060883767320	14.4566068660805129	38.4856344713294405
23.7643447316871352	15.5259509132359668	38.4059841661121837
21.8988601479951903	16.9621588795957159	37.9294062308562161
20.1860204697089713	13.5323935467502618	40.5856420232263986
19.9597096504039619	17.0998562797663887	37.8442708408546551
22.4562146858254508	20.0588438485718186	37.5841323680172437
24.1355124115439281	14.1121677306151785	36.7073182383434542
23.8139942123178834	13.6002234635553574	38.5092385363370155
20.8883471954577473	13.8130996358160498	36.4765944318754265
20.5131306852045476	15.6077722228435167	36.6322590342985777
27.4886827877915145	16.6342337753783163	38.1838963349024425
28.3054434100409651	15.5091698626725698	37.3469557812986466
29.4897057924541919	15.2126034802963037	39.5989734677253651
25.6281597155899696	14.1929396186387464	40.8049735078506401
30.5728562789911749	18.7354073302530999	39.7084368810208588
28.3254768229229761	13.2040943982357266	41.8903633897179972
30.9364707494528304	15.0773816742111748	0.2333190503166113
27.7379181135060620	14.3858161673464817	0.3505827541008136
28.3912964967423882	15.8748399926794530	38.4901145845581922
30.6834441040781378	15.4523455609269700	39.8006227064070828
24.7995031022663319	14.0442276583605423	39.9775947854979563
28.7965675198390301	12.4673257389193175	0.6611267546602544
26.4859533178494040	14.2113943159287821	41.5855342766289056
27.0862439624471953	16.5320344393219045	0.8504228403549169
27.2641216082346425	16.1613219795205261	37.0284877016657745
29.5332756069748008	12.1971557347619708	40.6602454107826006
29.4541904271669175	14.2742138964143397	40.3805120448266663
31.4304569529575240	14.2490867331302606	42.5669960799013225
30.6564623391164766	14.4752333218850868	40.5478246425117206
32.1291421548101184	13.1087405864252933	41.6805855641012286
31.9348363772047890	17.9227693155272689	39.2816882175426372
33.4692547745847477	15.1363631607377265	38.2478939367854522
31.3039759781099072	16.4711213819905034	39.7381682035810755
29.0404523275131297	13.2577605394479825	40.8929322959508639
33.5891572052080107	16.5284648549809070	39.7530727176876866
31.7830866526764595	13.5139954921539900	36.5453985973147937
33.3994822011153261	10.2139186373927995	38.9857140330657757
34.0507235736146185	15.7097603162468786	39.0734613065454610
32.4739470069814402	16.8917777532310787	39.6221329471741512
31.4330731891276010	14.0204676287457843	41.3471224957818322
32.1010962020497388	13.2452522543818958	42.8645795020663769
30.7884813788954759	17.5577478278832260	39.6083113821593358
32.5375937295688757	14.7555597652628734	37.6345334243397076
35.0019647257794020	17.3345990729285120	1.3716816892334933
39.8332891572774983	11.5739311634291351	41.1682017643846763
41.7427457001170268	12.8399557344397746	40.9439431627563764
39.1908334959796960	14.5321802034131213	35.9538903476328144
0.7877087013868983	18.6636677616196778	40.6806563038981182
38.3184126421698181	14.2341377592909808	36.6929477588618056
40.8043760786516216	12.1859581726728496	40.7681869572389530
0.9158472162996142	18.8767328961474163	39.5452546528127655
42.4679477002208472	21.9532641723613189	39.8817572148215334
41.8769586681131045	22.0501909798435136	41.4112423481913723
5.4103922067531087	23.4172968648640243	40.0903568830975985
0.7743488045735206	24.3083829468562023	41.9799099107608313
4.4294873332032676	24.0253275633002090	38.0810382268129999
1.1928607926541290	18.9761502282856007	38.4230358420269695
3.9135837819433155	21.0725571437712560	1.3814811537718208
5.6521570910978580	22.3469510865617913	1.0787508194636772
5.0378463480705733	23.9821954711987466	39.1376245187347394
10.7332188687353121	23.3469228550243599	42.2297230175463980
8.5623006871068252	17.6865739347456667	42.0427094481315891
5.7764675777867254	17.0427578036585494	35.6318626495308237
9.6377208271162313	19.5230766488241763	41.1140019264378509
5.8292225484654239	23.9772879399716068	41.0169579475779571
10.8554564680855883	21.4649995328300847	40.9810606441419694
10.3308416389586242	20.4300120898212363	40.8909309266025929
11.0369059090610495	22.4912586664726497	41.5000926082749473
9.0691808666243645	18.6709576364259711	41.6633604599568343
9.3264503663265490	25.5320009723717511	1.2638974695355960
16.4688620165327357	21.4616468332532619	39.9085239353887218
16.2651162179194415	23.4715321673857211	40.8942256252988159
15.0874214281605656	18.9984839102362670	36.2786529951193373
15.7895587585624604	20.3610811971913677	38.0003039801022311
16.2429283279574257	20.8201083099115500	38.9672748742394148
17.7319298741017484	23.5700043522275777	42.8893101558297545
10.2438332919450303	23.9760636205807458	0.0778659168064355
16.4728181665517113	22.3506588385846605	40.6572579378459054
16.2282264055082024	24.6078496750024946	40.6471970347738747
18.1909931962122080	21.9357099979691590	0.6203058381111121
23.2677904672992923	20.9227371586328914	37.9067210980707756
22.5423849264069993	23.3373929046149975	41.2432389564940109
19.6795461209443872	25.8773736199404105	40.5061824639026753
21.7538525077627547	19.2539966430763272	36.9583692611815167
24.7825558150376892	22.9570159057610681	41.0391732386445369
18.6333772037713779	24.3859844116162634	42.7822774547286784
23.1672492024077989	18.8120667170101186	42.1913566793324577
18.6810087232882971	22.7684777694649334	42.8441365943770904
24.0048092499517551	20.7321928817823995	36.9136884623351591
23.7980603079488624	19.7747082816268680	41.8686702498657937
21.4983349974785618	23.7289503494650980	41.5558969365263025
23.8229024645907721	21.9777687620895392	38.2143264759596661
20.7924443273114399	18.5829349908724204	37.2260668102759169
23.6175207536039160	23.0704427436567734	40.8818819999792353
31.9799991872086480	22.1983542776803446	39.7499653536384940
26.6510971535054217	18.7133403483628555	38.4263050430601467
26.9645030065487674	20.2338118975361958	40.1407307890720375
26.1007743389312523	21.2892695773624965	41.9217596315560854
24.2847696274468454	22.4610820700874427	39.2016850854155834
26.2452370595382263	23.4690256761223850	42.2296601269064240
26.7823445725638578	19.5284302442849089	39.2389324560166557
25.7185419745293018	22.4567466900535386	41.6943705592618841
25.2249018863219803	22.5908016328936263	39.9185742356614099
30.2210752432006480	19.8383551056817602	39.9488745184660132
24.2136663877651550	22.5742482562920372	35.9723160613371817
25.8622994155030881	20.3557621545623917	42.6341614425529656
30.4709421164411651	19.9971877930268391	35.0027115266018072
25.3443334602216055	24.3767089866118134	42.1033778450370590
24.9404269235265090	18.9881263001051224	0.4433412728714227
27.3999975160716644	23.5198868898409685	41.8563356060402327
26.6466223348366071	21.1354467805721065	40.8255334207653391
31.7212212017885697	21.4145061438232496	37.8675657353798769
36.8477420709123678	20.8828974548960247	37.3620817378155081
31.2378658917940477	20.2065275952193453	39.4218891761602279
32.5896473233806958	23.8969797248424065	41.2160535771840273
36.9481038006385489	21.4164465370157160	39.6364331618239376
36.4884978648055380	21.9054564526665132	41.7867604154958627
31.7164713649827199	19.0928606548419175	39.2473448825023752
36.8147579881538647	21.1218784343817561	38.5090293151332830
31.6208648685205382	21.2981187021311591	39.0692839820863682
35.6347124932556341	21.6750679774137360	42.5401945486519466
32.1486937037606850	23.0532868638553339	40.5288210495367878
32.8110884211318279	20.0089081097948878	2.5614887949895384
32.9728386802593434	24.7064781948369294	41.9591835165157505
31.0444081925257116	21.1970785415053236	36.8646427033743436
32.6307241673835478	21.9394582717645719	37.2950074850074884
37.1327042931460767	21.8040036090210734	40.7879131252002196
38.7033923654665486	20.6834127914906638	36.3918076160109294
40.4476450085427075	21.3597375958550977	40.9894326429227789
42.4140079351993862	21.5549336008078534	37.7050235778195102
1.0411187400787947	18.1459658380406594	41.6860769625294623
38.9519477846329139	24.0485898446199435	42.2329219988013165
39.8862946032030052	22.5544339941987992	41.9350205010918415
38.2251131868120595	22.2097088550156094	41.2324311651993440
41.0094282520760771	20.3553524506741255	36.3381211451173272
42.8482317889046769	22.5590740255381057	40.9045259247280555
40.1026430469463691	23.7275525845860180	41.8984808058063933
39.3344777805656847	21.8007911603246747	41.0736242229905315
42.7698849981237998	21.9158881228384566	38.7455047202002163
40.8865353582925124	21.8609749876768049	42.0547504379582193
41.9955069792089688	20.9698645138916575	36.7776161604041718
41.4771308401487957	21.4661366607803288	40.3885398773489186
39.5317505785275713	25.9401857008698862	38.7293110534487610
39.8545364720509738	20.5358559440813515	36.4484315106253405
5.9421803080536950	25.7371301477061358	39.9720802175938559
0.4587384454979154	23.5256870585035536	41.1801587499145612
1.8664603447771169	28.4592339646208288	37.0397592718385695
0.6199809941098808	25.0901715102260070	42.8298656514760978
4.9550774974892686	25.1608852320231549	37.9681234508552734
5.1779104887622722	30.1954890407830767	42.5828017033429731
4.6730660863210831	25.2625371562415424	36.7830161587556717
1.3105252792459470	28.2692457072896168	42.2049886610898710
5.4248187206974725	25.1954379201696241	39.0509228435905555
1.5182464726571765	27.3417302544207672	36.9711210739275344
3.5904420959490575	28.5874847689899561	42.0714738997063264
6.8891896358280418	26.4798958009131802	40.1091999662637591
42.8030014407024098	29.4063380465630750	41.4044471968131234
6.0459687546128738	25.1297215276052306	41.0231213002659842
5.4556185003710240	28.4948327879017533	36.7151029388547556
0.1181405897589335	29.6708722425126084	0.3177075179500005
7.3258045888720904	27.2375860832691892	39.2787132209857432
8.8281263288962126	30.1353835535926287	39.4690975354102775
10.1170647040007822	27.7471399068719613	42.9071733991162674
9.5106552477784696	26.7147182912661698	1.0302094792492111
6.9862684283976790	25.9005601536916643	41.1929143609904997
11.1137624956832628	26.8396800702531273	36.5232188515414435
6.3594623965983708	28.2756255865892818	37.5093597540281110
8.7535843555407293	25.8209643253770409	42.6528586350314995
9.3311443487045906	27.0600413108379598	37.9985949724080569
7.8635635076916168	28.3825140322224989	38.2202858315991207
8.4071227230460881	29.3617073802028798	38.6973386929039691
6.7011680590752034	28.0687565139562629	38.6432812949554361
10.3215169921558410	26.9320484997591443	37.3811099470045036
9.5100556356518879	26.7141528610624590	42.7985887936221729
8.3875332679143053	27.3090869735292898	38.6584794250961750
11.8894364554231036	32.0087183216274838	36.5697098502786133
13.6139279549257370	32.1637951821789585	41.9380897743679810
11.6011604739700900	32.4868429263397545	40.9647112131410509
18.6898660291706378	28.4649477403689453	42.2018024702078307
17.9262707396620229	27.3866524255209818	41.1893433284426322
16.6930290210336381	25.6499419738129824	40.4157464055226754
11.4991775617895602	27.5978057386771631	41.2156703390071542
17.0295472291003094	29.3213545945996970	38.0747135635655809
17.2804497925851166	29.5779188476505652	36.8980708263280590
17.5406290497420052	26.4276369162561267	40.6164156281109214
16.3302670343025262	28.3570065474034863	37.8366480695460083
18.4870936210758536	27.2464946784847157	42.2524478612006362
11.0019217939123415	28.0010502474860381	42.1617429909677881
17.0578012552061153	28.3378394321745297	35.5814914531487503
18.9050184738359697	29.9211841778854364	0.8229839012581002
23.0054140029170071	26.6631338710859147	41.9629164999233737
23.0247924253420209	27.5270434975134251	37.8025092961716496
20.3992802323651112	24.0790204924517930	41.8494143440149600
21.2384097597183832	25.6216333174574906	40.8886863918562895
21.3229343386496168	26.6018333023024987	39.0095356012352710
17.9683034301677012	29.2604041236363130	40.1341048206148514
22.7634674518996114	30.1437793352279222	40.5454278183429579
22.1161143752582241	26.9432145473378526	38.2351589862739516
18.1860789731645838	28.5629877680652164	41.0561852420601952
22.2467940440829963	26.0797454065122665	41.2835720330584763
20.1676453075187965	25.1482230713726480	41.3070167664096175
20.6730930293194426	26.1814446419109217	39.8973644930289097
22.3194742417360708	31.2128799823342788	40.0039864109288601
29.6838091696105977	27.5567415815669428	37.2089599679805545
24.7419327537970801	27.4936478315501027	42.5476128347453511
28.5228853110066609	23.7162000674998552	41.7658740713910959
24.7178848476588726	25.4080472091627492	42.3193660734071173
29.8193140055981658	28.2511246877408304	39.4593752712724637
30.5500651301514630	28.4697893572568681	0.1104330686522228
30.4212549790897384	26.9294709119635201	38.5627703436186238
23.6716769170563452	29.4835876184102155	38.4498953279288003
26.1641510819609131	22.2017943963563944	40.5515506028047525
23.4394631436511922	29.8331448458548039	39.5829835177958316
29.6968264360793164	27.9853407072938793	38.3113735714937320
24.2108138130109651	26.5042570243525617	42.1636961449434367
32.7686705790298092	30.3532053536720348	39.3523253919892468
34.6504059335161330	26.6560655877602173	41.9215265853736412
30.6162918166155045	27.7707570313762702	40.8269680412973273
38.0670255850005006	28.4018306901078503	38.5178107058566894
30.5297916719827853	27.2364400670146090	39.7410678159067601
34.2144488341053901	30.4452738057919596	1.4604474502582552
34.5304759538578878	25.8157694516609553	42.7610681447499204
30.3226164160372562	26.5290307535578975	37.4016491029937939
33.6624278857461192	30.2605297616858699	40.0837735903335783
30.7154741417319777	28.0938331356564426	41.9834931184240645
35.8203535710031105	26.2012606345858288	37.7973547448800602
35.7532780056745452	30.6532000294314670	39.3970959621025187
29.8937152940608186	28.7776333017582076	40.5276226086097466
37.5004589147866554	25.5384107064676051	37.8583472625175190
40.2811575845527798	25.6747362355494140	39.5794174093463340
40.5140831227839513	29.4824204787563602	39.0241156956243103
36.8899975647406464	26.6223348309616163	38.1074802172779599
38.4759330410437457	26.1580115370759572	38.2614744125954118
40.1760568808647989	24.9195715105099254	41.5774538739145569
42.0196176654102800	28.9211039165262065	40.6776382300795660
39.1143930723156927	25.2202740583185374	42.0866188658512144
41.2162261726734016	29.0708983454055954	39.8557024063929575
35.4640535112734199	27.3231213765634351	42.4520114405321181
37.4978031162145626	29.4037782826888971	38.6573961369179031
40.7079826137607697	25.3744920375665473	40.6174623311738117
36.3547643166991961	26.8714915635754465	0.9796663666774020
37.8756872895213306	27.2537197236828952	38.3661884976384968
5.7927165796903957	34.2148137785869082	41.8260432466464209
1.5926738111942400	36.1192544068940435	39.6069220873482237
4.7188837501053076	37.2464303087818038	39.6443010741364006
42.6771482958297739	30.0718884789108891	1.4077672177151928
5.2997026881663842	35.6433674581864608	41.1426910173618126
5.8662950146245141	35.3004567814898920	39.6674052086629203
3.4083247881009435	33.4926361224739040	37.2365614970099514
1.1730650532448736	35.8235639758657882	38.0806331976304620
1.1024660790205112	35.5029490763408120	41.6016962182134833
0.2836191756089170	30.4645170018742668	41.6152282078304765
1.1874118868131665	33.7574369816413125	37.6671396420942273
5.5831400844569901	34.1573788139108458	37.7446793697400125
2.2636949691061248	33.6220773257361145	37.0180810291568321
0.5378748702860431	36.1074701262923270	39.0454428003703953
4.5304747723904839	33.7174838587483805	37.4513473816807121
2.2814468169698774	36.1607708633312228	38.5603100683510505
1.8073996739525147	35.7953215427305693	40.7208268812289447
5.2268173592618119	36.2664692372119859	40.1155869666786344
3.5136832996471314	35.5146500266539888	0.8989561359958207
4.3702978006506443	37.1441406306617736	38.4589856034560924
10.8249249330583766	36.5357934889675278	38.8974248921059527
6.6504651102434691	35.3482503721440082	37.5681369097935516
10.2202692521013159	31.6904086265164935	40.5705330998098930
11.2353543641908598	32.3305580849856469	38.7231893281565789
10.1537510046683419	36.7329099622791446	42.5196413694454520
11.1020191086726463	32.2371063538128908	39.8831371131315251
9.4769068485834076	30.9029273502495734	40.0842801562216025
6.0322010868557419	33.3625833445436868	42.6472499139376282
11.7598076993648295	36.2945139625342961	38.2296750191257360
10.5546065448533213	37.5341779090724259	0.3351833882546028
5.9750423747071961	35.0077748806814384	38.5202286826635500
10.0752744257220499	33.7887047944779582	42.8427221486249152
10.6498167995991686	32.1292878791769994	41.6495567184120858
11.3527923599329394	32.3012141223583527	37.5637824410882146
6.0152780474237932	34.7301457023558910	40.7343004872114776
14.8469944709656563	33.7860681999041219	42.8601663650487978
16.7179472970530654	30.4983723644859026	1.1006154216517272
13.6190081047625782	33.5249059621867502	41.1103819083004680
16.0316484274899587	34.4914960214207227	37.6311909176918036
14.8541908068052617	34.6109890257511879	39.5420876433986095
15.1697525156945012	35.9366769662468855	37.8583904686855419
14.0272242248706576	34.1281488737026777	40.1956785569363007
12.7565968594241106	32.6182469762328964	41.2517717396971406
15.6246815618002923	35.3237058511118249	36.8167520035409197
14.3285449258761197	33.0959852604808376	42.0361941415873446
13.9021956959014119	35.9295331377398099	37.3319257111286475
15.4394132290329011	34.9590942718213640	38.5931372726724291
16.6673392132043539	33.6038906457404281	37.1810101220249649
17.5887658578908415	29.5707516300413182	39.0886465115635886
23.9195213568067224	33.2453772039603450	42.3019196892787406
21.1121933775112005	34.3700934086386169	39.4435158580957506
20.3419148997850208	36.3845791951209492	39.5423264170386588
21.6663063472687085	32.1938067999005497	40.0451907736828616
19.9674890824928610	36.2504441692921233	41.7728154392920601
20.9074369928893020	35.4505239671117067	39.0068725703329591
22.5959623591087748	29.4817983151156753	41.5158550195134168
20.5996970387835390	36.7369753673472914	42.7489053090487303
22.2984997624563377	35.5215176105844037	37.3720630204767588
20.4431489746987722	36.5698981878907290	40.7265773445981978
21.4295146663478135	33.3155768650425017	39.8276132402547987
24.9870344717443373	33.4975636307711824	41.8968895709890390
22.9443004020856876	30.8076826193136135	39.0457299688243324
26.3542511542706812	32.0905041135630853	35.0300008283777302
27.6095125211108261	37.5915980608519078	40.1962685341347168
30.0115070185449859	29.1126543493799694	41.6784741629326234
27.1260206577698639	34.9650703247064669	0.1813714231075678
27.6280751128169371	33.0918709475097046	40.0313311967056862
29.6047464790819461	33.4633474509491080	39.6396806131296486
26.9015732934121914	37.0189658516963860	42.3842379506372993
26.2054511645011416	33.6371161363661670	41.7864861262258458
28.4802309586348947	32.5393383847264985	38.1880070678702737
26.8884487777005141	33.3304334773436750	40.8766431573371349
26.6032011864453395	36.0062700205410309	42.8940780725227171
28.2687480978825540	32.0819049993474366	37.1562435647476832
28.5523675167435655	33.0000356940284689	39.2879352955599188
33.5778146153613619	34.2871508411379295	40.8946171394394256
34.7923138578054250	30.5383078776851526	40.0374219754262555
38.4222359736985126	36.7720791935462898	38.8727941921005140
31.6832720322390706	34.4277308301866967	39.5742811761347753
34.5700927449908235	33.8361857068491005	41.3024246887626063
32.9710838058360096	37.0928091349765197	38.1929934648238429
37.9028002723155453	35.8821512945687147	38.3286299911221349
32.5744113386533272	34.5059178815305003	40.3611996672906912
30.7157663940009691	33.7176388676284233	39.6577585923250808
31.8321883271432107	35.1055629489206638	38.5879083736526809
32.4505546332418433	30.8502110262213947	38.3441765049876722
39.3347424201131659	36.7451147374841156	42.6747139540019731
37.7455875669714516	35.1690694041030767	37.4370873221306724
37.2592772583912861	32.8749156275002150	42.0262175131683051
38.6373253881253689	33.1578093581474675	40.3325101808218847
39.8752493380115709	32.4000200505319071	38.4903592417699443
39.2336055822083623	32.8508445163367924	39.3631903097128415
37.9401209814851370	33.4388947813710757	41.2338101361277864
0.9530478523221235	31.1056222577002082	42.3116405484606020
40.2153101884984210	31.9780185717708534	37.4364443663401616
36.1379064028628676	32.9745207994038196	42.7367988066296647
37.5029403598517987	31.7971539661641884	42.4668755407344349
0.3587990797853171	35.2787432525861604	42.4749259248334639
41.5953629090730317	34.9820923033548965	0.9433552848929438
39.9649619464287795	30.0994674022312196	38.2076231557889443
38.0772452111009727	36.5014947522520856	42.9732131745098513
1.0717749325449202	34.9353429302878951	37.2936769937851267
38.0070575007782026	35.1138515864403900	1.1835952809506629
6.0609636623106971	40.4243872314562651	39.9666204652446027
2.3456287625786425	38.6660329465845507	42.9587705359944110
5.0913033313124982	39.1862270770747472	39.7316796812181821
6.6329861842956497	38.5806543240554305	41.1655985071961013
42.8547010037091525	40.0533191821248948	40.5386148599329559
5.1419911248688486	37.8937114103780104	37.9006220684233526
4.4339848032889533	41.4851788207427887	39.3121628902032327
42.9252521069027324	41.5633319481919372	38.8014595453639188
3.8400483555929039	38.4332022063538616	41.2588881067606437
6.6370143461565707	42.2413571905374141	37.6511316521093065
4.8806190354425851	40.4616558689595678	39.6689361453514380
6.1293105632771736	39.3350882055266595	40.4438528390015151
2.9161431429627402	38.5871301309959520	41.9390486504607267
4.4667664144891539	38.2533884345174897	40.2697388440028519
9.2857983427437762	36.9529341346833036	40.5813828410752890
8.3734727521048296	37.6474681726868283	42.3077816790064958
11.6375954924392904	36.9770043270735229	0.1050720852245515
9.0346574836370248	42.6676070087980506	0.3743494913884061
8.5961437080874550	0.2170941775832423	1.8191744458927048
7.7602493672561321	41.2857532720979563	38.5707788041564825
9.2259105694712975	42.6013898877967563	38.7897308441912472
5.9658241389635434	41.3881105562334213	38.3003657495637313
7.5151376549985631	37.9376029545228519	41.5449410758280422
6.7359519459262476	41.0729024252076726	39.1834630776489306
9.9353504332113936	36.7547016693924675	39.6271250385043103
8.8750674200953412	41.5340519726814819	38.5856421567373076
9.2769921917593923	37.0024984329450248	41.7630008226510725
6.9164150468608403	36.4382493406135239	37.2111223678961593
12.8344650959107298	36.0995883764829628	37.8018120674245210
17.5162485637655045	41.8236980112290553	40.8958815500777106
14.5617860828065577	37.7854126499171201	1.7149088289926964
14.7639414543529455	42.2052770478322472	37.3146388718891160
12.3701713241780560	1.7194534507321770	38.6550065070660338
16.6529830568869954	41.6573786344593557	36.5297353301893395
12.9190824073667105	0.1881527672438921	37.3971992348153179
15.6749863673752756	41.4618714846024687	37.2342162867691329
15.5003297538728759	37.0709303976358910	38.0589273715631009
17.2312124648269283	40.6144477276762998	36.7525147098532017
13.9908582446599397	42.9480127167386954	36.8297257447543842
20.2162509080224666	37.3915978478212523	38.9218520519224569
16.0750669239081994	39.3161076772459666	37.9378686316605140
17.8834697609537407	40.9877684234834589	40.1593375410390721
23.3450436595957207	41.6231008232785697	0.8423637948945466
23.1328383996161691	38.0624293931204605	41.6714531571496281
19.9424117979532802	38.4049087404713489	39.4625790692072798
18.2293768722165481	40.0586501587796917	39.5522803764736253
23.8653263086856633	41.8976716442237134	41.5940703421945557
21.0727781482115972	37.5830557843667279	40.9430611055175149
21.7263384880026358	37.1560791689840357	42.7466475592487143
19.9369229289952052	39.5812164695233122	40.5943181814999150
20.5771236380442026	38.5945995114383038	40.5226453189000821
19.2243717905236799	39.4212797960275267	39.6432621092256738
22.0464061945105527	37.6017263132641588	41.6459428542187737
27.2500458675150767	38.5428592177276812	41.8953840630397423
27.8836696412525136	38.4127699837423009	38.0705465665942810
30.7311315891519357	41.5998966654048274	40.3722116253156784
28.1142587963866575	40.5465298357448418	37.1798303167044111
25.3586893441535395	41.5766816336807778	39.9333415867428911
27.5523082085337911	41.9453718861051073	36.4335596075180490
27.1171348629899605	40.3110107418629369	40.4342192821183986
27.0089529395053880	42.8156084296623760	35.8312581234719048
27.8531908914411375	39.4020533047591996	37.4348976746630626
27.8105077558564666	37.8278269835082170	39.0740012597827473
27.2692219535273672	37.4580462965306253	41.3095291842270314
28.6520187963511681	41.6198285625159272	37.2628919356535633
24.4121674045370582	41.8053660850512756	40.5713423650121641
26.9571097374819040	38.1054625875524309	42.9913636597946009
27.3972218951915600	39.4396460379812055	41.1461131436631575
26.3852665835288178	41.0321646627048935	39.8910870427904030
27.1493366926715503	40.8001694661183123	36.4935479526472335
35.3598307092703763	41.6583653912441605	39.3622042238492398
32.3934998446285292	36.0959529380282262	38.3971468072357922
33.5780071046146489	38.0722638352513556	38.3240743229244387
34.4283380060675697	39.9604930251477910	38.3539363223204077
34.9697889890774363	39.2381866671037471	39.7614578484000205
35.1072756899790832	40.4347966980900821	39.3015770915585207
31.1806361577100013	41.6527274116536930	41.5055387730887944
35.1446702036512661	42.5511381186361390	38.6298295158281562
34.2854363729432805	38.8403528190673342	38.8625309470320630
30.1112244643305544	41.6074999008630826	39.1483798592270631
35.0405638477963493	1.5825665810885514	37.5363577208416572
35.7065978332092087	39.3283717407286062	40.6751886672536358
41.2516140534855751	39.4194982154555333	36.5462128745411690
40.0407473133406668	38.2115856314040556	38.1208681265920220
0.2933408486173990	39.2211053363583915	42.6265952675948299
35.8662526135317634	40.4602038275144338	40.4002165509789464
39.2268036255896178	37.5839822379801518	38.6612509176008743
42.8955756912497179	39.6389125540251754	41.6188948513256847
42.9483527034088155	40.7339699126487460	39.5888941533743832
39.3432048071049749	37.8077488663275290	0.1818757600880713
36.0011285550931746	41.6401375206592448	40.4120011091637039
40.6764731780199043	38.7905003272925128	37.3315395530968885
40.7536710344661230	0.6371390476859415	39.6852857898361080
36.8034669156864283	1.0530360830088874	38.0911225514233607
38.7279749470704573	0.4299377375612849	38.5905754578569500
