Li F
 1.0000000000000000
    43.0000000000000000    0.0000000000000000    0.0000000000000000
    0.0000000000000000    43.0000000000000000    0.0000000000000000
    0.0000000000000000    0.0000000000000000    43.0000000000000000
Li F
 5000 5000
Cartesian
2.9155661507167570	37.8698107107915760	21.1699016435722385
6.0709282367981867	38.3546664751549784	22.9814982082646964
2.3432738980281358	41.3313232306427594	22.0906254567292493
1.0906979837775286	39.8569255216383240	21.0501896038648617
0.6793322276731124	38.6752811811121617	20.0126247898783731
2.5867855097524286	39.2248521512484629	19.7256910828961551
42.3251304562703581	38.0022680618969915	18.2746267195720762
3.1408834388758087	41.4875788365664135	24.1824767682637187
3.9209563826382281	39.6268884511766686	24.0430635553552037
1.0743496473500378	42.4668835262060256	26.2142925873153487
0.9223995644826456	41.9363901548530720	20.8694000900381376
4.2235477947483959	40.8830047834698149	23.0774088568451887
2.7696040898901670	36.4363391018098923	24.7608500929109532
0.9015788092361967	0.5205639090967952	19.9774392115934347
10.5518442122141760	39.7563547530165664	21.6248292233071204
4.7168254645578616	38.7626642434744397	22.2238905669776514
1.8684167222534847	40.3513101582896709	18.8748852680241370
38.7117532070108012	34.3103726817816863	22.8054921906818819
1.6367492655333198	34.8234740260500786	18.5240719756687326
36.3524468292404777	34.3790641216940216	20.0670692537720150
40.3180164511117809	34.9994696245857355	21.2636736998309033
39.8563848945556956	37.1024551881985403	18.8472742486711660
42.2258290542265087	30.0742254384587469	22.0827250669369270
37.9078747539883238	36.9039616792528449	22.8234399198675320
41.9624919116078559	36.2862773066882127	21.9100175036404821
40.3072951377559434	34.2717803826632164	19.1032764017664292
40.8536740401228258	37.2375004342739189	24.4773386305721594
7.8805717869487211	36.9988739970503175	20.5959420823902022
17.0117028198749338	39.7346374010864167	21.5393754718841635
15.0398453822031293	42.7643219118909812	18.2418184454602823
17.8041725275588796	39.3673763457915840	23.3726210967383246
13.2689257372126885	41.0068066398515469	22.7160285204658905
19.1539699390076521	38.3128753157261599	19.8393851325249351
12.7075382042214589	41.1736920607753802	20.6182708779657595
17.3384213606757278	41.3144051320316095	22.7657407490960750
13.4450319805514127	41.7610805929694990	18.9555600264774036
17.7552653548560464	38.1947419543660942	17.9804531913957710
15.8964020319177717	37.8519129548124411	21.2700603154275996
11.4605083356535111	38.3755672502142247	17.2436812546310243
15.1577649523985141	41.9774725867641223	22.5748892226120681
39.8935254083408211	36.2748533502426298	22.5873305624175593
8.6102795393253881	40.1539372783481525	19.5030737420926883
10.8915082491565745	37.5915261090240520	24.9236355683883204
9.9844204266836609	37.9325604010231956	20.6516720756524883
10.3674399972661035	42.0777511846407180	20.8546175059518255
12.3372813761757580	36.8202037486424487	23.9298692210562614
6.5841175963200342	38.7565648007845240	20.9330525764656663
10.7014182318118340	40.6428731161024999	19.9971316498147402
9.6283379704023559	42.4978648029352399	19.2674063359270846
10.2171781473213699	38.9906164221174762	18.7968633799147860
6.3253971265449884	40.6559313285804578	19.1521812880084283
11.8926796779541526	42.0111005604826886	22.6392938528932355
11.0399718999586884	37.9570236421253497	22.7075710704744935
18.3750583569980570	36.5310788455110256	23.6342742862262121
21.8136893017070435	31.8485267645161656	19.0282178919714369
18.0526655412539618	32.7428539221476314	22.3527101536706851
19.2535753031154364	31.3023480356725443	23.6192629491733257
22.8458543767425759	32.2670955517331066	21.1480445110345876
23.6867544225886597	36.3403969443456702	23.9789124077906273
21.1924192940862035	33.5874177964970997	19.3710695844993737
20.2863276608652896	33.8828302280057727	21.0974730728776692
21.6093762344995355	35.4070338763632506	20.5761119593183039
19.7283569225765625	34.3348218345721605	23.3739454857798599
20.8260332844056961	31.8676491514471181	20.3600348546308396
23.1497658066366334	30.9783439539394330	23.0750205911716826
21.7976605769893403	31.8438472265196353	22.9980566964395159
20.6682708298386366	33.0144665405923377	22.3937340912957445
19.8352995660926368	31.6763870341116416	21.7980242553756547
12.9868340040296655	32.5822203440464691	21.2821608451269135
15.9408984304849231	32.6371466136028232	18.8514537119984169
12.6002484022824035	36.3126646408492206	22.1822575469217931
17.6761341209989098	34.5046910259733366	23.0617623301351351
12.9736638904574821	34.9019239539473105	21.3648587895534341
16.8362541150871863	33.1500774639676692	21.1466326761522794
16.7342806301818143	31.1484447661435269	21.6936094737984391
17.3171204240594712	32.3579980011425405	19.4208401047738768
17.1613357418671200	34.9780187995597771	18.9797429470140457
18.0224078254931754	30.5563600454361612	18.6260756652615598
18.2126321747356812	36.3965714037957326	20.3518039757461189
31.6577209433387701	33.8960017762124437	23.7064349439811437
40.5243512875254126	32.0874814586507568	23.1315140522598384
42.1652297088537580	33.1426298323337605	21.8785455071659420
35.5450492668684035	33.1972145169669162	18.7282647192588705
36.8304423977334565	33.9999294520181081	22.2585625694652798
35.9520546031056014	33.0825717530446042	21.0133173827045034
35.2607453962197894	34.4306310389372570	22.3551814399553983
34.8754572365871880	35.6287860957584925	20.8360623531453726
35.5133122778769632	33.7176286524965292	24.8502069134099699
35.4726043882148758	37.5032321856889226	20.3615866448981215
31.1386762189779134	34.6937941664128076	18.0526177145265763
37.5898111887942292	33.3293130972479048	20.0901131311798800
30.9179761073287622	29.6702202335172238	21.1240741298832795
14.8748392768865525	41.8645948878111867	19.6333343635120983
33.2715643745838108	34.6945701160123789	22.1553474432299708
31.0042294659890132	34.5422754911654053	19.7304878412055444
29.4870547853079934	34.2026408489884091	24.3275747853965498
27.1935969380144691	34.6746315777630514	23.9358624802308135
28.3343124776580488	30.7716285539100980	18.8458268842266534
26.5431896965810417	31.9127520367451147	20.8572277277497378
24.7492926370375805	32.8554809031107951	20.8044168785259913
29.9338965344017680	31.4846650679056133	23.9269460706699633
27.9026920632901501	35.4752776260172169	20.8093438775856754
29.9861678402646845	35.1611019036002332	21.6327818099674865
26.9705136726084760	33.8252180763739574	19.7031747836710807
28.0423434721388958	31.0746650281041887	25.0463060425277426
1.4817793190811661	6.5196055313548227	28.1468925067228426
8.5053984252911974	3.6736994242821024	25.9140174776582626
5.4187076674489214	2.5323946292242137	26.0805850954988436
6.4891025700239044	4.7344077634985693	26.0326546596443364
10.5948096101166715	6.2038815701239063	28.3988357134297971
7.4491847954716333	3.7047030945203754	28.7609147458195729
6.9928494129293881	3.4966035568802938	25.0828649937331463
3.3324399848911037	2.0126203209889737	28.0843551318178335
3.0422581843603309	5.6878399024168340	29.4506960425935134
2.6677594474771449	1.4279544685908554	31.8009550583643978
2.7508714484360319	5.0872366166908707	27.6879016414474783
6.2380485962854886	7.0778157597840146	25.8437522297505033
0.1614632920766300	3.1046210266730920	31.0328278734530905
11.5609319222925784	4.9418406018512426	27.7436812174573753
2.7729213004609048	42.7792640586469162	28.0981323383009958
0.9622957363903238	42.9438885496397162	29.0128430727640279
1.6903987097409499	0.6481937889060932	27.2631994803412532
3.7352098991631482	3.5827815343850116	28.5730847110998027
1.7216400199967603	3.1070393004136658	29.2886086564507622
42.2726380720077017	41.3687755006471178	19.7104257374928622
41.1440309501541961	40.9503617629320971	18.6339375532120393
38.6768594341771177	41.3383479493514869	24.1135037225443405
39.1773166435107356	38.5268139211548828	20.1403128052138030
38.9919316178751529	37.1982447467332449	21.0079025006179023
37.6489706323325422	42.9304590411759506	23.0624644490213910
0.0622985750850789	40.6870495374684680	17.6597656257072053
12.2055536230860593	4.8707455989700623	25.5739658418641014
14.6228257812987650	1.5655402697268272	30.4399852164073508
15.1903962159885566	4.6945611478800879	26.7915798767791600
13.4691588618496478	0.6939185074259019	28.9089689216315229
16.3341018744228030	5.7648017364116084	29.8354420162071357
17.2879141741220046	3.8068326209621488	29.5294810255393365
16.8935676318617496	2.5099814674687488	25.7792413349325962
18.0495146944283391	5.1951450663472798	30.2430077487107880
16.4806730711610321	1.4040508297041792	29.4573207678881843
16.5129771895338457	4.4001534431736289	24.8991771321881536
13.1773568646679866	4.5664428642987573	27.3959458387461581
13.4465547912454291	1.2287700658275129	26.8662257072244337
15.9369855295540255	1.5078265316219641	24.2677368264221123
37.1199506140406257	42.7292936817925124	20.8791143349184622
8.2951749685639964	5.1284413207160728	30.3956643162594773
11.8172304134157713	1.1004061989833778	27.8798785179201651
5.6435504549800966	2.4800479073527932	27.8753068633846794
9.3361402152778936	5.0018009092120819	27.1735504666125394
10.8391826242202267	1.9161875771117964	26.4888688218492376
8.6606024445839260	6.1589760498022077	28.3750832269423512
7.2257693832251535	1.4749566137723293	26.6886276384166443
7.8812239137363820	6.4762553549924906	26.2995123054760747
12.2579765181044564	4.9099933666720190	29.4731032208537265
8.4230456398700273	1.6414904553753811	25.1971389083848329
12.3524684639635627	6.3751563790895824	26.3502142323773256
11.4654293926305080	0.2056151249201116	26.0920049638358655
24.5229357228766283	40.6799741169230415	23.9259100525607522
29.0167920266262485	41.6602615874115827	19.3466046252218220
24.9354073458010141	42.3195694508240123	23.8821179501110095
27.7341371172809019	42.0795893073737091	25.9164994411293819
25.6185305338527165	42.3208913619469342	20.7155582714997735
28.4364182787869382	38.8502169887389570	21.7951205936320029
26.2602709447890419	42.3038794493172219	22.4323644068073378
25.4504677611846404	40.6825538653548904	20.8595124454810090
26.3635352686072792	38.6563679133433169	21.1383022182800140
21.6776008761734964	40.7306091065097675	21.7327722372419139
22.3156809069363860	37.8097686528565688	24.1403789144058649
22.7760626379237401	41.7296754017417797	18.0179176792772324
21.7294595874373506	37.4549314301387994	21.2535801810141862
28.1636520162415209	42.0468322196577304	21.3504147306744194
20.3922966594389585	42.7824595091766966	20.8573178387615705
23.6519186977802214	38.6834838563828001	24.8190221048229525
21.7310064767963205	39.7824912882686945	23.5575066382883307
22.6674484302157211	39.6440690047726818	20.4260235165867599
19.7996279511579978	37.7747161126080755	21.2413125841761747
23.2528554096876938	41.4452176605467812	20.8278994568404272
21.0889881437254409	39.2696145123174034	20.9044899523157461
23.1792299586011481	36.1563596961390061	21.8032900408462673
24.2262558957547789	41.1872087237397224	19.4127153643212864
16.3475073338275543	39.7511699239017560	17.2250543291353324
13.8517599462224226	42.0701817708406764	21.5455674257124841
14.7229697937595656	36.1381852511581769	22.2301013422566527
33.7348618706061387	41.5460729960212873	22.6564190914003767
40.9280954845634213	40.0124330283028797	20.6228587462466955
37.2579980125902779	38.2242589244208943	21.5540475721951239
42.2826685594452840	39.2196902081775605	22.2909869277279604
36.9514841383309687	42.3086366645220835	24.8255925952761629
38.6267167981861022	0.5965918249455556	19.7038377996476868
33.5431549088562733	38.9772440119807868	25.1950257484467315
35.2836952525975462	0.5270729743163182	21.5003438840646837
35.2355470951667158	42.2045760908739709	22.9523491130562896
32.1426626697753264	38.3172993745945405	22.3294009277896102
32.8433860274974307	41.8093764983401002	23.9578478833178288
32.4344235498050821	39.8483501036623480	22.7665647301561087
30.5007079398575449	39.3912167956967707	19.2993075255370563
9.6820901416400709	33.6792328157823277	19.6900945960060554
38.8687757437494952	41.7892733920481234	20.1904883765835059
35.8482120482547302	37.9719054885925544	22.3212684110268675
31.7896864103421741	38.6819166082097183	24.4764565149248270
34.0568490076887969	41.4014631039692773	19.2979945085532627
34.0157402353528937	37.2631167149623082	21.7793754792697669
35.7800373406261514	40.1989381408314941	19.4945290774681759
31.4599692448472972	39.5771704007193392	20.6510069469791766
37.4548363367082544	38.8717060090025441	19.4136478046775274
33.6956250816069698	37.9700902773007982	23.2898126427816763
35.2378065942389256	41.6598382702578789	20.9248719718572644
29.4792568422250021	40.5494792038041680	20.9419790268266937
35.0231732103769389	42.8745776430759662	24.5477196042324728
35.1516813105661612	20.0748578408542997	23.7029970174013656
5.9349899197412199	26.6731669064006240	23.9767206874023771
41.1618380413146596	19.8979379339677003	19.4968585603603159
42.1647920980408344	21.2885500745969694	24.5663639908886893
39.0300902692830505	20.9440830292447480	24.9163892870176085
40.0258919505986981	21.4742180952180739	19.9167966960055622
39.1436266599564320	19.8122950449121902	20.5217100897305436
41.8753626993922694	18.6421154432728393	21.1439846753178671
37.6737341431121493	23.5419964047768531	19.8617408569473355
37.1685283941925633	19.8465579320108603	24.0550588003331534
42.9585835431444281	24.0119259183706966	21.9531712035984512
42.0474567272634516	18.5710270364216896	19.1733361817557828
37.6444943522352347	24.8026841976778343	21.8046142903245546
33.3467728831917825	21.4563989467696388	23.7874936349362436
3.3474343211794557	24.1930086792351950	25.6601326218295682
35.6435614421625289	21.6027426440984769	23.8410382793296947
32.9941906159964091	21.9957332251753499	19.8232935521705294
31.9885441960803014	19.3665638670845759	20.1986732994062024
32.3365074624416877	24.2199607932579113	19.8900764224596855
33.5169207909091895	20.1633499525431787	20.5057023429242058
34.4109387477196975	20.2680607258549692	19.1851144261597675
32.8939837833103326	25.0855784401839621	18.7688077733716696
31.9996529321154703	20.8065321938345349	21.9563071201759641
29.6164814280348132	23.3974731723926119	22.2959138401169703
27.2519891932950209	21.4331658982774478	18.9337343706886365
29.9651391722381000	21.8039265754294647	22.1570782018943824
28.0766780251926136	23.4116857156354357	19.0203034855105777
7.7267883268084709	28.8941441333287763	20.5633465855040924
9.1613667176512728	26.7882651310348194	20.5614238418863522
9.1514340734107638	29.4695861602582987	22.2934377852160317
12.0366400499018518	28.0006043862163700	25.3520451264883668
9.5532337685406290	27.3486439720081904	22.9403750584276480
12.2030079259338748	30.7645038643259348	19.0557455909513855
12.8728876116589355	25.6782046064301746	22.6919266365260697
9.2880985843350032	28.6292128792758795	19.3406502244457386
7.5252154403629206	25.6647061109900427	19.3208120864046329
7.0849842208884688	26.7135056713454730	17.9921033100339578
8.7534695414939456	25.0494551226838134	17.9083880173557510
12.1017490654233377	27.5186992301301814	18.2676201065104529
8.4216964069682749	28.0289046769870964	21.8393241172278891
29.6710469093569777	22.5898040906012660	24.4519560432901066
10.0730814833267850	26.7139225315218631	18.7534094549912176
5.2495389093418448	28.1835779823856818	24.5964697476261591
2.8314843631161830	25.4241433932353083	19.4853757157350458
3.8900430667056338	27.4493550340719565	23.7383002429015697
4.5854447355107570	29.6702704633337362	24.5668188620697379
0.8553184300666828	24.4433339014812496	19.7380097881123469
7.2785037831067285	26.8998910162576053	20.3761820333728991
2.9381375235894427	28.1142122583799292	24.9798019066437007
1.3821163821560170	25.0597202921318249	25.3752374026266452
0.7687266240651394	25.9531647165634887	19.0786363684465172
1.2461938386655051	30.1446198320891163	20.9446138889115723
4.0259112427773349	27.2628979034191765	20.3281164276907731
7.4130089044447924	20.5433241500042065	21.6335780565232092
5.8799721963144318	21.6775819369637794	20.7333047253064287
8.3785566409991485	18.5460881642993165	20.8862422159765195
12.2105601928093321	18.8333557022249813	18.5035555341563658
9.8602480735367308	24.4415249535615651	22.4326128742626523
11.6521682035347176	18.8167571501436264	22.0575869410167051
10.2264548085221509	19.0115357331325221	23.8033556440164986
9.7682438694540643	21.4613403912564173	19.8734988791782747
7.9117586725024980	20.5509242900940023	20.0716349984279496
9.4369932347610295	23.0547337255666740	21.1810421663695330
7.7617453671736669	22.4426243636466758	22.6529416375053891
7.4326583920744369	21.4194823581416181	23.8264939431787930
10.9763951525796628	23.3799608798547069	20.6846405460788496
9.2976866190287151	19.8983027335964486	18.5991320023823903
8.8529870218706037	20.7150386864355340	25.4612998432720445
2.0570150097507316	22.6497194272423776	20.0778819200834029
0.7446105606705742	19.0490927651967752	22.1360282010542804
3.6178707348599040	22.3588858014162426	20.7577954873787114
4.4951324801719688	18.6803145962974142	23.0085151601949391
42.0547340971598089	19.6573023468939994	22.9637551307097851
1.8681158897786327	20.4430514172299986	23.7082368355457156
0.5245757355605529	22.8016969874472331	20.9848544054468249
3.4319146813654426	18.9447990461995666	19.4400530510209109
4.4427508253518457	19.0635812754589189	21.4510880487132489
3.6031717744482941	23.4647577264402827	18.8294807120677703
1.7145209972594964	22.3044816991015438	22.2896954997690777
21.7451107174338318	21.8576508053542007	19.1581583257979986
29.3509571060437899	25.4222615760063597	22.9761783452460833
28.8177063011191272	22.5867915425026879	20.2423007792834895
28.4550067129765729	22.2332294392407128	22.5047631476767371
29.9936007731472287	23.2346352844864477	18.3496703589544481
25.3552461965428861	20.2087974006949729	18.4012037419489936
21.6986869246891416	23.2263172118189978	20.6024185601652263
20.7915426029111075	21.1990940675094635	20.7744717832694903
21.2234273323958966	19.0083418500444594	20.8159822506731054
22.1971680692490558	23.7281006620187114	18.5676722091160968
23.0632151867509556	19.9331015556761919	19.0828601484825811
22.5147700788919245	18.9491963305177755	22.7747775883713217
24.4916897995939564	18.6382325194480103	23.2505682306226724
18.7512968598528715	24.0183929287353557	19.8747395654055907
23.0609490242035875	23.9926554932784271	22.2798910276893061
23.7612243749704497	20.8056639660339933	19.7789385021414432
19.3806581555391233	20.2703602703617847	23.2491829902696665
17.2158313996918260	20.4142029233616498	23.2562154228860933
15.5730720523818960	20.8217669847027835	19.2991982831826405
16.3113733091438498	21.3086614080550802	21.4271661696689328
16.3729897653755785	21.7324258426940595	23.6849292689793955
11.8576304945753925	20.2726410732870086	25.1597196844908773
12.8623327643815610	22.5533306743952799	20.9316328784108343
18.5212860686364635	23.0752237103768536	25.2634061693947736
13.1107574849945383	20.2605566347292871	21.2484942977742399
7.3743500635552053	23.3822082817461521	24.7523823595990393
38.6482053993217463	31.1588606752482100	22.2419399458445675
2.3563423319101395	34.9851290185919126	23.5767129885863689
4.1088998002094685	36.9617192129123424	22.9907544166021580
4.5974023211350792	37.0528438224564951	21.2154688964052767
3.0013487828919665	37.0933581309366005	19.5031916736030979
2.8459965904302869	32.9028649939679170	21.9071173790122913
2.5425641255317459	36.0738055173211691	21.8289857726807064
3.8320329557644781	35.7320555798585673	20.9079803525876500
6.5178287433964561	35.5527245589413567	21.1756251784948368
40.0312228633028937	27.3722278496786551	21.3080317800583252
37.5473245457416382	25.8073793185206348	23.1152648168256079
40.4363124848826203	30.6540017006906211	18.7604045803374397
41.7467406687589246	25.7498948643764827	19.2323753703447125
6.5060242113775901	36.2441798472105106	18.3257562027454739
37.1573443268168475	29.6191566963357182	19.6135544421341947
39.2540174981959566	26.0851071453808281	22.6717792657054922
38.1227424075330106	23.9661026555372949	17.7327068723568644
36.6960138781345435	31.6353077335661901	19.1608853136609980
40.2564043432364613	26.6824492971524982	24.4966259729409792
39.3906353601140893	28.9890314101741033	19.8000599616097190
37.2383720513194660	26.9603122315446946	21.8402147644657987
40.7210758190475985	29.3494688950727891	20.5791892683374869
37.8085415873971442	27.9504029039887740	23.0821388175321012
40.7450817285337124	30.4495331718635427	22.5091533208928460
42.3069578778600786	24.8731355822394633	20.5803220878452038
41.0400909230508759	25.5416175942617620	21.5342427706940747
8.6797061990235029	31.6497803242578755	20.1802710011729296
11.1731544135928189	31.1236944048986395	20.8779982480542898
6.1012517631549050	32.9641708932407482	24.0574574692056764
6.2132697289282959	33.8299582268207075	22.6920930999641079
10.2238849531898754	33.5916893362751878	22.9474033364909538
10.9755104362647984	34.7843352092552962	21.0992605107517619
11.4993119785370244	33.3352378532996312	20.8824464957504325
11.4673272508666120	34.6688388866715655	22.7102337543052855
9.7511179044795639	31.8184240843783499	22.1642364586824456
9.1428976120148473	34.7526212917196133	18.0692633895708674
8.1592732969758224	32.9206709834226814	22.9170594241597669
7.8991522363676738	35.2029421649256591	19.4104437472929590
6.1638443352765258	36.8846638011620769	20.0729992318520338
35.8042222684550708	26.0713820586445699	21.4795743307752858
12.0196824143332961	31.5663230850788459	22.1263801572205345
5.2970567492095970	31.7482711570461120	20.8287328097934541
3.7398906386844870	31.7390572388842109	23.7743030536143145
0.6915274674703706	35.7644798198863896	22.5551226734560224
0.4127078935475191	33.5181260468016475	20.0388016394481987
3.3511859798857748	30.5050825378703188	20.9771243752334939
0.8960603969996367	37.5343803902173718	21.6496955362714090
4.0356273022441425	33.3425688183265692	23.5217299699829532
6.6649570479208045	32.0061532040911132	19.0619943327498511
1.8914371952923783	32.7905341350489863	19.7448312356153863
2.0477173011140857	34.3417673841902058	20.6051030791197753
4.6426312909179090	37.1186836886170113	24.7819341507673663
24.8391900899480689	30.7641292774896442	20.7814559081569143
24.2386222996391787	29.2604049271589197	20.6912557534343229
21.2376010242022915	26.9146790343483246	20.3692132222250422
20.9633811141544015	24.9929139905432329	19.4588856566803727
18.5213709239114372	27.5804768602960948	21.9329603374061328
23.2957619302773509	27.6674944643413312	21.0455687461882235
19.9693246881822155	29.2006036622506571	22.7960841265721044
19.6602557423943729	29.7544205773315227	19.8740757322936830
23.7605623889948383	25.5667393185557401	23.7651073516184503
24.4126127322834883	29.3000056930243282	23.7013240722128025
21.1037824640711236	30.3512785827912523	21.5397723955910827
17.5433092739722092	30.2270557049137274	20.1494518746439262
22.2415188691245689	29.0053431132117510	21.6193329794761908
21.2256963350041872	29.9169589723090468	19.8813306452003111
17.1434227202724543	26.2934112933422313	22.3108686678396637
15.6752434447812021	29.9249259505579097	21.4661230887562695
14.3482404682486582	25.1497945453137355	19.0161939971410625
19.4148079817600916	26.0140191201967106	20.3974914445903011
14.3624677491346677	30.8730473572394892	22.0251069465045362
17.9554165125762637	24.4921811935062763	23.4991354140026729
12.3654617410054239	29.3642725093044099	19.7867148977252114
12.9847167063387499	28.8927612297232663	18.2980068835395144
12.7867904407590576	24.5747267381627914	20.6042897367869919
17.8614638802082943	25.8768216605125012	20.8317950749901755
15.7214924642504634	26.0380952135140546	20.5846367315310381
12.7960490064529111	27.4344628933058452	23.9760848978317895
25.4634986136393735	28.2031329879603057	19.3384377899428053
37.1174147570739166	32.5804912596754690	23.4164117587594802
35.5203836859825728	29.7121945878283853	19.6113996861553233
33.7191764963862965	26.5521969879021178	22.1494946142105427
32.6301770205750898	25.2970168876859596	22.7602626248865931
32.2308915075202123	26.7184561543952874	21.1918613236929936
33.9923489431865207	30.3120390280422960	26.3207576789012769
32.7482681195647842	28.6369828130177417	21.3628222936630827
36.4898820218689224	28.2488025297004626	21.0854787831056711
33.7519072444704449	25.3569520344021022	20.8827193954306054
32.4119047928555446	27.2738602952942770	23.0677104855006228
30.9295945802542498	25.8219169908830821	19.7482662668578008
27.1187989071340319	27.6469789128575378	22.1493463804075539
16.8576103301965148	2.2044915272026748	27.8184379670804773
27.6366123154974019	28.6951373049705083	19.0635152103554297
28.6566352250083725	25.3874859111200450	18.6014757250815777
29.0950157435713734	29.1193631126984904	19.8162452011401768
27.7990463127575467	25.6066601175470439	21.9339879073689765
29.5332275057150433	27.0968953372989034	19.2284994850109356
26.2300455268273041	28.8449108758375310	20.7852031989480537
30.3801999353020555	26.9807980326144623	24.0172134877734571
25.0110684128545451	27.5500621466342039	21.2458666330937049
21.0546660309691909	30.3316101231664135	23.2572741297020080
22.6522156311484721	30.6292907458234573	20.0899916883546581
24.0792898176390260	27.1631318782684517	24.0486084257696753
23.4708022871625914	26.1377258402778665	22.3410321217469878
18.7737671570343920	18.4079653785282957	27.7538677965913152
15.4740684354809606	20.0830163896999387	28.8001051944556892
17.9390466221409888	20.3043060440860721	24.7400828277831657
14.2362500947915915	19.2114345226866163	27.4471794900088284
12.9392830709525057	18.2900673556691125	27.6543636052484629
17.3567027289308520	21.9419556740810009	26.6443666987097210
12.3586180668181544	20.4412744972354865	27.3612848092644931
12.4015112939610397	24.0096919781734748	28.6858833173576215
13.3519081152693158	18.9468139401381315	25.9872834964831405
12.0717660228806274	21.9089253858321804	28.1073800152954583
19.5080610440656415	20.3243718080892180	28.1199108318745594
18.1370119361289568	23.4396398517230580	28.5050066099806756
13.2831065130973158	24.1338820544882076	26.2520163202747554
16.8097287937721589	21.6332838973164243	28.2248870054706416
15.3022098508389650	21.2448643772246477	27.2854087139976365
14.9410277603323216	21.9100367116020855	28.8249334392969345
10.2342326113289630	21.3920567774343944	27.1969559742070750
12.8233598595534737	24.2407629456035068	24.3872314665751198
7.7881059123089500	20.6572211481571593	29.0971153055161444
5.5831015513976219	23.3062048962408426	30.5440656089331988
12.1657749330099278	22.5509559954697352	25.1066621089224533
9.6688093507930066	23.5264300465645597	27.4778612482608402
8.6915260617230086	21.5509803232180346	27.4128675299198683
11.8480174181318922	22.6252737971383020	30.0105778884201548
1.7561542370838943	23.6749552101049794	26.7451998110709894
4.7817407864466421	19.7519238901322112	30.6766902095391885
6.8669081377195429	20.4915853815989841	27.2843304106752278
27.3069417343871450	18.8991364563374766	26.2231407838401616
29.6767545117199028	24.4405377898274878	31.7016511315690295
29.8380502285156446	19.2176576702574309	29.9435996829084559
28.6394998357907333	24.4736685704489325	25.4404926394189346
26.1867676223035417	22.7392875795827010	28.7255053334022712
26.9401795294954560	24.0163129934732531	26.8882973213366618
25.6964156723551511	18.5709227391319587	25.0882047881470882
29.9337648489094690	21.0248565662395031	30.4480656682498214
25.4137242771064180	19.9572897718152937	26.6121185591806082
29.3363117655484338	19.6207758438167907	26.9010401401568870
31.0000087893561975	18.3817063753999754	27.3937837425193251
30.1248777007983790	22.5736344740666333	29.4610450015413008
30.4386064518436363	20.2475887933776804	28.3713490446220682
1.8992994199362674	19.1932084271335235	25.5367962148314689
30.4610150398606550	21.4009897315548407	26.4208088511180037
23.3514182075942180	20.3324767332275727	26.9914553231546570
19.7106356691135503	20.5355568990772674	26.0803703037364691
21.4974460970942154	19.2029100962897772	29.0737809090438191
20.4438055144755815	20.7803652832661996	29.6102990055247837
21.4909609982307082	20.0006730362925857	25.8274374783634144
19.3069620347543562	22.4361367784801189	28.8737296773847234
25.4367093381677414	23.9878338603051446	27.5984359621084252
20.1195379067098301	21.5504399003840454	24.6366417428087487
21.3775549387134021	20.2042024750352631	27.6730416690295407
24.6060305402000772	22.6393183269677678	28.7960173455780613
13.0304682966710867	21.8788577172925578	26.3021362059214177
26.6923238288855629	17.0413106665800171	25.8136902350756827
26.6032331012306891	14.9192911379644766	25.6488180657930940
25.8037139884548132	17.3269373594237308	27.7050861209212158
31.4076290411881196	16.8998060429257890	30.6252635741450661
25.5186771958418497	15.7449593508750798	29.0080032557573979
30.9796080742896898	18.1422575339139520	29.0819710779520513
29.3618413589266147	15.9744913889710620	26.6755175539788958
27.4453720552754667	13.5205765696853746	26.5912414962005634
28.8656866281400255	17.6279709898963439	26.5707512292145225
29.2454622013223968	12.9512746035197424	27.7740157414743578
25.3348822770672690	14.1745704316759156	29.5288561840694257
28.2618143168571265	16.3481479867458894	25.1523918337883039
29.4091156740718418	13.1900216510936996	25.9412047340333203
29.5912670537783491	17.7932041976431243	28.1713571077334599
25.0734935548872606	15.0080000433092167	24.5018486326669382
30.3804733730511956	16.3177959260377889	27.8316083228630653
30.0721532149793802	16.7118040559750121	24.7586572853563176
19.6620705030243883	13.6450707456400835	27.4398302708665227
21.4147479938053280	17.6244007628401569	25.7119877160287373
22.4945257613950744	12.1825922728768425	31.2921411302702417
17.2934913332870401	15.8695276725149075	29.5358237103374321
21.6026240119279649	14.0208847210444674	26.7941795294862821
20.6429249723274886	18.9150019866076811	26.9322425852744409
24.9766321534531919	16.2204479994724409	25.9751794817583459
19.5053241590838766	17.2779536243938097	26.4459804097585227
20.5940762837590761	18.0501232446495763	28.3471985332041854
0.2575120306128280	13.3194183502337768	26.4164855993743437
3.1272283738861164	20.7521313773503735	25.4464460036922340
4.8498269190011776	17.7282790398397836	29.6882854310503923
3.1048802258014909	20.9465199667110404	27.7053451551050287
3.6973180321369394	22.6561491476422177	25.7243594391209420
4.6073321416696409	20.6644403052800882	27.2443969917014073
2.0128921762667256	24.7276510693936586	28.8112581518405051
38.0893999441635032	17.5736609493014164	30.6703958453860537
40.3140232001472469	16.4706023440097589	25.4763975717887945
38.6371445466252297	16.3401459803114228	28.7179202447871660
40.1986003037790169	14.7058938207273862	28.4001861472501176
39.3835949539644545	15.7284203471998154	27.3200039838415591
39.1674294402679308	13.9071882913815728	26.4834561078262958
31.8767924574996684	21.9371225049263607	27.9616493391506502
37.6809062681588998	18.3668854739560530	26.9248614326467290
38.2041078357918167	16.6296734272576821	26.4795699751229243
32.2627185772046232	16.2118806293704623	25.2932502439373401
30.6525710840322816	14.2469979848019310	26.8320008776475767
33.4868892436203538	15.7709350696652493	26.2766337519227520
32.9253354333150057	17.8502254487125995	26.6634943872220020
34.2266763368359790	17.4186611500634534	30.1460065669338704
34.7100578498107666	18.5064779965335724	25.7698018751533731
34.9110518007212747	14.3393960640331208	27.3346980299695268
34.4027163646503169	17.5166070797178612	27.8097616964493000
25.5248242214917056	14.4430943773315352	27.3313809643935848
24.7655655169901010	13.4715759136526430	31.2543018663284577
16.9754369269203877	23.3242108199466109	24.8983275754830942
25.6834550519390739	26.1557694693924070	24.9324918088763283
23.4041837168360445	26.4679613711845292	29.8902937111361311
19.3987620493513226	28.0294632849704080	27.5828999208073071
25.4204227992891347	25.3561571558972183	26.6625087447232758
19.9347205154564548	24.1122729828724687	27.3960455920755415
20.2497911016148215	26.2001972123567413	26.5231568100683361
21.9197575916137986	28.0261571191278662	28.9827583849868553
24.8358709781840901	25.2711255158268351	30.7898329182751560
20.7600952184706991	29.4510662349317691	28.4405792584782837
24.4725603661180955	24.9652310348781015	28.7076006286168344
18.5547939676298341	26.1634573992857469	30.4375754619157455
23.0304075212017096	29.6015502431244535	28.2048276482500420
28.1999530994452705	26.7684760619685562	31.3258869890304652
19.0658664268838578	28.0258914566951454	29.2411359128513801
16.6508983617008610	25.2211633817776750	28.0513996983202389
14.0726979132681507	27.5243866060664892	28.2279380348854332
15.5960301168433748	26.9850473386202552	27.8799112058343255
17.1977397125568316	28.0636891641678616	23.5438492979851794
13.4254636426103797	29.5281571057166552	28.6545173119037244
13.2175908518461807	28.0202117411487315	30.0506553633947071
14.0457274133740171	28.8958391977615570	24.9986281569158706
17.9390497172250676	31.4689852117916473	25.2074114214513472
16.0233511756056188	29.0624686913164147	25.3123159288018833
17.7130093633013281	27.0958054573014024	28.5327318321419803
14.9174276436778115	23.6179615412416517	27.5385971503387061
27.5882980333080852	25.8043670033967878	25.7760248746226779
32.3828604356873910	24.4258885940548325	24.9090505560600874
35.4840265122482137	30.6509550182505528	26.8516827685903969
35.5606791858028757	29.5796710382908969	30.3399032183289066
35.6516792083087068	25.3270601364170957	29.3981378395745629
30.2620774248819693	29.2228147363181243	26.7605613148380002
25.9254095346156745	25.5009949075048823	28.8996884345378682
24.8880676970619987	27.0818951869261646	28.7432278954587836
28.2774245739614436	25.5668424207618088	27.2396179507418204
27.9565067731459962	28.0090831675913634	29.7801192312586487
27.9980806268793572	29.2999172816663105	26.2546496785276098
28.6291338124920323	27.2109380121621456	22.7094666884371001
26.3331608443803162	27.8578742925501111	29.2498707492926791
12.2333958094518316	25.6994943989190325	24.7868900143180326
27.3980829965085526	26.5702339262822917	29.1546038356969781
25.5299627805528679	23.8538107566694784	30.4242496115832139
24.9522692574154838	28.8259439792195273	28.3436929566154809
27.8007369188945965	27.2543662877969020	27.5445804962261107
25.2482428690947884	27.4379838093369059	26.6160085892932727
27.7872460356725206	25.6405353154548976	24.1238486914819212
26.4095024567406220	29.5707937337036775	27.1838259725531586
29.2773052777627356	27.2172308790922415	29.5082700452488673
29.9476527892670958	28.6372233922517268	25.3555566610261245
26.4990935318449878	28.9338948173293353	31.1040619607175586
29.0040472328603443	26.7492503970858202	25.5241543738289387
25.1681121826353689	28.8697473471642283	30.4035302297938443
35.1127507282888729	21.2949478444776368	29.3217695711303854
40.9268566861185974	21.1670931934222324	28.6638598108692335
42.5594903152526101	17.1947816924015768	26.1929655425201489
39.7852891558066020	20.3442912567302123	30.4173451839909781
41.9754729250266578	21.8088283972245094	26.7603019590977134
40.4078251096590577	23.9135074068583755	31.6714500347695314
41.9527143983438435	24.2978248842044700	30.6936375711995524
40.3968422891532910	23.9974555111346888	29.4192616989638935
39.0268151631431550	24.9723999503879881	28.0155232373635670
39.0084158412287252	20.0871756499170715	26.7721054855985088
38.1204720406563311	19.1484358028878709	25.1600699376802588
32.0536929930269636	19.6655887766892157	27.7846866357101057
33.8042321796856839	21.7263056280675038	28.5419240750114334
5.6380369277238040	25.4690063999501071	30.1822427153397399
35.7030937579106435	23.2455408461612016	28.4758255157162488
31.4128762435995483	22.5696581869268655	25.7385923435924830
32.2413284243170750	22.8541215076530619	29.2978471475816882
34.9899782380713162	22.4261191270167082	27.1736634648436599
33.8434629376183693	20.6032908463644340	25.1898770061609873
33.2557138196996505	22.5973539565270123	25.6567425183023445
37.5335957164353644	18.0040164850170257	29.1751017974470805
31.6082035307176739	19.9858459232716363	30.9759432784862483
32.6659147991361181	18.6197299517047057	30.1205009664312158
32.7049880310810366	20.8373916175634939	29.4662366644104878
34.8930760366470523	23.8667854133483281	26.4550016859094121
24.7138241223227979	21.0751219273071371	28.2806223885614294
10.3333521021799726	25.0269300628525571	25.9487666349649402
18.0275441666127030	29.3051253861362326	28.8017976955197241
14.4842734574280279	25.2106547519151292	27.8438528429204446
14.7325838845821142	29.0644492748625360	27.0315460850386948
17.4086134048740142	23.5492208145012221	27.0948940002204957
5.4276693116206376	24.2001388598356719	25.5888939800192929
6.1463025999568881	25.3302052117284369	27.2301012892190144
10.0282825373913198	25.6586483648421115	24.3383311151796633
12.0988305844878941	27.7024461340971939	28.7777230660005685
11.2676503538801391	24.4724121915182131	24.0214197658659678
8.4163631023524008	29.3460891213715271	27.1095608314115140
8.4505038735351032	24.8162194909838689	25.5000706725592465
10.7426918083443468	27.1310641472918022	24.9114012929139221
21.6325614680648712	14.2771309114871237	25.1254757691524517
7.2469824629859989	25.2988263668458764	29.0220593613857680
10.5153498137209755	28.2998103363761224	26.9279351472806212
6.9702219390876321	29.0018467852259896	27.6576795620161100
3.8852802389430603	26.8236990220164557	30.4816201165879477
0.6579082023030101	24.8512610656926896	27.2239622087168947
1.2043703216742083	27.3289047481793901	26.0609000215108466
2.4876248315252552	26.1448453771118992	25.0180679303096305
6.6318246862293977	28.7582909455764266	25.5510683641081719
2.2468934353904140	25.9278720868989474	29.8769254153084880
0.1115586866923272	25.4194986896612889	28.9651319380064933
4.1646112782462650	24.9537799743238224	29.6918545951199562
6.2153892803576190	26.9891044759542069	28.4581513738248084
2.0323196648277984	8.9783843650527153	24.5655256772160122
2.2382449122819326	11.2704527771135190	26.8570529140439263
0.7135982237455090	10.5343005506035787	27.8651773578864130
1.9334690634858496	12.2238133369182123	28.6642412657025361
2.2960793956097181	9.3720338063712934	28.5254501851625335
2.1643689882942261	12.3038675808408637	24.6007573280013006
0.0064972888077719	12.3085002896876485	28.0663935019123407
2.1947896205007131	7.6123501678791818	29.7223654994172897
5.6841272248086181	8.0146948687679984	28.9114875363380648
3.7575705979808274	10.5297652261668340	29.9903804490642401
1.7103045691947969	8.7748618050453153	26.8767013272894459
0.6980766437657426	8.3967571132170775	30.0468935860892330
3.9810894644722015	8.7042460532522465	27.6844165903276682
4.0346217272752174	12.5214442987462959	29.3582086558702038
3.8503868708000497	8.9108394237946857	29.6275233221630181
37.1312812728528598	5.5613218168514900	27.0258823858935457
38.1379103729802651	5.7080467083448889	28.3597556421993460
39.1575171505452815	4.6255272561121688	27.6949898298565351
36.7168805508656106	2.2692372843999569	27.1877129796147265
37.4035237124724844	3.0242397747982950	25.1246196724386159
40.5980920187949010	4.5843798363025323	26.1902627816083680
41.5500966378663037	0.0757953127910254	31.4963068755240734
42.9832141102563838	0.7374696266772135	27.1928272612951325
40.0373799703549338	1.9315151188077284	29.4281912982610905
35.8856988163944948	5.7506520188389567	28.7829097188566472
35.7104253460593810	0.9275965785258453	27.6880094468502982
36.9866840564960313	0.4932536959737493	26.1633080035811325
8.4644627243141137	10.7498871823942537	27.7359654563239530
16.6712402169239660	5.0590597961876220	28.0797647752297976
17.3538457432935154	7.8034153640972557	30.5486723263919657
13.1922882353746260	8.3266276311819869	26.3452893237840406
17.9767908664846452	11.3202610528028114	30.2888989032828526
15.3915352835366352	7.7169673065036282	25.6321406550362028
17.1452730284035511	8.0196349032307026	24.3756358918536726
14.5512771697619474	11.0313599899058801	30.6479055137855561
7.1242215193892191	8.4532153501050118	27.1883902483589281
9.1612853492376551	10.0685791434849570	24.5127098376530164
10.4876816550190526	6.2948638127470957	29.9375844734394256
6.3498744685063251	12.6432765349522285	29.2554456821703148
11.3601449431235082	7.9753410053772695	27.1920192082068901
35.8598301447488694	1.8787153144967736	29.2833176773395643
8.3310385867074732	11.5769499964624529	29.7222263793249795
10.3902990850349592	9.8795622282831204	27.9164771573705188
11.2863244305370856	11.7622665120239454	26.7259768302185634
9.1922208104453489	9.5426394962438010	29.6590509254963592
11.4662166002261117	10.1175524724270751	26.6911146365082317
8.0182000241653100	12.8789249223187312	28.3702327157724596
6.7661800869601825	11.5602909748532898	27.6866485212032707
6.7101911622635253	10.7917035629939839	26.2417226083540029
11.7148014151415456	7.4787487308371396	29.2342626926938287
6.8450020601034876	11.3680143959554680	31.0542115480227565
9.7566084811792440	9.3081103699531926	26.4891538590191615
3.1197103840307916	9.3651032805517875	26.3148500276499249
20.8157676544036683	1.8956985022244470	30.0763217871788981
30.9699500116395576	5.5744409797443515	32.2953033356909387
25.3000209476537492	4.5573652601948265	27.2008599795482766
28.3788908641056530	6.2502627662061876	28.5561533425678533
25.3848633526442313	5.0873362117842547	24.7384556008219292
29.1074532459982933	3.3962402978140944	24.5072679586601225
30.4555911879057675	2.8512053114955549	28.1841173200193431
29.3720679139790377	4.0942644039451208	26.7399823356396737
26.4885824413883419	42.8285231385448739	27.6412693972841126
26.5173226684917509	4.2919339163767765	25.6874100311898843
24.2127645065246000	7.2004155667915928	25.1702828005520587
21.6440636931526846	1.8827081967905444	25.1071529548930918
19.9038054816064722	3.9424187189747997	26.7872507421947219
24.4443426232883674	2.4178045062891536	26.8017612634846714
20.2683153192840422	42.3637572488214147	29.8550483693242654
21.2939125889930096	3.7984825247239749	25.1242803658389882
24.4445103862522970	4.1639038483082471	31.0480836540467315
23.0478952191746203	1.8216523807855889	29.4564236306211313
24.4551499531713183	0.5306057860894977	25.8276280208212192
23.8116145471260836	2.0028996227015230	24.7411134430129032
20.2602695253441532	1.7244315027189592	26.4970996327234580
23.2590279354714795	5.9195782637146213	24.9234324387188515
24.0729182662326906	41.9720183270272074	29.6014930473650431
18.7140070499497924	2.0091048130393432	26.9754877384193605
15.2241739369764435	0.5778367869181112	28.1103726756281525
13.6079027325315174	3.2324560091420329	26.1275273267006689
34.1566127361235843	2.0188720246880552	28.6082024970307636
40.9627796454266289	1.0151269266808729	27.5095835994711102
39.1873489128934480	4.2308033279170800	29.8494852390689154
40.0158270701371066	6.5005006639867373	24.9523876329771070
30.6696100632470845	1.7080550868654973	30.3216821946787505
32.4413664409750098	2.7157482070507366	27.4479969338452143
31.7324594926091130	3.6215486672822359	26.3315656033356511
31.9610307400265761	42.7933876732718161	27.4632328922787110
36.2657934781783595	42.7820882518088581	29.0980848496292417
30.6460040576763362	4.8495716203339878	24.7009254744581419
35.2830821222297217	5.4246396456428307	25.5894666987934087
36.1089311697042490	2.1498817655327582	25.6637751201985829
33.7027416336003185	3.8478746369184789	25.8026157816276651
16.0097608854795368	6.4237573635520588	27.4104558814700461
33.3247314535279173	0.9428473985967268	27.6130521070732762
31.7358826161159620	1.4431533493268607	29.0831798363024063
27.7596159123775195	2.4914209931023663	25.3658394813354811
29.0241484013756086	5.0268315902470100	24.8932667521891204
28.2237982148566680	4.8191420731318670	29.9641924971423244
26.2595415159039014	3.2055741265897937	26.9710551618445002
28.8621798835499952	1.4149400361781235	31.7967124419116267
29.5339832136883906	4.8065370369198641	28.1931121625436383
29.9159384552321548	6.1563314247075409	26.3204181119176788
26.6473537933912077	5.5150310799713358	27.3916583516053009
25.2248967984377757	0.9529384254422432	23.8460016353151474
24.8808581935116706	0.7701306656317614	29.1624091502930263
37.7103861613842284	9.3137259913550015	31.3838389558519104
2.3434677417151137	13.8700992664788476	27.1284712027031567
2.4525602157487412	14.2149981095270892	25.2985803808810950
4.4074661529748971	15.6073398104202514	30.1700042330304861
4.4867341856888912	15.6144486332819490	28.6123456719874092
1.2040777114845522	18.1945489139927545	27.2383609744826138
1.0127856862417355	15.4413563952936190	25.5711417756661561
2.9656815256589906	14.1357450347760611	28.9145041105240317
4.1118976974594474	12.4690953552389079	23.8242333582878842
4.2154796524184608	14.4000283174903654	26.6847599643550986
2.9431695425873516	17.5477030715738387	26.2218288806618425
1.0475366893005575	13.7241477141843760	28.0796598655033698
1.2715241233994434	17.9571957375406477	29.5635843003357870
6.8889468851334339	16.8590721714380649	25.1418210742179760
38.1384899996742561	8.4267081874273657	30.0802295486894202
39.0462885992237432	5.9833940369407914	26.1775528088779481
39.6419223140359733	8.9503196606575308	29.9114819122975959
42.5385042798103541	7.3506179036800203	28.7799174115695919
39.4021181632716164	11.0141946789213527	25.0896999448078724
38.0703016659218108	11.9258732242620162	26.3829572654584723
41.0879549402734057	5.8378596619207590	31.5573895527007622
0.6526859654580662	8.4924906782372975	28.4082867159109433
40.2066431157329873	12.0405061276069425	30.4489606585174748
41.4356291275279247	13.6095936319534339	27.6525383872129673
40.9754329880200032	10.7670367626236931	24.5020891114535253
40.1452358428654605	10.9462270591378328	28.9576890054768832
12.4325640060079472	16.2067682580126231	26.8322518761992086
21.0455256218223212	13.1163448026712164	28.1101029471352248
19.9108386866585612	12.8216779927491569	25.5633619447588387
24.9003283344059625	17.1358876811684553	24.2950134639547208
16.5498539629652015	15.1452292945346461	28.2739083417157104
16.9607858255657895	17.1423962537782266	27.6321568949112937
16.4220801644481043	14.0604404209600293	30.2348904245722139
16.0817012371078505	19.3907491366704612	30.5625812701748742
11.9213476116289332	14.0090063363632886	26.2802311571668810
15.2106548048436210	17.5609122581654233	26.2562514644076863
14.5261703899276764	16.3410029013700111	24.7062401801915001
15.4562122301633469	15.8317743547806522	26.5531649302098636
13.3972806539086644	14.3847932510272223	30.2151140309081647
37.0757546495370249	10.6300464971373696	26.0409729093061770
17.5755741994406023	17.1554084040796333	26.2009606214182611
14.4419698111936015	18.3883078740654149	29.4608140756275425
5.4843037333714282	14.9449366071815852	27.5371634647974055
11.0598062652218445	14.3620378689772501	30.5945247552204975
7.4489462417103018	12.9013598162713645	30.5559537383233710
7.6495214333850843	18.6523004382451667	28.7938517691221776
10.6059747050328497	13.2190245398106399	25.7699493131967472
5.9994699193928369	12.9233308589619913	27.0864560205542979
7.9337669678028622	17.3196535361827948	26.9438617931528341
7.6293289751536930	14.5559824761875962	29.4287938466981096
9.3011181315786864	13.4969464907746524	29.8702455391116040
5.5922468791682594	14.0828673691319839	29.5051259071404353
21.3848378806248043	5.3755246505309380	25.9510519869943757
23.9000680466699187	11.1288274867132415	24.0863986422743537
23.2648144186583430	7.9146000863327437	30.8490773664872719
25.2127131056284277	8.0841799473838130	30.1766211015602615
17.9369055733659515	9.2765149835663010	25.7326412573829373
21.3798530001006490	12.3708296582385557	26.3164656109430517
23.9303310264919524	10.3123408126581069	28.5325774691324163
21.5339532122474679	7.7971405158872011	29.8128815600879982
17.8814533557187367	11.0393782709057238	28.0666424370380767
20.7358748605659677	10.9183462759477337	32.2617097145869849
25.2382090885270074	6.8846844544060568	27.0114612122787285
22.0749173266192606	6.7081668291361725	28.7869720556709119
19.4984129404441759	11.9792547082959508	27.1698698056640353
25.3790682391605564	9.8542482286509809	29.0655286250776648
21.2045010741569513	9.1125231979122194	30.7353033484859814
21.9354061030203376	9.0394099685003066	28.7744438141336865
18.7928340192750056	5.2173099504002458	28.3999421088378341
23.7041970457917621	8.7198717258578906	28.9103536473327125
14.0999915470659296	10.3842519002873477	26.4228242135994158
14.1691944958678189	9.1291291723907229	25.3343808407636892
16.4563114915267228	11.2206265478433025	29.7363175711502201
16.0402386283978586	9.6395903242708023	25.3006165263491098
16.7834877724605249	11.1547195028318598	25.1874546692939738
12.7975540431178221	10.5675255222041748	25.4178794803043644
16.6879381279866408	5.8734155860309816	26.1759337603249840
18.1992862503926922	12.3436456713117177	26.1354897003683142
36.0885202995208800	10.0172263543907931	24.4396982890217416
36.8792273064500691	8.6557852402222704	24.1531809885241557
34.5083696019905162	9.2098470488841162	30.1222225870464833
34.4246728543286267	10.7480637527133691	30.4486041027487992
36.4057940276517158	9.5712773556364823	29.5607780037902934
36.0134712866452205	9.0420372805372917	26.3457454139225788
36.4227825320285561	12.5934593895770401	27.1680991734612363
33.8149622097906644	8.6108885016963086	27.1081752619889080
32.6692744202052907	10.6163962637978280	25.6173600442916580
36.3230127552144211	11.5364012026946874	29.8549901406361684
30.9224794946176189	9.6265659295023358	26.6595055454314007
34.9110708770382843	8.7739187441248436	28.2387834837095255
35.1130653326917113	6.5557984506444811	23.5014803123526406
2.3621727653417217	18.9675170750352109	22.2815091823027984
33.2411684883848011	9.1228659346037908	29.3099782471447128
36.8346904323733924	10.6398754627632481	27.8223108905169418
26.4115945881372447	6.4334504281418701	29.1281699851796283
25.5577589101452070	7.9680376998421849	25.0128106637895726
28.5623925816243336	7.4463430012453777	27.0095015232124105
29.7051940839341704	7.9508849438357654	28.6787108507867998
27.0707191417154824	6.3654174588532726	24.7985215318673511
29.4152381054275089	9.6185362529718894	30.3585726568850731
29.2944023738933943	6.8506724590178738	24.8983150506605213
30.6589210029278334	8.7744360503581564	29.7255164825359550
24.9252213501903661	12.0031283001181635	29.6919975233341411
28.9027809529729289	8.6882463924761968	26.1167659158396077
25.2265808015385922	28.9141258656872218	15.1442132087638743
18.6014303985667802	30.2395354953819719	16.8535983462577335
22.7052746358847592	26.9605192583126652	17.5792160751060429
21.9302348154531366	29.2326687024937151	14.9898506733538071
18.8229071623623767	28.6246955796969402	12.1869780187206356
21.1461141529611218	30.5901622309188710	14.5474807675404190
24.4148364960750222	30.9059361559493517	15.8393346356405047
20.3894500722841805	26.9235532557719459	14.6603566918531349
24.9354548187620573	27.3628142061306860	16.2465923469468159
21.8843077539845225	24.8848683553838406	16.9780343964418456
21.1213356692759611	28.6745055044414840	18.3794988348931732
21.8890580991731163	27.9584731383364016	13.1539406851084610
21.3757432487027863	30.6000986337862280	17.8852823946526449
20.9514342263322462	25.7640750020807303	13.1552415595230521
22.2749307784264587	30.6618225426120681	13.2954229686826828
20.0221604522877143	24.9649842584354325	17.3889191348847341
18.8771924693212014	27.9791870927167707	16.1238340691184909
23.1871570243077691	28.2374604436801029	15.1128684135886484
20.1886321673240978	29.7618296154597033	16.4272507826185077
19.3907734127682296	25.0318790000374847	14.3714958037137457
17.8763318786459280	26.0392136707928401	17.1232465597251675
14.8100185590207687	27.2640164191770999	14.5219849551566060
14.3440741941400756	25.7710273121308759	12.9500168559061866
16.7524982172136525	27.9782296276796920	13.4307225824334999
13.4194081085297530	27.7166145371889989	16.3949764524895087
10.1795592745196117	30.5133207369641752	18.1862273892205195
8.6364091410519439	29.8297549650322864	16.5567307725537418
26.4098749666924419	25.7368914995720104	15.9765307249619468
42.0514113018450288	28.5156678233072256	14.5926475050380429
34.9315000457934275	28.7680934177235343	15.1084431049924000
32.5509967931944004	25.9059694547610242	17.0415874538996697
32.1810219391700159	27.7884446884160425	13.6641685381802684
31.9001066030986848	28.9728189461921204	12.7087537868975797
31.3114568341066963	26.9127236987912291	16.6655360212479522
31.6496463402996788	24.5414035551648695	17.4289495939632992
30.4383363951207571	29.2483890451254318	13.5261344524466569
36.5976811410553324	28.4957225959198794	13.6045295763869980
31.0793375602534816	28.4687395678674093	15.2706275556499165
32.9512457249475190	27.8056375721914755	15.7421231383201974
26.5275855014995052	27.6445805007932108	15.5932536242578017
8.4247492880199193	28.1209936470383006	12.5204229787967183
28.0892124730574473	25.9015668021775696	15.2254376908964364
30.6801786876643128	25.3207673512732256	18.2586273549675369
29.2838244704068735	25.7156598921693877	13.2883986965058671
26.7196656679158657	28.9360040724217882	17.0036455561960622
25.7305630061951760	27.0376981645962573	14.3490448513836100
27.5747401405011097	26.9334126059826744	14.1370579921446353
27.6459369085115156	27.2923744830580901	17.6896773304264840
26.8687999576316159	25.3749800548147562	13.3097866259450104
27.1384267851604157	25.2734587402300761	17.8424318009939675
21.9495593900928263	28.7411558595904495	16.9977581426670987
19.1455886149956207	26.2887178602946960	15.9978205407075968
24.9465499646095594	25.6286575360979647	17.0165165319411855
3.9163771727393968	24.5510040602243791	17.6405296043580826
2.9371370864491402	24.5799160127034995	15.7473114230267743
42.8182723137919155	26.5625071689470893	17.6847473518422298
2.1800138506758673	28.4064168905987380	13.1687544049803940
4.0830696814181211	25.7084867121287957	15.5634511262084310
6.4359383957307479	24.4072135996650026	16.0934265607203777
2.8248142879221758	24.8669497634539454	13.8460202314436103
1.0897029836040191	28.0768008737950829	18.3251911345965048
3.7209262802419376	28.6960706670999954	11.8026564578511746
6.9629712837903552	24.5996302306377466	18.0969709796340297
0.0715626413389514	28.6019320114200148	12.7998778325214495
0.3725843790183569	26.3089586254820667	16.0243107276316650
0.6581761723888505	28.0081596616204465	16.3507072924192620
0.3343696458353964	29.7947720926906641	17.3549007712725754
4.0010997457754351	29.2048120862520051	13.7968620342859900
39.2964043654515436	23.2576298599705957	12.3010448762151317
36.3036031413580815	21.2122545348258420	18.1950646520346631
39.5848613414115675	20.7385728209559446	14.2124217955059127
40.0496469963219894	18.8013420884164653	18.7249191409878755
41.9291810221744754	20.7840737177530279	13.0161514588528977
41.7478731706811530	22.1003189510329676	18.0695828586302589
0.1981345224340688	24.6932116962849264	16.3161987885038720
37.7194339382344452	21.5079011290229438	14.7501404759513548
36.6855006736183213	23.2723506497745873	17.8656243704773914
40.0347816601214461	23.1012875283225441	16.7499286306264459
39.3506577066580050	22.6469833330473023	14.5877646918641588
10.9635862983022019	25.5914333267184730	17.9658438152842344
8.5749214464942298	29.7111621025127697	13.0468273817186997
8.9398950255308094	31.8818259109358770	18.5689890946641825
8.9492062745442418	26.1027395682204748	12.4590916636973486
11.3881759763124624	31.5924730381742656	15.1574810547870058
13.1759343591010349	27.1654762567445189	14.3575931994401707
8.2948672543205699	29.9604266046852068	18.6959317382038037
10.5417429937193585	29.9261548241878295	15.3831263922156207
11.1901953896749937	28.2534839310324628	13.8920210740937158
10.1063173958865526	29.4310298754040254	12.0233509168377495
7.2171866863622673	28.1229688060486289	18.7529033271915324
11.5063975887121099	28.4801031663969475	11.7358267466064614
7.1283928637293075	26.3735810158100641	12.0152842702173164
40.2812079825536244	31.3058966601322517	12.6565251203362994
9.6090548032612908	24.0264060217497608	11.9211915359350780
9.8632111063791008	31.5794692657202170	14.3389277835559970
10.5906489068384193	29.8130746762917411	13.6939270663971016
7.1141901728021706	24.1719910856981173	11.7027409335000243
8.4601140225518154	28.6274355933111160	14.8120820529546968
0.7629589656286494	27.9311325908572030	14.6486427710980180
2.6305456359862411	29.1239948309118581	19.7978085503341461
7.4809734622762143	28.7690709173395192	16.9170124412005585
5.9319455983192411	25.7773990456788518	14.8468397204282176
2.6093397481159184	27.4954230939917466	19.5782867080899479
4.8493506475580839	27.5945349648623406	15.1795837035858945
4.5888779168845790	24.8003300572430199	13.2141926694205747
24.9241005892880771	35.4239547412350007	12.4826974512047908
30.4166884539468256	36.1234737744129717	19.9122771320142284
26.7724111699226874	35.0032794501745386	18.2425291915518244
30.3019787420521531	34.1310096838597516	16.1508324983955553
24.4007258189833216	33.1251105136039357	14.8385911391982841
26.5854663141081176	32.7073300056013494	14.4422655270769926
26.7878161658596632	34.0970382752953682	12.6948206810207402
26.3108519192244295	30.5699371240434239	15.4863503527325470
24.7145644867176131	32.0299183459669905	17.5122722807664175
29.0299319494400478	35.1165155223006025	17.8166848389604446
25.6530453126461602	32.4989539687622013	15.7838739848232343
23.9788840380735451	35.6528132055749438	17.0331484048857149
21.5495050478056456	32.8445741117595489	17.5436397767291012
25.7004899757429150	35.9729660742002721	16.5715422597224418
23.0028521421887149	33.7656467289356428	17.8588497532130468
20.3754301126752146	31.7680902344430081	12.7236317124016924
23.7799419762922000	36.6542036304737167	13.9798447949570175
22.7688362422000452	34.2670949588579461	16.0962098108814757
20.2647520486813377	37.2205443505144586	15.8871524217102724
18.2318249640029748	35.9106156905917260	12.6705256122786896
21.8503328874568759	35.8379451920964556	14.8639895775175965
23.2009792538721804	35.3305174260844979	13.3205475878175026
19.9764543991466788	35.6359926126096909	15.8904732362010375
19.3712850095977629	33.8842184444113812	14.8382808175510874
23.0859961519973815	31.6524316813917608	17.3285752307884948
21.1428880789566698	34.0481969512629945	15.7542414089964939
35.6436067778258376	33.8349855707465537	11.8424444682166516
37.8881048597826435	33.3422241015960523	11.5115057891404806
39.6996299869376728	33.7959807145177251	12.5562048523341367
35.6885364293151071	33.6283764958082259	14.9792931031902619
41.6030460571246365	33.7504209024974600	13.9590413507384881
37.9859806738378580	36.1565933651919735	18.2843842867817976
33.5442526770714977	29.7538710043094241	19.4743070030118410
36.0315409165407630	36.1794495573498054	19.1048174542908171
32.4650697132170123	36.4978629788672535	17.3864625782995965
31.8937839169309250	32.5413849196285554	15.1995367331989382
33.7580634440395357	33.8958606318424174	14.9476307338000911
35.5345970717158650	33.9178442484011384	16.6086713891648046
31.6886870107648804	34.1825702075877302	15.1196772395399854
13.0573193599617454	37.1427297856577638	16.1252313168107086
35.3614133205485572	30.9040687304354833	18.4897941022381715
31.2539718109612217	30.4753042874505269	14.2821872453613601
30.9748495794670760	36.4763269485374764	18.3055366859362465
32.7206609183439738	34.5638952850907657	13.3490463531963890
36.9546902282580945	32.1464773190715718	14.2051198559576140
31.0881142232037533	35.6234988471401408	14.5888817703841909
25.9051096750934668	33.8403642851932744	17.5404330810898585
25.8089283737211339	34.6172083193928515	14.8368964770054852
24.2115474337471106	33.0794754936215796	16.4527315364493951
30.6126999298690237	35.7419495042421005	16.7509144732727151
30.3170590202922376	32.1736496315467733	15.2833194025156427
28.7106691517210599	31.5128927675189558	16.7332268426472055
2.7396055448158281	32.8026081462903250	17.6954779173996606
7.8776802030155038	35.1938249341069067	17.2284229535787006
9.5300233459934027	33.1584216892652819	14.7803182813950205
6.3311796093676840	33.0079772609295503	16.9915843240125994
4.2377830799202698	34.2820441247606880	15.1892960693433245
1.5818144819323561	32.9973220432196044	15.9621578452474377
0.6882799127386496	31.7169662543755706	18.6257986819099202
0.6577802341746474	33.3866493372370243	14.7708727415217922
4.4404296948989286	36.7165322194064103	18.9450524478935414
2.7614127368635262	34.6053025865060775	16.8283201484769194
1.3462482241841314	34.4687796153517994	13.2796548587089625
2.6002264287573027	32.9012338864897416	13.8772265567870043
2.3398331409369253	34.9306497787318762	14.7735890999027948
11.7541168774991700	34.9347485921648797	13.5990009532488436
4.8324929116454047	33.4829049374932666	13.6170229031130692
42.2033166252370009	28.5370946435519883	16.3752115518456058
37.1832840251268877	24.8489785368805194	16.1612125278819327
41.7485362010131311	30.1665590331977143	13.2610494090352660
41.1096056301547463	26.3259999088069065	17.1075185374816172
41.7316156432351164	26.2276336446599636	15.1369817522257541
42.0635439112286775	30.7950671005920640	17.4871313802660993
37.7737230045806029	27.8422275256741578	12.5995170579441105
42.2413040356830933	31.7682448225693044	14.6179411260745855
41.5283332358032808	29.9371062441270936	15.8487125480452420
40.8525419105878811	27.6141911286142125	15.3795228128544998
39.1163484407342210	24.2437513801061080	15.9552925131924201
17.9938431599904369	37.1053288555850926	14.0976236440605938
17.6185693708403157	37.1650400213177576	11.8992685406442344
19.2182711119955982	33.9410345402270934	12.7157501187693125
15.5454606480323019	34.6225652693585673	14.2565534743545399
15.8553127624356929	33.7098933698082845	12.4915805716445796
17.2049415263618108	34.9081006834849674	11.2083592040592475
15.3178027769416705	35.5769944346089417	17.7693793022416777
13.9087955277905841	34.2478714682751928	13.1108184787781408
16.6567129119448580	36.4004116180317325	17.3765841338348785
14.2340435497914122	31.5291616191476365	17.9251179395591507
16.7655588720698567	31.5820478245428653	17.6991621275086928
14.5282867957587438	35.7174786750109732	14.9190398111142013
16.8695235793975513	36.0464307428004460	14.7064549256307178
38.3738335321995763	21.9213595605488081	13.0316416995327913
12.0056203591048831	31.3127650932915742	17.3435016464093152
18.2138268677315338	37.1849919713094792	16.2644626153306859
8.2008758249055163	34.6858756808134032	12.8365895342889029
6.2820647106673526	33.1617878744393195	14.9895267809404924
7.1462464133416734	31.3823324412433386	13.7718700794426550
9.8988763765257932	31.4367416813628537	16.4574850041970109
11.9616769205965721	33.3643326282458403	13.2628810249884381
9.4521533715328605	37.0124091930665244	18.5136449448334481
8.3881068668517891	35.1095874307865827	15.2718327135325662
12.5905947600328556	31.6453632111678544	11.9850652414920891
8.1219544367395375	33.5631585790514464	16.2144989386827802
10.0920009587934594	35.3748394383115610	12.5709769474664768
19.9337563676872449	16.6964975550115433	13.8918683699929879
20.7232614136752105	15.3672142385564214	14.5021533210250002
21.3175167546036199	13.8805301073195047	16.1700010225992195
22.0787610091053246	19.0333791138046209	14.5420065503581863
21.0660855877937259	16.9493012545506225	17.9826373093696184
24.4607146921944150	14.7982446845555202	18.7870934863960457
19.7507677481038222	12.8440024320364685	12.5777877708788726
24.7027109055255103	15.1805638011734665	14.6278540103093562
23.1878324716665496	16.6133601927301413	18.1325618332996932
24.2980349618795479	13.4043076631042695	15.7073698924194307
23.4634948078813963	11.6511346342814051	16.8611667083046477
19.5130576439555128	16.8728775632855061	17.5272334370607190
17.9966247982188179	11.6431679195599198	18.1302399943079209
18.1393492659990407	13.8590560701652343	18.2584895738585828
21.9334807468146415	12.3680267790487370	17.8177939554571054
24.7212629129422652	13.2806608338849585	17.2296552070055213
16.0782497488941267	15.7473245843359813	13.4102911413241905
16.0327734280880421	15.9826646946291131	16.4486985808148738
13.0312961001746395	15.5292520396410332	17.3837855821826892
13.6899843925042948	14.0629913042561920	15.8722695420381346
17.5344178089037115	16.9012515516508159	17.0325158494735689
17.2256197762202952	15.1921533373130959	18.1256786104807084
13.4947557550953832	16.5587850408282122	15.5677074583812587
16.2368404014738950	13.4658234430830905	13.5346321823034970
14.9916872460672241	16.8854059912665981	11.6565483064632822
15.3916803288137150	14.2978594321392141	14.7125298632422812
18.1907912783522434	12.5350006635529336	13.5571252049286706
29.4889185237460012	12.8103918131640722	15.2903145077843288
35.1679489389914792	16.0496569871435319	17.6263666461571624
33.9683436671436922	14.5056717374591777	18.9804446635993891
32.6953889766111487	14.9796472694473799	12.9532877466538281
35.1687249453329116	16.8951384350017584	15.4355304436488261
35.4878153446909010	17.3435165371472735	12.0500388201586315
34.8783907589782487	16.5535646697663807	19.1634333388266640
30.8733650096615619	18.8197541160376751	16.7084311670613488
26.4331501218923464	18.2280152083749094	13.2687143745812683
30.3248172075674454	18.3879838714665986	13.1581471850473708
28.6040964737601087	12.4672981066169530	13.1001508171236374
30.3951497873182674	16.3750559733960408	13.9103006757409027
26.8470475014688930	12.7743320110405669	13.4833994196889542
15.4937337281796346	17.4965225033622573	15.1534299961463876
27.7622288784420519	13.9627144203289912	14.5789857494219603
29.5312471456643344	17.9778258191886060	15.0346035969913157
26.4843099846583989	15.7057425048676951	15.3627480072166538
29.1417543762693079	15.9287420172555034	18.2633272901919526
25.7228876174567525	16.9025168614900601	13.8008679801643286
27.6392220366838117	14.4299872051336653	12.4390186268107765
27.8758512455604794	12.0932352555920684	14.5344142399429259
26.3676424227227173	13.5661764997213528	15.4983709963645833
27.4155293984050807	16.4365768716979339	17.3657408354350835
25.7507846940744010	13.6833824199528316	11.9221806680682985
27.6590689723998473	17.8772147244655351	12.0733920734211040
20.8729602766648306	16.0577328567538551	15.9335471345400119
37.4065829133176351	11.0679309699480992	17.7905832665811658
1.2628398412662325	12.7315515731982725	17.3950642209801458
2.6989740915534677	12.1890254674860756	15.7877507277809617
4.5048134074600004	11.6799080640764537	15.8607702504642916
2.7868897994659441	13.2397553427357835	17.6948307521491905
3.3346377578935447	16.4915153415102722	17.4056275086978047
4.7801516432823039	15.4437698470805138	16.5595439967804126
42.7864165516171724	16.2198551781375926	18.2184924941071884
42.0291786120947393	11.2025534277855030	18.1432838252385764
40.6895022020202930	8.3135068748246539	14.3222484053938270
37.2444190684284635	9.4662211483430880	16.9724632904094577
42.6741592786734216	10.1311753684754162	16.0530336811993131
39.5087774342856335	6.5019649640247215	13.8120494288790159
2.5351575070211636	13.8833251786877749	14.5969093063592350
37.5328898971986149	5.3023099224358061	16.2842806922944625
40.8585349223464078	5.3955837979269194	13.7912441849869509
0.3825208976207373	7.1927718812488175	16.3489288453166282
38.9772577995863116	10.8427434740244095	14.0285408068803417
36.9871836144901494	11.1030341925543823	14.8235083816290079
38.2131155099023729	9.9271895574780693	15.7990173695527876
38.6235256335846628	5.7276804970221216	17.3324081534702295
41.7762024639351424	11.3989995748082045	16.5216717676693676
36.1733301664154112	9.9702548014596317	18.7417405412764957
42.5345191901421273	9.3688474030122908	19.5471691499899549
42.4697995225491667	8.2876404113620126	15.7232686966244266
39.8667716292389329	8.7393936040028262	12.9662027446532431
7.0382563710012773	19.3382129198695552	15.3653596030248298
14.1041094936613423	12.9468114255909583	14.0895041510915018
13.7821725808508777	11.1432010876662346	13.3527283593966306
9.4228354736909896	13.6884196419579531	18.2616994738504381
7.3112567268818847	13.2539825142791283	19.0406012155519555
5.8954896538156385	13.5790651890986638	16.1543604753169205
7.7985487186316744	14.5228219425909053	13.3714104396742144
9.7150207053676514	14.8262922005448168	16.3453980267259205
10.3804057466837989	15.8523028295552706	14.4846512081719556
8.6885186684023843	15.1012223325155652	14.5572176150739505
6.7359337096205198	18.8503172429405232	11.7104245781809162
11.2080088349202089	16.5050959443586081	12.4128066001101249
10.0089990228272061	15.1080902642679433	12.7337118090239372
36.0630195507738236	17.4748247010975781	17.3909019763837982
11.0187266276401914	14.0078941919883739	18.0532028208543842
5.6551804195772002	12.1984981334699558	17.9900920009224059
6.3586093936462804	14.6574784540220264	14.9643345365483871
4.8225145671731360	16.1224734610534952	14.6392584669217083
5.7980306790526877	14.6918095877397548	13.2067519736840513
6.0453844992374934	12.2185059078075984	14.5977485491865497
3.7141451846095297	17.1427813663696220	15.2438593768434476
2.7709178084042869	17.9068079835683562	18.2650218069083152
3.7248732128445918	11.9421003615016534	14.2284324246735725
5.3191514085095735	18.1920501666717946	20.0605888087649227
4.0182186098902664	14.8122500943248383	18.5991585532050507
1.5419892885799851	15.9986117756118489	14.0944740539698792
20.5690837017831747	23.4037956289046001	18.9357280937434886
22.4009162276769942	18.7308274929814367	12.9675678432241348
22.6517567870598313	22.2402485211175289	13.3353921003059863
20.6092092436884968	23.7513656124785228	15.6688871950884110
19.1696912254278935	23.2042299090583057	14.0884714003642113
20.7140319842104965	19.7601154686465037	15.8571162404271693
21.7036022518736331	22.9193459332789793	17.1311617563043974
23.3294868636548181	20.6732995150363514	13.8134522301096663
20.9487976398191442	17.8228857124446023	14.5249899258346566
18.4259103432448690	21.4840517632436026	13.2011499742120684
23.6715922330148132	22.1589653070077333	15.0698062941453124
17.4501266424488790	22.3805222554706233	14.1274231185784860
21.6470856490800116	21.8587668802106592	15.3241453908054890
27.3871286362331325	23.8288958573619283	15.3753469582849736
12.9473374505455112	24.7297476330700370	18.3207523457743022
15.3908478805470548	22.0672717882215714	14.3855215248107715
18.3016818222011004	24.7883085037121234	16.0699415380037429
15.0645029250920413	20.9284705100764334	16.1740209338937397
15.9792771697851208	22.5754198782199289	15.9317740720989498
17.5124768167952816	26.1765153818086773	15.5001589116230267
14.6542465049119528	22.2834871423524845	16.8899546998081398
14.1278492490703389	23.3123346382582213	14.9710809809727312
19.0323037297852160	18.6036307217446577	16.8369103057655742
12.9893959654957563	21.3046524834631334	15.9736643792619137
13.7952990471401424	20.5088680064627304	17.7670505015329177
10.6811939473651094	21.5091455011966808	15.7859839122351371
28.6677525922191698	18.0461590723423235	13.5028752748851364
36.2190611847245165	21.7242142272793366	14.0732806682913481
36.1967754982839836	19.6177719274154825	18.2412372698933609
40.1334697134111664	20.2536506250893780	12.6767766346806194
38.2008042162936405	19.7895129220712462	17.9707624297155526
31.0462682779133416	20.0947391588696433	18.1396195788917005
33.1489070566783397	19.1789834872798970	16.3055068016952767
30.4406266989431487	21.7470501343211104	16.7825487947838603
30.8664760489091528	21.3560651290331798	14.8522397091826264
31.4477010125416783	20.1805426469021469	13.0447503124232984
36.2301363686641125	21.9322439921152252	16.3453432407700134
31.9741020684539734	20.4541854994763881	16.3497938034286392
33.1384094309120698	21.0128886587635293	15.1483900649912737
6.2302637473828915	19.9014215950245479	13.4676935753463312
28.6180243411443449	21.9816091388221366	17.3632956955855384
28.4925283440098163	24.0165663811909198	13.7019582583891690
26.9660181117615600	22.1836780153056203	16.1089155749229178
25.7323182163857531	20.3011911273663479	16.3540603432460010
23.6326230664876213	23.7880093088145586	16.6946713643601896
25.2007555148837596	23.5286015152510579	16.0862666334299398
29.2885843469898290	19.2243849781783496	16.8632446564649250
29.0008290298452884	22.5750732285195141	15.4667585766311966
27.5185990395009732	20.5064568624117278	16.9802073670116904
28.1808531327038665	19.4234812007182533	15.2607407576833385
28.1727711208267628	19.6111631884534532	13.3370662168401761
29.5864487114209886	20.1034793275910530	13.9412527361769918
38.8539942392568918	17.6898247331898126	18.5188904500593203
1.0442127757124835	20.3879338142800073	12.3663438206698206
38.9966726140078634	15.0245861810117063	13.7373355038331741
40.4180708911740680	14.1147735032686956	16.8992646418815404
38.5563327901966915	16.3657568516926197	14.6206129605001589
42.0406520828315067	13.1390402595742426	17.8074306009620358
38.2998797426383817	15.6505406175185851	12.3589764805387468
38.5089573379976571	15.1376912199662712	18.9633185058202294
40.8075529312800498	12.1268651030291412	14.2304871546763181
40.2388023552292466	15.6226194707682495	15.6319816082748382
41.6491891335696423	15.4497091533258732	17.2427150921818395
40.3775990422838618	16.5606299004649387	18.5634191799834056
37.6218130654516116	16.6075307243776358	17.9313208819373742
0.5830899424049572	22.5514255643202866	17.0837702109022587
38.3987010854282644	17.3903589188303691	16.5695112965023625
42.4000035022874258	16.1129734660418613	15.0332157775659674
36.4524385548780572	11.9219290995797991	16.0458488484425992
39.1525908595415615	15.7190554236087277	17.5324033596501430
37.0475794891725556	17.3922496080745645	15.7160745487612292
42.1227052993847977	12.7119511046052480	12.5996162995923147
36.5460523526255798	17.6533565055904518	19.0181597909276370
42.8267934010699207	14.3190181908462861	16.9873122350923111
31.3901481261247071	14.3114670512081972	14.2658792074074174
31.3950659111334858	12.0489399573320402	15.0490543661435847
36.5767542995672272	13.1108829690618585	14.0897419017381491
35.5853253752855778	17.6965183911030195	13.9702547360189442
3.4547062812578844	19.7815678834558213	17.3432127326454442
8.6701837750795505	22.5866385420534641	15.4674072041498327
7.6183644506464150	24.2686438503348931	15.0078859839001257
8.6580986991843147	18.7355331167183010	16.7762267778232719
11.7615501182985991	17.9996272322348148	12.6223623631794286
9.9083537001461455	23.4352534212852426	14.8366245147100457
8.1583032044470727	22.8471233417934911	17.3269916929681678
11.9146107548356763	22.9148326947431897	15.2203378275814174
9.9033717889908264	19.6904232247944506	17.0644127484042052
11.1704736611076179	23.4326500887871987	13.2365755084790369
12.1826463473524313	24.1956874928817101	14.2766755724007357
10.6626099991851895	18.4086124717181860	17.6158560781387230
1.0531598104497120	24.4650881987642137	12.3842181185852276
40.7809037474972627	32.4317758825425599	17.8004880792903748
5.4086074112401246	23.2119723474832149	17.3525278010901687
3.4901832717835219	23.2047852303651183	14.5478825036676493
2.0485294127838465	20.7866812237863670	16.5159037455334285
0.6437502986619963	22.4600996332007021	19.0582819944663946
5.1931254215496061	20.4580076966529454	14.5600754826641055
2.5183952165134245	18.4598833666291071	16.2413415026898740
4.0631213160053230	19.3934011153756671	13.0667916450531472
1.6779988504395056	22.9587132683398210	15.9120336869631664
3.1034487854574166	17.6494034165978739	13.8511382171933572
6.6735581757521700	22.4403466301587784	16.0034107874318643
4.7292117173415313	21.4929351292539437	16.3344600076215265
4.4821235066663689	17.9956872771382521	18.2591739060402745
19.1057549935025470	7.6855611303190479	19.1244969617274485
28.3643845514473654	11.8828586692959508	20.6526094137091043
20.9436582305792243	6.7059338785006171	19.9852301614838339
21.6180709110286315	10.6855635724629376	21.1926707364071376
25.3990811840775876	6.3803328153678462	23.9277516589381030
20.2894220027952947	6.3082977588007925	22.3099319019236475
18.6948111096522958	7.1182849979740723	23.2017044281976403
22.5422998637218690	8.7469007776899517	22.1749039862579131
17.8012826601108962	7.8078023972092501	22.0880586473493814
20.8838752712310303	6.9594053699875378	18.2760660295022568
24.9211537162861987	11.1025823617781167	22.5995903623253156
19.5304727270889487	7.5407029769760996	21.1051430877669937
23.5273055082854121	10.6353488927449291	18.5072112420395882
23.1690201014440582	8.0376741883972613	24.1580560062455412
28.1365250284689914	8.9564828087934849	18.7194728176253271
18.8648713746268335	4.9532457078819681	22.9397277437854754
24.8826672967391325	8.7547071300240464	18.1820168288153603
24.5883286493415376	12.9220744118765847	23.9560912812739844
23.2290922156083504	7.0412746660296515	20.8070226357015251
21.8999325623307506	6.6209200506296177	21.7355906045297935
11.9338948102205240	7.3509003717941281	25.1361107505126107
14.3555667883291243	9.6032455214057002	18.5990869034706741
18.4094294224603345	10.0341462446702696	18.0638922116700407
13.0646576224109214	8.0015800372307808	18.5969442408127641
14.9550843146348953	9.4750518706826288	22.6243915339826636
15.9053843526123302	6.4136975262781997	21.3461739233459369
17.7317796241286665	8.3977522170993861	18.2334350924618889
35.1933812641725225	11.0757263295793038	20.4641541386096080
38.7969472015899015	8.4739846803080798	21.3159306942758171
37.7640952155758498	9.6869749641271916	19.6984722285093810
41.6753025522694074	7.2529148612680547	23.4937277093211847
39.1605587140196789	12.3957108013685637	21.7198824865265898
39.5315880952434995	9.8239850543273839	23.1039331215609707
34.1892844459267309	8.3918133112896847	22.8189423292568492
34.1113914498598660	7.0268885041639368	21.8767948236763665
35.4731713995106830	9.0647664125079181	20.0211386602012951
35.9177666977981502	10.1787841923323423	22.5900034442358653
32.6579042100409822	8.8726249654105818	22.4593137041834829
35.7617947777518310	7.2937160769043672	21.5347351842160428
34.9147830450107506	10.9739365697907303	24.9924693060912269
17.2412883479895029	9.6830210168145605	19.2924758423449383
32.2748027628020964	9.0040222429454833	18.6160757309079692
33.8920644135974101	10.1737474847060536	23.9506067794622943
24.9274240529676483	7.0814856139715534	19.1808808313819696
28.3820355628716321	8.6365307855956850	20.7892719969984583
29.3115977110489005	8.1967370227674117	22.8796360352512949
24.2279866745960071	9.1438251646903890	23.5595085798231665
26.6882847380661126	8.3364529092712942	19.1665408140832589
25.1869598667299215	12.6767179780129986	22.0039607956152388
30.1636375331900553	10.0899482963559617	18.5146329832357281
31.3762645498132819	7.0712661543082280	17.7724527403326888
31.3791865509463399	10.6561371956667656	22.6732293048607829
30.1688763968376676	13.5340476859823227	24.5428927255531022
2.7117839974027289	10.8153489653095978	24.9642930171954696
12.2233332836605939	7.3009762722656335	22.5170053203774856
6.0241065684283956	12.9814920611444631	20.0486245906583029
7.2850999945641943	6.5233326127914850	22.6347928210598361
8.8769100550905549	13.1464340966440680	22.5116747709598179
10.7460054606473143	7.1509630582480534	20.9913267418562448
9.1873419016473221	9.8596479149577245	18.8947976429790891
1.3233720472452510	9.5056529477775840	20.5571604625121367
5.3478742004442079	7.8562168664002909	23.8207569020028842
5.5598046613658285	6.6197898410137972	18.3982193068356743
4.5622719094863102	8.8014441315759271	22.0770428281477145
3.8899567030941422	9.3776835702803254	23.7841038704203704
0.5477674411895028	8.0507247198459932	22.9828420985071382
10.3810402726306847	10.3135929527605423	23.1574108726917096
5.2509369261497305	10.6206894671145964	22.4896438142842285
4.8603682479778385	8.8595882005701014	25.5069642384775008
1.6887620427215675	9.4353388880701043	18.6401039498532946
1.9429866922389600	11.5255709204893932	20.8604692666683320
6.0029155313377105	10.8118221089318567	19.3903621125032082
0.2742394142008775	11.4504777227720531	24.9614074603653897
2.9297944453537537	9.5017587456936941	20.5864171892082908
42.2205526516714755	0.2475450766951028	20.4332151326422178
41.7395456542360037	3.0168364707326254	23.8807343589220693
40.2930019958187629	0.7128931626169759	19.5545562587685247
38.9837158156069918	4.9845226875588899	20.7009480196474591
36.8892828948191038	5.7677892267238340	21.0081526295811187
14.2363116261397771	7.4181776723461441	22.3693403530177903
12.6304064884520599	7.5298477208625227	20.1137324854976711
18.1581294349121016	8.8968410756138798	20.1287426370222562
16.3717156170533400	9.9360634921237914	21.1575635174740491
14.9877712993844394	10.9079791035338776	19.7873514621924329
16.5835808486810095	7.6277025243660450	20.1046363608631182
16.0284842833332206	7.9864062392645083	22.1123446549365035
13.3588610822502272	8.8939576433173766	23.5343440737222522
15.9782265015936478	5.7247389319639108	23.0433185905405047
16.3131880618478320	11.8029136955997327	20.2610563477207180
14.6074172027508755	10.6926789609009933	24.7058666077830225
14.6076371079669709	6.6678484658602475	19.6511083869457401
12.9547947377958401	9.7443367339755262	19.9492923230417105
42.3548834872205333	7.0648350429148881	21.5624279006477195
12.7793201863345747	5.9159602447730331	21.9027902892143373
11.1194918707936292	8.3043065624309591	23.1246136861911786
6.7671240921727618	6.3065031117137664	24.6344609314354024
8.9351435511588253	6.6932525103859195	24.3924520907421076
7.0576382537739288	11.6759074175416941	22.5956876187444387
10.0473202509848960	8.4906916806559920	24.5126539674094523
11.8771656401370418	5.6771998459654398	24.0591029205786455
8.8161452297109051	6.3431206692594531	21.0012454475391550
8.9701743307989386	8.7440228974671612	23.3522332253481366
6.4697968162776309	11.0592557495499122	20.8490413221937736
4.6439176258498920	12.2188847807556211	20.6825628125806027
7.3661559033907809	10.3037268639857871	24.1935307793635310
32.4183480970153823	13.9268638863812946	18.3427618626203675
34.7971012944425055	16.8208401828724234	24.7267011482805756
32.5973258547032430	13.4413020217476440	19.7780873032768660
34.1532436122537462	15.2903724010764979	24.2712711114607238
36.6381551532776726	17.8547834834438177	25.2557102531079600
34.2109198671726702	13.1243655909490577	20.4705048813777033
29.0238006975673066	16.6468805636244674	23.1547235980365045
27.6682211692524795	17.1291498517868526	21.7779410631835297
26.2865497395664001	12.2716660592562086	20.0331196178698612
29.6351850766944338	18.0615236901653553	22.6966617895789717
30.9885595437816193	12.1686112819542132	23.1840560439526726
26.4405429624748720	16.7343553330084518	23.7622807549494546
30.3726489940978830	13.0173715305602204	20.1340052713955657
32.5439778556225292	12.2745996091408429	21.6238259553658487
27.8847717919931988	13.3816072640177008	24.6353210242909597
27.1369440897041407	13.3969341989710813	21.3616093585970894
25.1986124435741203	14.1982639751376318	22.5943069342955596
29.0297819535604233	13.7922373289780342	20.7617742768922575
24.9569974401080756	16.2729025073978697	22.7812742772613319
30.6861859595929900	14.5611036843300834	19.2835545728438298
27.7624921574484915	16.7254479838859389	19.5077693464330189
24.4611569740165464	11.5571156329695945	20.3469518309837341
27.5938685799491488	15.3981174566555996	21.1616019413784322
22.8660555066322075	12.0189735622620049	19.2656048581368573
22.2956877228316017	13.6296367248201484	19.5784925853065417
17.2884066647453523	13.2229277361351514	19.5471120824044213
39.2936596479451268	15.8983839651511882	23.5473144964041765
2.9683557425121658	22.0485386110074586	23.8607256528558125
41.8756670789599568	15.8386336154478968	19.5376140505281874
38.3865957883434987	13.8310747154216163	20.7662821665770032
42.2703669132547830	16.2232544268384196	24.9564125810898894
39.8443730732467785	13.9548947816045619	23.0633941325249694
41.6502385563483486	13.8541466846242116	20.0224191025936449
41.0259735797950071	15.1352820490864133	24.1141933157117982
37.7737018351783291	14.7520893757960785	23.1814368669275268
37.7179275908738347	17.4057043793029997	20.2717781356195736
39.9722823295235230	18.0258685496984334	20.2700138080892494
37.1129916769604336	16.5072464350216137	22.5934679093012498
40.7635168068253861	12.6811510848110576	21.5155097207706838
20.9789175475165379	15.0881122692520062	20.3670112841540316
38.6082031048870604	17.1255155105873875	21.7425893214423880
42.7051625152873484	15.6403325241703008	22.9159487769389649
39.9827234685659079	14.9702721238306218	19.7290975415224210
34.2062311505128989	16.3177715043222911	22.6375070841171713
36.3684707714584690	17.4558779212134958	21.4002795906944989
32.5205280229808977	17.6429559378841567	21.6180278810360136
33.4672741128769573	18.1609705914588275	19.8838396975952705
35.5020606852425900	17.9436661868154452	23.4121809474348979
33.3074727836004669	16.0492638595560102	18.9399899978048154
31.2662349101938553	17.1592942338015320	23.6124456830995726
35.6913614225917044	15.3604175777601668	23.5689713928119602
33.2540782553172178	17.5694541689210766	23.0776036578100658
3.0815760995425023	16.0394100387155127	24.7113158628257565
9.9017206649513412	17.0299461997469059	21.0052042347035943
5.1507028430838515	15.2962531255020302	20.8086079701771922
8.3370334471661049	17.4619671214943892	21.8455471008790809
9.6245894585068061	12.0584961907253376	24.3774249839838184
11.7613244963259689	15.2200234725867070	25.1154740623125541
7.9090410405831175	12.4809874602740685	23.6914978995605452
7.9658078355044939	18.2621402443132901	23.6086644358216695
7.8223273451921873	13.2933265552618192	21.2712166081532210
6.4022452020690572	18.3353324722122579	21.9618532945354694
2.6945314332040700	13.0717927454478478	19.3461677675880068
4.0173724865096805	15.5617173431159816	22.7090760427712901
0.5832439675775810	13.5075893176803863	24.9173771019574843
9.4091271270405681	14.7771809228388662	21.0566154310466409
4.9319124971902299	13.7377617044008300	22.0401757815179451
4.5940064712928868	16.5256337122984505	19.1458211522499617
1.7642319475956223	18.0672273920679238	20.3586983596585043
4.5025645084856318	16.8924282020087695	24.5522416041704723
5.9044036901869639	17.7615540639704932	24.2713230909533060
42.7779259565864862	12.4383734978363023	20.8196522177418224
1.8202793538298145	15.6942086712501219	22.0801612811747852
38.1920419335395636	6.4813469360512297	21.4533802837957310
41.6791440492491532	12.0562576370549426	25.2444395991287713
42.7563334580816345	8.3085569651767717	17.9460766905239240
41.7186177501612008	7.6659665420537459	19.9153364002939242
36.9891609070645728	8.0599580492292162	20.7176789017929934
17.4491088067205027	12.7606876290084461	21.8146610181354319
23.2136537815995680	19.2584145565349019	21.3740946476434175
21.1611983601490259	12.6990479174444530	20.0560635113341625
20.3044490788166989	17.2347598151598582	19.7524121993063275
21.8122421821332857	17.0987388470185095	19.7078245094303881
19.6023040275442106	16.3146889628354614	25.1251551011134815
21.9393781352136585	13.9498424785256656	22.9644079533407606
18.1259379480278113	12.4631199747964878	24.1888893430540080
23.2381486608087862	13.2346056364443090	21.2653064173113755
24.4208184750957926	13.3493738327801506	19.5472387788629582
24.5577039058922963	14.6121579284993270	21.1599649297752670
16.4726161471620216	17.4996902603202642	21.4997044273705704
14.7228917224238049	18.0404960281973885	20.2975969955794469
40.2213361442965933	3.6175578365070189	23.5696052594726915
12.4564352988643545	17.0638957881461089	17.5169805458601431
11.3862938164378367	10.8258335157920325	21.1785887159530333
12.8233861099923878	16.6776676655967719	19.5192660809644103
13.9695061059328207	19.5839385234628622	19.0803004648692962
13.4536907449199159	16.2923574012049883	21.0413257973663406
16.1745707438596540	11.0206448745124472	18.2086042636813765
11.8316848269903883	18.9497848292376503	24.2430043227247118
16.1820227153072089	16.0624773760242832	23.1533723431416121
17.2133597526947852	13.9592957015207180	23.4255008284031128
11.5555662878490129	14.1216043329510654	23.9518076075401964
13.0630407620389359	18.5036681870282216	20.4902793455801309
6.7672785176699435	16.8948138653383459	20.6159680073684370
29.9008670518504260	37.8180325484330879	17.9408628943564672
31.2669449068902345	36.6966550343382139	13.1080021025815423
31.2495868436446145	40.8450676697590964	14.6842620815164580
28.7791069549422929	1.2178823960524126	14.6796472456502478
28.9126243146703850	41.7107948895919947	17.7053582747644533
28.4086479176523952	42.1569310833982129	15.4768021305852965
27.7921299560428849	38.0833564831957716	14.4282789346210976
30.0626193544273406	37.6093935356733695	14.3769044160297135
29.2014252750611654	37.9343532819909797	13.0973562289372918
23.9771774805691003	40.6428606765087324	14.4688078391901858
31.4211004561485652	40.2936523143659784	16.5447334975607241
24.7906570377020543	37.8366739973769342	16.9172953860701618
28.8651231639045811	39.6035265539007781	18.1537358199359815
27.9984650676884357	40.2035532047728594	14.3036351469106204
32.7223947408168243	0.6464652245411768	17.2653205833311070
29.4652153143246949	41.0112463215929921	15.7306283805389757
30.6639589839279303	36.8787726482165326	11.1952193386241774
26.9485356940160479	38.5627321668370087	17.3835099969991518
21.3034052267722700	42.9923180224147998	15.4495800241794932
23.2617803315045961	37.5942692382693835	12.3175838255645225
22.9185942361573147	41.7003478870681050	16.1180111862455568
22.2924942292386739	0.3566963357151148	17.1394549137360102
23.5341012763749404	39.8374088261774375	17.0134181871735812
21.5573634190456502	38.6850319751435379	15.2565981636722192
23.5496011023879497	38.7341690609172815	14.0685941297633210
19.2077639528255872	42.7563429267338080	14.9287365571540303
18.5591466990978446	39.6038938201777029	18.1996969279931413
36.1130075392983443	38.3869589391186281	11.9684990459684144
39.3687960785948192	39.3663698027907287	12.6313125790919312
42.2167504602714132	39.0765410762608738	16.5779603708106436
39.2761694075887675	41.6773189693483772	12.9028807163875321
41.2413033187786482	42.7271140146481656	13.3620748396084021
39.8511665260884200	40.3449878879917208	16.8303946117293144
40.0553216983568703	39.1902515115417600	15.5391522207920918
38.7931280020628222	37.9613990806812538	13.1301545419703913
40.1010966836870608	38.3473088627819081	16.8648936941439516
38.5348046029405822	38.0756898541381403	14.9526096564086526
30.9974818427214593	40.8155452282513380	12.5655311999986612
32.5577321140585596	40.0886573030947844	15.2259952627096240
33.4849150006170859	40.6612347804255521	17.0636462368487685
13.7801829072790465	42.5698300484586625	14.4372538097287979
35.7280961285421554	0.6256314629640964	10.8868904675670919
37.2234869003982993	1.8262533419951739	15.6590683372272270
36.1362544234139165	38.9847789580236181	16.4229832984785169
33.0010627747481422	0.3388811237478712	18.9344711358286375
35.8673359110753012	38.2841593229038679	18.4656877985825112
39.1566983964375339	0.6089382388476269	15.1903789449089857
31.6695132300213089	37.8658472040292722	19.1272735774311542
33.2066188891413461	41.9985846909980296	15.3968185122784575
37.0182867215533875	38.2101417659782925	14.1146944056829522
34.1011783024059483	42.1141709199952814	17.4903626810743980
37.6984874509726282	39.7164310981287656	15.7330545315882571
31.1732261611540373	39.1950816540460281	13.5395147263904470
3.9606361679757378	39.1606378331774181	14.9718704935787486
13.5396174251582817	39.8426248970994905	13.1211019513937792
12.1592413995799564	38.1593132715965098	13.7882660016843612
7.8038073682958862	40.2805787606288206	16.6854319205844774
2.5670475074404235	36.6080924209131808	17.4803697486636729
1.4603553027343326	37.5499482939471321	11.6018168479697987
2.6631653514478772	38.5262236404252718	16.3319199103827728
1.1149239895287588	36.3495455683075477	15.3532424654848665
6.6964324515383149	0.8974748543872717	15.6712305760538246
1.2483402640146521	39.9431675976765135	16.8288496060644412
0.7687127258164644	37.4958716803183592	16.8990737436243776
2.9936446351223074	42.1788457118251401	15.0547283373878216
3.5907291111297694	42.3422046678681170	17.1575398385045936
9.9633378153864527	39.9351948705973641	16.9121066081494114
2.9891053620658758	40.7707558741459408	16.7631921328867683
4.2115965049991395	37.7051792922275837	14.4495308552916448
42.4970786191052312	41.1976476244088232	13.0162122460780836
42.5357289821428637	0.2918691776896403	14.1036870520406641
3.9457500839689583	42.4809143229877506	13.0111212499265747
2.4300858377101893	37.2265842183502897	15.0734955237598172
6.6450191456903216	41.5688743673418060	15.3090830079914397
5.6924585860956842	40.3489439751086039	15.7398003868991836
4.0710807654293060	40.5877533194071347	18.6118094446866102
0.7796764008745398	37.6533733529786474	13.6277199553542854
37.5794038148005782	33.2842916741915502	15.5848843946480962
36.6965665003296664	34.5866673777281690	18.2459343182584384
4.6056792417491677	36.2435124444699994	13.7788595720951808
14.8089426074950659	37.1238091943629271	16.2942993736811310
18.1492895931218676	39.5066850209508971	16.5482040054671238
18.4706480502544075	38.3687089811008732	12.7820619315444688
14.3969307577422381	40.9200958289563346	17.3964064613485512
17.8022990395408698	39.3665140377052865	11.6006779151728594
19.6536705550931821	38.8784604734498060	16.4348386513776532
14.2811903027325435	39.2973989485205735	16.9539850351300885
14.6885932687771863	0.4920276820387502	13.4637737210502930
17.7950881687110716	40.9557235841246126	14.8932507359858288
13.0647586552838906	41.8441232749286129	12.7651882558566445
17.9948909674502353	38.8021399055304883	15.0459844114115082
11.3064632409836623	41.8612250372057133	18.6272154587764120
37.1633239046721044	36.9324220797134473	13.0706680110085198
5.8977874346238552	39.8852957456634201	13.8080912891158487
10.1621027894276779	42.1172666483790152	16.7612397791914276
7.4328039005998843	38.4371422618461693	13.4739889663899639
11.7160618369335339	42.3589840136457596	14.3504197833153757
10.4509262522950248	41.1990605741386560	15.1482003909125282
8.8625471445186452	38.4019161931478124	16.8451562077724546
10.9447613996705932	36.8608325212759240	12.6582908904037517
8.8473794435630584	36.6780722596702446	16.8487539214740671
8.9796477093657501	37.6419351592670353	14.7716413801254358
9.7992825873820930	0.3061930513516471	15.2531814719890164
7.3806222951802116	39.9261043386623058	12.2154563383354411
12.8163252683828244	40.9803550994784729	17.3980496510139382
27.3622407803272516	2.5198332277562963	23.3063503119979174
25.0990515658975362	1.9708951956676619	18.6349340302750726
25.2032500842661307	4.9533286901383233	21.5130354922411371
25.5787612636476496	3.0567990828038116	24.2880776368678752
28.6890696396196958	6.3934367773823402	23.4501134107584015
24.5338818937616985	5.6326546930271952	19.6042659840407083
26.7488709486340426	0.7756253382050825	21.8023872007396342
26.5695199802322151	5.1172435717988556	20.7223308561673001
31.6054551725887123	1.7323881607875635	20.7286560816321028
25.0642955378238810	1.1801035337822663	20.3875902083822318
29.5537607386211008	0.6113561180860632	18.1947696767691234
26.3780784962917423	4.4371500991580781	22.9886832440012476
30.1950243875482833	2.4039255272994975	20.3278634544264953
24.7744711764510548	3.0515699091803206	21.6286852609364182
29.8342898751353331	5.2905557895739470	21.8923640877901633
21.8631297638338893	3.0639830253240916	23.2822920243087665
20.3687317752727743	3.3197004704409481	23.8985902527857803
21.8508503379250243	0.0780953887159127	19.2423287581837243
23.7422118995171374	0.0935627893778833	19.4638310811746003
23.1537758627754116	42.1279289542023037	22.6872828239393165
22.5305417939725245	0.0536211617042628	21.1127792778922192
17.8078171046920026	1.9293822359171331	19.0952885809848958
18.6430704303006856	0.6521976076189456	19.7012420232721617
19.3222364890864604	3.0274573935773055	22.5807647290453524
21.6207390068194805	4.7481733195554039	22.9231524364750427
19.2174524382983307	2.8423983994260116	20.3284518417020550
38.3921340634755097	1.5611239226805036	24.5128792141957241
38.7670446272043350	2.4278789665139584	18.8349914478848568
39.2399726872391597	5.1204592895460141	22.4470862246694587
36.8056363044267130	1.5057897426589684	20.4276573129232411
42.1809845401861878	3.1503489948030277	22.2885684402356823
36.8559880232362858	1.1746953520169294	24.3628886575638823
42.5645534617896004	1.7164629244089931	19.6972105978945287
38.2756141538591166	3.2898043565524442	23.3541473381072180
37.1904768566259207	4.8644882058210106	22.6362596398802616
37.4063724015507830	1.5230979898594059	22.4632130646617121
40.1598576392114950	6.6882506056026712	21.2097399845594516
38.9489366922217712	3.2512636377234192	21.8750255271893792
37.8561725003787757	3.4629241507831687	20.1004908687010833
21.3859925662863297	0.2814417517751169	22.6131973151998054
31.0469301616439246	5.1895972803986332	18.7716710612627189
33.7508915150365354	1.2525255004746285	20.3994095532977227
33.3214317825614117	2.2527261728713799	21.8925033843603707
35.1278847667651064	5.3601016681256120	21.9097325059369865
35.2611533239902570	3.1189523140279554	18.3384599983268473
35.0802114053761045	1.6265183616220511	22.6650571650760781
31.7318068255780759	5.0056950592053440	20.6005908149496371
34.5070117657118871	5.1694755863301651	24.1526341946539205
33.7989785569442347	0.6688902006911740	23.4061917435173825
34.7016952439487696	2.7536524001478808	20.5927054224188417
36.5157177405749778	2.8579685723107868	23.3842993188505872
33.6413218744963984	2.5646629422746066	18.8364080212241198
0.1657663859648560	3.5022636667745868	20.4301615158646754
6.9461005856685789	4.6504556991472938	23.5163904723701158
9.0539685250327135	0.7661180468854900	23.3553070243514469
10.3412535157981402	1.4952561718828512	24.9372928142773453
8.1699800472263853	0.0083941159918979	19.8772487057758696
12.3189962246619817	2.4976427797859642	18.1442674536909045
11.5736840536293411	3.4416416475449401	25.0476215369375019
7.1047654539461922	3.7819843217128204	19.5198943083620229
6.2818118022836797	2.3575975371786146	20.8182915947773530
8.1898073443696937	5.4022617565879854	19.2332305546500635
9.1319976975069537	5.0256697089072313	23.1083509650658279
0.8523268698139460	5.7993058124736816	20.2118221399601730
0.6359852417672623	2.5188323871094265	22.4929043200205605
8.3892555490361467	5.0614116671356788	24.8192785885192855
1.0478686399725223	0.9401113657157329	21.5559486708642645
4.8411943860794020	0.5174997500113440	18.4195146274863077
7.6152279596128842	1.0127265640092906	21.5500943656576780
5.3437475860846329	3.4954580173774952	24.7442682035391819
41.9897734193324723	3.7775210023612673	18.9032268927308245
2.2143480206806943	1.6296891450733342	23.3918107226170200
6.0872523121670721	0.4512083552020152	20.1155128152079854
2.3348585153092931	5.4839478345335539	21.4539196055195092
5.4161045710598072	2.1852982188033656	19.4285671494440066
0.4955499450553525	5.2134948053956363	21.5301613429858669
39.4930162381382317	38.8344204947697165	18.3355419716858847
37.2519531265409825	42.0874594875183732	11.6776208568720197
14.4503085471754460	0.9393699325503325	22.9453995498573455
20.8788768391002435	3.1788747945511906	21.8584259607848814
23.4315467789062062	4.4143647067822398	20.7870818976399541
12.0229702860055347	5.6002348143988847	20.1791025103567527
18.9610040456074280	4.2288587144749021	21.1615340085938968
17.5096667473060918	2.8084589545552259	23.8666205730261325
17.0787535565778725	4.7304901648272324	21.4150489769549921
14.0876967206931472	4.1922083945201072	18.3302536235493001
17.5031776858443706	3.8302611179793402	19.6237691196436188
14.0455706531191158	2.9662915775697587	22.7669385706967873
17.1853753862406222	2.1732581657760268	22.4151311165342406
13.4624107905860502	4.1422624870600755	20.6845321128392108
16.5269663027203251	0.3143929967695435	18.7022512806293868
36.6626181855294533	24.9384718689293905	28.2272993844016860
11.7486793583301949	3.5570655794126664	19.8374328819626982
15.5601462799297661	4.4027079132640825	19.8668224283694457
15.1574685107189371	4.4519113274841260	21.7736239998905212
15.2585658925334453	2.1446176219780577	21.4515011570525616
12.9888340401630629	1.0179757065191251	18.2718507260745255
10.6098361300412769	2.0299568973176894	18.9352466699196391
11.5198559398935210	1.1420010638337281	20.7026219617359324
9.9574958242157869	0.7803575616926127	20.7654484488904636
9.0216069632885070	0.5905904924365770	17.7667057584703088
8.9526111828433645	3.6006883847933766	23.9546893792220175
9.4373459441095306	7.0213202430345927	19.1775328256706104
10.1875400723488667	4.6418100257509138	24.3514408090699419
32.6274410515259490	10.8236756355284118	40.5265128096302263
37.6405718396212450	10.4075463560596351	37.7057256961356870
39.6659720613464728	6.8223364452776822	37.1598950682037383
37.3266103380923369	11.1701773736895209	39.6630862074988428
41.6472776695366775	8.4057630926681437	0.6677538519137035
39.8124390239121482	10.9753902435808097	40.9592155565046667
31.8891958480750546	11.2964802653218150	38.3263472408398087
33.1683293071950871	9.3399322302879551	41.5949183551185087
33.1905668017737696	7.6982996199617784	41.4662343042635797
31.5508083474836205	9.3507260374289825	42.0316940354049038
32.5305988665565948	9.9668954199560300	36.6460998289449762
34.9070590286918119	9.0233560200369141	40.4974415093576212
32.9538539128763333	12.0344238197143909	37.5547393692707772
36.2191312484210570	7.9747148266577250	39.1839784602321330
41.0387449126816080	11.2475017728394366	39.3155339650868996
28.4551670498959268	6.5417612809283288	42.6522112558796707
28.0909671488985957	9.5091095038752513	39.8210414964738462
26.2629102681852942	7.2682816278136393	36.8648476442201698
24.9411157445934037	7.6997869617986208	38.4244478361358972
25.1016369467908689	9.1159684357905792	42.0894625151039961
28.2181826264027080	11.8971186280835717	40.2505195137955738
26.6290658893904855	5.3313506319872594	37.8680592110512677
27.7252820197746210	6.6416258378884603	38.1199174986706026
26.8685742450448046	8.5226105436263353	38.3769270005026186
28.6491391528059616	8.1679890855360302	41.6540917735392568
24.4853603931023898	7.2194787583403564	41.1983008785351217
28.7733301183391355	10.2015157359031328	37.7096414503465454
3.4139199149167063	15.4970448971684629	36.3884988728931873
2.3333761729111280	17.8214644537001128	39.6415268311042581
1.7633646067602673	14.7732491332123779	42.2101828398438954
1.2902261177463528	12.6910344486081215	42.6120556904185577
6.5626841018140425	15.0155338065827486	36.6181704807375610
3.4745053425916548	15.5878164144664098	41.4836844421688653
1.8575066400369664	16.6480176468304713	41.6051941826604619
0.3985465586748165	13.9278206941219906	37.4216575666007571
1.8478784155890580	18.6793476620361574	41.4049063755571325
2.6158305822370083	16.1710119072634342	38.1584986035086047
5.0690379664551006	17.0396551881437510	41.5647314722938930
6.6273908512306541	17.1124144833957565	37.0981977473738382
5.6137189169817763	13.1165882494810440	37.7284515732285115
27.6573114796318720	8.0333349086954353	39.7552551727956001
42.9288368290258191	14.1850003198121080	42.1889438869714013
1.9465241434759342	14.4391394980811327	37.2267396088893463
3.3436036664290039	14.7460196945825519	0.5108144370677200
41.5021021865891271	4.3247333551971110	39.0158920238338069
39.0669256712626805	9.1604100085540541	39.8844545753637618
39.1165286149645084	12.3782739093772349	39.5480168763243682
39.4797136541013174	9.0972167000505557	37.3021190701263521
40.7231053262959719	9.2619029967737294	38.4199956215593943
38.1224753517357939	10.2146969808775534	41.3851231327058002
36.9491472027346219	9.5593228792539193	39.7727153805238842
38.3955883616588807	8.7838657622350134	38.4959481294799062
42.2245096385085574	9.4385634864997758	39.0340602533944221
4.4030467099229496	11.4356470959228940	42.1494381863275507
15.8007002432370012	9.3593702835476797	38.3167989166191063
15.0655961318910983	10.0223877505180230	40.3965009613135138
14.2378611614477002	9.7599088735908168	42.4781282087967753
11.1697013746718739	12.8056761306030040	41.2907170728471371
8.8994611845174774	11.7503786095991316	38.6123557321324213
7.1337301615351629	10.5079217739017849	37.7434844014414352
10.8928718580150683	6.8548844440023569	41.2970336342295425
12.1527233202969747	6.3883005984317043	37.7586629912129510
8.5320908312874284	6.9790813389234199	39.2139151028528090
12.0999426154551291	6.3999895620896439	0.1514277316604443
12.4302448300876236	11.9568244179504024	37.7496256638724361
8.5915941244247662	7.3053463935718579	41.2156791894062522
19.4749278672061870	8.8954218778533409	39.3624942068391448
42.4160449216712152	12.0943277670536649	37.4338751149592355
6.2652811119951659	10.3482486668697717	42.2282101501831448
5.9826142436855836	12.7951868194611187	39.3785741467681021
1.1829459870035535	9.3277515742584001	38.6464471666060945
5.1123962643143779	6.3954478772858918	41.8593869910377876
2.9353118750861005	8.3329805479456063	38.3796388790290308
6.6435347987417472	8.0768315091044602	41.8962002155012811
6.2421359098030154	11.6347657565982363	41.1902458444052542
1.4546397482747933	12.2746363685588147	37.1930846797296581
4.8912347652330732	9.7549430686743541	37.8813540293621358
3.2911395117843081	9.9257777734086687	38.2368633627701442
5.5069416880987188	6.5504678550437809	0.8757822793014232
23.7389055830871847	6.0730396894106784	38.5928733026111814
20.2503005796599460	10.2942829562227924	38.5728318166973168
18.7881957674202837	10.7164487601517919	40.2941416413415183
25.1968075665329820	12.6233160712673165	41.3783274798254723
23.2485401463158361	7.7371517256106834	39.2479767864333837
18.9729076600375599	7.6933782421125994	38.5494452075745215
24.7900438990328915	11.2706759297885100	37.2229899775732136
24.4611375449461903	11.1585973268757943	41.4708924703064596
22.3896967157444635	7.9359826000346301	40.6816981540704745
20.0909902802869311	11.3600779418449811	41.9553363353905695
21.2819551549989647	8.6518684293279478	38.6399248707720346
19.5077224386303598	8.3145604970880189	41.5186896198471871
21.8078682927314276	9.3322914309741378	40.0494132420530065
6.3544116768773566	15.0346130214009612	38.1472628116947519
22.7750158437269583	11.8892760344355164	37.9944107755566449
21.6795477171046933	11.6172626785503148	42.3512422642809625
24.8019924941290206	8.7563020143166703	40.0970573947043718
16.7939390722006081	10.8898922406634870	40.6541728269653149
17.2242613086002692	5.8321320265133112	42.9384632059898834
15.7565537243094180	8.1583151616505152	36.7821170504507577
17.4459059444494606	7.9553337018437889	38.0470825833917274
14.3444364837224132	9.8480690461902309	38.3132460650968909
12.8868434232936639	8.2844584994238222	37.6729348868501575
12.7662159761199625	6.9207358219030368	39.5515804385367673
18.1040550344366942	9.8244759420578198	39.0668875232530510
18.1890236436852852	10.4877938670071824	42.1955096628655326
38.2265540102908830	13.4475859066715326	41.0931489017300677
1.7193964131215227	22.5123865501369131	42.6210701645117922
2.2584084987513089	19.7222527675597910	37.8196263262392804
37.5235287052304685	16.8644529427682919	37.5843013184885564
36.8523942531567954	14.8519826075746746	39.6235862794537468
37.2674709777468181	13.2620037069625276	39.3941378894632450
38.3409564175578126	12.3259965644791105	37.9915133636847386
39.9499065114310881	16.8035452394678266	42.2122539944138566
39.3378888276342096	14.8588655247591852	42.0998461075057335
41.2979947420084841	14.1593761641268934	42.0130337893374985
38.8849891025453900	14.5166224513128039	40.1470656359609137
41.8630918844528566	12.9846590963591044	38.7226092464557183
41.6106227961130983	15.9738407585562445	41.9399570550789775
3.7011356868879366	19.3720831708395167	37.1973746837293433
40.4327250901414175	12.9121111227676337	40.4696489776773305
40.0479557225016691	15.6980999468891600	40.4232333379732367
40.0127812588031659	13.8416164978359646	38.9401541412810772
33.5300279017002936	13.5021615003422308	38.7566417002312491
31.9069489169693306	13.5378528519211354	38.4719079173391449
30.3128182053541302	17.4180195204045205	39.5605608992845958
33.6827434778097370	14.9754381456484058	37.9675178228087802
33.5294085090574896	11.5421455339988590	39.3996498087715352
35.5254785136966333	14.1770130429380199	38.1168846970084303
33.1251547528206274	15.6956840068101720	42.1501283529818025
33.0646999594753339	16.0953262454711208	36.3662435239285884
35.7094457629258315	17.5105575102476365	38.3418797950092980
0.8229676987748006	22.6695884560500538	38.3262433016542730
12.1497725639547820	23.1982453778641187	37.9007527955650545
9.5258043656023972	23.4786065817987541	41.4828466736018910
7.6553679158449404	23.7513796445320935	41.5279518462486124
6.2921678362363727	22.6853280482555384	40.5970200290106575
9.6891175453644021	23.8377543868048178	0.5724497743706426
9.0985517727854539	22.3562537305564355	37.5105439622447605
11.0462303278696972	17.3431161648710273	41.2905753833757814
11.5427780156233055	19.5246074721123364	41.7193676546867422
6.0077451825402637	20.7257957480729651	39.2117015395508943
0.5893668707187056	21.0741860608048519	40.0556886894055566
5.5139954097576807	18.6665526315431762	36.2999647758276609
4.6110721937194707	21.4276194724836593	40.5836989937175687
32.5825141760735590	14.0708567803371238	40.5940543908871661
4.8821909425052059	18.2367124872851853	0.2163402117068311
4.1748453570840400	19.7423998798782954	39.0737958205744462
3.8864413152032538	19.5736979527346300	41.3737693768695181
3.8159996282692488	22.7007820877753446	35.4867477193940886
1.0838159477962117	19.6789296286345419	39.5930460436895473
3.0192500308582408	22.5819996544042851	41.5607376347618001
6.3535975547335308	22.2539611342702734	38.9896861803642452
2.6692940018144018	22.8398303828477260	37.2199081776871665
2.3338221583924570	21.6747743199039569	40.4639580327081063
2.5407964489454571	19.7599162039708425	40.4353202657345534
5.2833113047669462	18.7229222013403849	39.9464730037571272
1.0375410329854151	21.2055686982522218	38.1190699292948167
10.8662436073225468	12.2924380315108444	39.2744962879785149
18.5334996556165521	16.7161500028481385	42.3080899328273574
17.1645061023150944	15.9153119502393334	38.6030410080722746
12.7869615941069270	15.3397697586049730	37.1132943474723120
12.6860105947812336	14.9545098015933213	39.0564068093570427
13.1913205851316722	13.4089091103536564	40.5660346991740610
13.2344411143579475	15.2641885509993838	0.1827640611760135
16.4341757069250924	15.7330330673402887	42.6920862762802003
12.7457215987114729	13.3889934256500869	38.5534317077443092
12.3807438841868347	16.0040241632753819	40.6424038534781147
7.4868510319371957	12.0718524590080918	37.8945082750849096
7.9959520621551610	16.1952008870720512	41.6191572752777432
8.7209823222679823	13.4338941060888395	37.0758742051955537
12.2335368455187030	13.3271333943100778	42.4409124628211458
7.0151283521914118	14.6135194691744257	42.6088877057940110
12.4754030069188744	13.7379585196050780	36.9395673248621392
10.4546475448863134	11.6643570656042943	37.4005210869281868
7.5259670590813874	13.7454729376202263	38.2877137135693459
11.6483110865567934	16.2041925259465742	38.3348009096177975
8.6918096380397252	14.7131545575027811	41.3902494654290223
7.2667693390005983	13.2948524654629505	40.9540053855080544
7.9110469447531475	14.8613646429889048	39.8471968091922690
8.3163028165984940	14.8041352334140868	36.1685429680197359
11.9227727723987869	16.2927340835955086	42.8228788143387931
10.0378060088307297	13.6551629103618790	42.7483721979239988
9.4398615984952308	13.3974427919864230	40.6264358258173175
19.3987307342322950	14.4259868852301523	37.4764391980821472
31.7293314218821614	17.2511398968567704	0.2311217440399086
31.8451482492229090	14.5494289447930107	37.0598826465040503
28.6961027383547247	17.1436280407709276	41.3390960347317389
27.5580306177995453	10.9132665922762300	38.5653442755068383
29.7908752122530771	14.4540670336766564	38.2187280670322806
25.7349154781382374	16.1411345996513091	38.6631850614444375
27.8227178001315316	15.7011969600607664	37.8280623717890805
24.9868532115842719	16.0133274854411951	42.1736877050722114
30.9968658994062736	13.0198669591937062	37.1248270189671814
27.0563093573459135	12.8524039866002706	39.9102221768954166
28.1192702088949495	12.9763775755172635	41.5389087266834807
19.2823339994738063	18.8826912861154561	38.0400941646573330
4.5272176116984504	11.8523276222050367	38.1406842508803763
23.8150418776631980	13.0601934219422997	40.6110085328722263
21.3337170727677332	13.7206221469970551	42.3560825476666665
20.9112282610295033	13.2788383053896659	38.0811318840464281
22.1975294408147370	18.2710617797876544	41.4681592982009164
22.6428929467644764	16.5599696514035841	37.1400620420651464
24.3255102367078386	15.1339318845129505	40.1683418031106214
22.8538648646545610	18.5505197954525727	39.8475377544602836
19.5522247281417094	15.0725173290091590	0.2318372466258182
24.1673787425550621	17.0969792504998068	38.4649308195801254
23.5260337741741417	14.4692319046529185	41.5021364702726103
23.6960839320386079	17.3471802989643251	42.8604923848513550
14.6391647271265999	15.7691795844694269	41.1758313219236811
26.6543910819128840	42.7680381689547460	33.7045813586674328
34.5146383273880630	40.2997067204912369	34.5925889481740896
35.7369991632891271	40.1692328658641955	36.5333785504382149
36.2559010223972038	42.3270314363889426	32.4785670368002570
33.1495176701106615	38.1234097318166079	31.6129816280335376
30.1011439961738709	38.2398624260445175	33.8278579813849447
27.1157287761238806	0.9742259055487539	35.2770910254885308
28.7171826076924681	0.3401911475034358	33.9080568309190156
26.4207649732198888	38.8738599217750860	34.4056727774753384
29.2923517641181412	41.1903747831660070	37.4790268575611023
26.5716329405196205	37.2166124296548375	35.3873444496608442
29.3326029772697332	40.0742056468195287	34.5963174698743501
27.9936944525458173	41.1885798578175226	36.3332524378415371
30.2064564349441653	0.8017862287559777	32.2737767856529985
33.1517843763992133	40.4667470224636716	33.7481503476660407
29.5506257031660056	0.0281565233683287	35.9977418919169949
26.8501209177309512	40.3992827010650331	33.4831601869895863
26.4995338440112782	39.9118244982277588	31.5967586353545897
26.2630467668484329	38.4962256851736981	32.0097650161403848
27.5939962538011478	39.9026165588909976	35.5684541837703065
31.6983724197218208	38.4085396539277824	32.3570445101192021
25.9257313209164799	38.7163440980518345	36.5464744616227364
28.0388629282213451	38.6212530482124592	34.3638758036617347
26.9690008732555704	40.3207098230945107	37.4351157309453626
29.4097064011115243	41.6130632591822192	35.1747622341951924
25.7283060810347237	40.3272290482384577	35.8409991483363086
18.3618029974728003	39.8515591439900376	31.4302399479332415
38.3490279790415940	40.4277314248931390	33.0276278646795873
42.5768323029899278	37.7382567533407496	33.8592621351665883
42.1297792085069815	39.0447152604788883	32.4110384055298795
37.9055614302384569	42.6232438662069910	32.6301818742984793
42.6879245787146928	39.9322010148242441	30.9759821863391203
40.9054383506727248	0.1708646103964587	33.8690475632941954
37.3188954107364737	39.5992130361387282	31.3544513137810092
41.5475745097636633	42.0117648280755418	35.0128521638333936
40.4681229702684888	38.8670183619208061	33.5463097703061806
39.3604239026397451	37.8901198743267784	34.2346251895565885
42.5351317163195972	37.2307936264606454	31.7463814200296817
39.3967391732850203	41.5932420757769137	34.6848527111426819
38.1605898931568390	40.8021221635084714	36.2688094734125741
24.4692926897976299	42.4474198318482294	31.1275414371707129
38.7985316145320738	38.5399240474593157	32.1659696957105794
42.4296874815735308	42.9052433262525312	33.1882703273330719
39.3197790980184152	0.5756758641929430	32.8285711903955146
40.2044460443100888	41.8023042056269247	36.5248780285236236
42.0874535798269704	40.0754759478109079	34.2022765751884208
35.7237425755703200	0.0000735116618408	30.6204784078729588
34.3937808897994302	39.2477406892842424	36.6080437475873950
33.1805279861686842	42.0230145274342775	33.5560184488951663
33.8832580651276274	39.1274465236542568	32.6301995520003345
31.0412019358279352	41.4465360285628677	33.7257390038803351
32.0603856756650316	42.9555045335243335	31.9930912966165941
31.6905941315099717	36.8544591044238814	32.8401828550187318
8.3490822002268779	40.2910719195367264	30.9589089299437035
13.2905297981982002	38.5607248370641926	33.8059765703224357
13.6623375258715605	39.4443909580728871	35.1137584257025210
13.3681895075850985	37.2019918845966231	32.0787888444656488
14.4931001236392287	40.5339241817160811	36.7489915482731604
14.1088350975349481	41.3202049995894498	31.2867420249632389
15.6447658907093992	36.6552609446054163	32.2288977183581835
16.3777910084147074	37.5434511870986611	30.7152331050862593
7.0296766568022262	40.9824781053804017	31.6049075900447995
11.1801717968887502	42.0280214019845033	34.9171919080352353
9.7406967750370743	40.9031331855470128	35.3640359245852878
7.4592585326793905	41.2298438212816336	34.8519047105325086
11.9663434634611399	41.0388736969758341	31.2766229289052617
12.4416287756342214	40.6705803631637011	34.3603132361460837
7.7824064327846250	0.1332869163519096	33.8279776004171993
10.4697865677129034	38.8386744174120153	35.1806013101668142
9.2793366120809537	42.4456318314004193	33.9486261071598818
10.9013638700831486	42.3467798953036407	32.7535477515982620
8.2889823479381128	41.5520554934710944	36.5717749502573426
9.0457732175259906	42.1376831996832450	31.7943887372534775
0.6050275603383811	38.4823006479777163	31.8477037685009670
1.9597559849453410	40.6890756737836199	32.1438022138658326
4.2030374609949073	38.0522470392566134	34.0400273147221739
1.3509027578181441	38.6478090060421096	34.9308944688495373
2.2145389486123976	39.7235490730953558	30.3572772860065214
0.1951042296765001	0.5277976999102302	34.4943314436426576
23.1735689105022402	40.2757588545479024	32.9818957159672124
25.1042693326653072	41.1286746467200572	37.5568177944857808
19.6267722206640904	40.7092668199259080	35.7660061958475168
24.0891637801568734	38.6065154305453504	32.1785450389255701
19.8512899848367432	38.6726413735305243	32.2637024527730958
24.2545174452977683	37.6100386462779639	30.9827379405532533
23.4564697256604688	42.5418834269836381	35.1186774561403396
19.5036021113895934	39.1508812518027938	34.5114323025499772
20.5485754444078523	37.0129114808435133	35.1420276868605228
20.9199994064343464	40.2406124304581425	33.3799927375098235
19.8556119697285176	41.5029080632325531	32.0213337116696906
25.7004098876173614	41.6052387526688534	32.4070769404045151
17.6477697192314160	37.1997525073103290	38.7763699524909171
39.0689096245081231	39.7007600810610626	34.8510261109982835
20.5306527779721399	38.5207220770811531	35.7177581644522277
19.2562862353251418	40.3958450489199805	33.2200995419553351
20.4940316136652889	42.0464326063093097	34.1574475344370754
21.4842265649778028	42.0409088891474312	35.3760501867336288
17.9531964896744611	40.7410953906298374	34.9019009726914362
12.6562875810393187	42.6411658503890436	34.3401100014871759
16.6514802880647679	0.5327923830732297	30.8464183341622942
15.4443703931527612	42.5175350844549058	32.1948256363190026
12.6033216879079450	40.9368402598507757	36.1212324028921685
17.2869499800757183	41.2527048883053595	36.2837464922824111
16.6579989443174625	42.6333055197657274	35.0697804450613759
14.1713780949093380	41.5714521742613456	33.4218444994295041
22.9029509600805312	5.3681716483208861	0.5718649526524833
26.3460958630826774	6.0744780131341862	41.4655374082137840
29.6332262111601281	5.8970555275747758	40.8211056548928752
25.2883502273820469	0.0826460409944718	42.1898155962890300
29.9435243841643910	1.8583207995605178	39.1113025586670275
30.8350830831368050	5.7704955507823747	39.6984240050538872
28.0269644647225853	3.8296257748661811	36.5811955834084728
25.0653008528210108	5.7273238818670160	42.7713102725992229
27.0625854385418947	1.5856973816509397	41.5748959290995188
29.0682429121965278	2.4658140865602598	42.2807319988510528
27.9712464879557707	4.5778099105420598	38.4426324536924966
26.6256471906223133	1.6894813406935121	39.1909538439061222
23.5659926016076611	1.1603168038895064	42.1776800711996600
27.9310819846407519	2.8096091680599624	39.0383401619245660
22.2275406905050481	1.2797787787424915	41.2129167553184246
21.4699000467487622	1.9221994210961555	42.9024500040189949
24.3552433893783977	1.5774025609738518	38.4530902767055451
20.2630475747940118	5.6569461104378140	37.3931961257169334
25.3441023787478841	0.3397268823581611	39.1215208734965998
24.7904112385529487	4.4262867399094139	38.1821892034816699
22.5908064699721223	2.9743374567693235	38.1002263507858743
23.9600446634585325	0.4755524267109993	40.0796909841740998
22.1254413327081529	3.0978081353170039	40.1402686005398408
21.0964491270132015	4.2393465169998468	38.6941264412643662
19.1764262738967552	0.0680189086890947	40.4706631023015149
24.0957921560152251	2.9687351306611354	41.0867836556507697
31.0308783907019006	0.5048175208060625	40.0095357992687042
1.2890334132110148	7.4761183494121255	37.3548361014673773
0.0616079401838727	11.1384215017331449	38.6186086843774632
2.7801629637798682	11.3064001126462461	0.6231378987340485
39.9358219300189390	3.9940100574830089	38.8010904118438944
41.5750098462270259	5.5137869447873191	37.9239226370603006
0.4934279901485899	4.4220433373558148	38.3167909818320354
38.2359226452047736	4.7039680247642561	41.9870671701946918
38.9596719791903894	3.9188650865737698	40.7443637701548411
37.8531069656412953	4.4423633567573084	39.6377415031072218
31.4987730865737987	0.7552949974966110	41.9830590215865627
34.0266335255188963	1.6762899512548921	40.9837283533790497
31.2689345359770492	4.1088997901699580	37.0528676289834848
25.4839836942776685	5.7916405907586208	39.4634341282349226
36.4426776744238197	5.8153030888117252	38.5934882531169166
32.3668903954321792	0.2938349020190046	38.4618867769965220
32.1948771600471488	5.7548446710812433	40.6032825346726298
32.8560073463023130	3.6725557382463339	41.1097026339067284
35.9901323218377556	0.8256036152774301	37.0846988751504441
32.5230522204857166	5.7144277015054250	42.0952194938072140
32.3961675484592035	5.4672053319181204	38.2722855866148137
27.3954018822497147	2.8103059329346345	0.0594178205042596
25.7032135080487585	1.4048582142648061	40.7186048621076324
28.7554639885188763	1.2034297825142100	40.0366579152238131
24.2712965578301798	1.2892568450649042	0.6635335497695625
27.0047004017655112	4.9351644535504366	39.6724746257413940
8.9229762417367819	1.0690593722627972	42.8074721152199444
10.0885642321236055	5.8430438727249108	38.0922252279153426
11.0496808688457193	0.9016268314550394	39.9955259386364403
9.5155535595530818	1.2781751320856189	38.7274877269063893
11.1208535067935141	1.1725708933265637	38.0782640741950260
10.0870476548493428	2.1397240362169976	36.1575372800823942
7.6727519720122288	0.4822648886115728	39.6384679370352302
8.2232822135390897	0.1048563345426030	37.8097465752623521
7.7028226511652678	3.9071571479326912	41.1415920619767235
7.4753220123053365	6.1823590352285480	41.2001301727485085
8.1618907947919332	1.8798622275062145	40.3676230630293205
11.5155399202088589	0.5515993881940869	36.3051382501497883
5.8909676148942749	5.1765667250276044	39.0859225453555013
10.6223518510933843	0.9688106598347017	41.8798112175743498
12.1552104677997299	2.3392473445110813	39.7625209033619100
11.4452259835965755	5.0675054541145510	42.6005029917596758
3.2451105299514267	2.1305930224814413	38.3680107250122049
4.9503210573195817	2.2377566784517691	42.0130313974315186
3.4510499826748120	3.1463252461908033	39.6038402942969938
5.8253465407243512	3.9451393808151325	42.6888064617488965
4.2929449494734913	4.3730314628810252	38.2231935042993811
42.8065021738360585	1.1632005366450375	41.7825079543903470
42.9818392394730608	2.4178357075995920	38.0009469649900495
4.1447305388258249	4.9548092269397950	40.3352915550890927
0.4155337843412677	1.2997978074859891	39.6401599380900507
42.4603980124586329	41.9973831749896647	30.7090687614336950
12.8116000674653083	2.8140650757382502	41.2527487610392996
23.1851726459119973	4.1410793585134860	39.4423587770860422
19.0191493415191744	2.1811769204646989	37.0555037574682586
18.0753467674217347	5.9896667970110835	37.2588154888111731
12.7111835046578712	0.8051033624422922	41.2770515161544438
14.7077004825830464	1.9829157844984102	38.1180498280963249
15.8913136526464829	4.4346481602885301	40.0344870675922451
16.2956194482045369	3.1854911084439115	41.9733272923872960
15.9977959305536803	5.1345380500319537	41.4942557337275701
14.1474713039416287	4.0136490799496647	39.0782655134794012
16.0550572818561577	1.0829627414093106	42.0588598009767907
17.3002653152906518	5.7287145433269169	40.5975948881674782
14.0815833605540437	4.7069747297773255	41.0564729678890572
7.8966322534508739	23.5719806857622807	39.1373943094060692
17.6009029101440397	4.3135883376188593	41.3871238683588132
19.2244070605998800	4.5953585744561511	39.9990283179478112
11.9316321734160784	4.1958191934374902	41.0180262531563429
14.7891253876626116	4.5445075071018355	42.9674137797758604
17.7930628567087510	2.3788081000513408	42.5134573979244053
15.9432611674505633	0.2060064538245819	37.0093184441512051
14.8614689904960553	0.3670416031349499	38.1985070455970117
14.9050974522744415	5.9122056673615093	39.9587937405346949
7.1721069110203555	0.6035047317450064	41.9058283024387137
9.1649187783243917	2.6509059996941748	41.9146230296328852
10.7684125859813502	6.5856501502665585	39.3770849894500969
11.1067742052847223	2.9247883774113634	41.6546681925966027
26.0044907259224161	35.8169738125579187	1.0363773132797927
33.7045940415446807	32.2012823712042504	37.7859077273507467
31.7996656180206614	31.1983174029427346	37.7395542537742017
30.3311312429273023	30.9538954176933849	42.8714294226449582
31.7505143056204027	37.8753567393901420	38.3552009299880936
34.6984320852142645	35.8954503767833160	39.4179092504078739
27.2792013549923311	38.3456136927553999	37.3236824184163183
28.7443516100618730	34.5844557794345278	41.1864213423118954
26.3547150319921464	30.1345134135273369	38.8124479076970559
26.3937798095792431	32.0946065249101409	36.0662468966173080
29.4764607586927987	33.3972228924185828	36.1100655247914801
27.5008124984795224	30.9209247159733529	37.6998512875858083
26.7900487148452982	35.5041223550873255	41.0421277637111359
29.9247661448691638	33.0124638640785051	0.3822765303941598
36.1016458994542901	34.2760531180314771	40.4240489986095568
27.0982656452934947	36.9210029956874521	39.3417743576501806
27.6750816116472684	33.8713464064073051	36.4430866213681810
30.6664558374631042	32.2741882402022782	37.3733831030099495
29.4992452822959237	36.7640509305786622	40.7855619389691313
27.5203377493509578	30.5827420697763941	39.9027841940265233
30.3970509967865468	31.7736337964015014	39.4996417372450850
25.5813081446175978	36.6051019017381805	41.0163627504678558
27.2761239368808859	33.5495500900127723	41.7724300592261173
30.9014485328462634	36.5949120797144758	37.6770602374327126
29.4193558026063329	30.6598344957053790	41.0493800390279659
20.6315411237189217	30.6821102393164153	42.1363727024175958
22.5776017187074345	32.3369911527034688	38.1763686910462994
37.9834906086597783	31.1949184636978316	37.6911397743060661
2.3679959004419975	41.1867170102084259	38.6453650043060577
40.1491525772486924	35.2584767723709120	41.0038018123591144
37.9299269535380148	35.7428924249860742	40.3495761135736686
42.0208512935115053	34.2385271951155303	41.2775218561347046
37.7015869731908637	33.7450451871253492	0.5391968024061015
37.8874332169765822	31.1255767664612897	39.8076978670424992
39.4396452222831968	32.0341505355861855	38.3769104114542756
40.1401414785684381	33.6356023316349777	38.4933284330234002
41.4748472972015350	35.7106350009961346	42.5882109550475647
37.0589810300616165	30.5184758995698964	41.3697840582907332
41.2738439684593388	32.4238917272460156	39.9994568232191909
41.7608268031079533	30.0058384002823324	0.6652149748149537
23.6834864114223045	34.4099453037090797	41.3714369146276439
39.5616593365070059	30.5697475471132591	36.9637317596655137
38.0574616700795119	32.2381790939425272	41.8101706056897271
39.7048691956297759	35.8553850968995249	37.7961887160918977
0.0394230766886266	33.2428429176623368	42.8359174736472852
40.8861827194128225	31.3892367311779132	38.7968844373261277
35.0022893673496540	30.3305394705462454	40.4921111001138101
36.2185732857848777	35.9374143103181396	40.1935632572741355
33.5263951731529488	36.6471268115857427	38.0403854175291016
36.4376614800711280	37.4827472309698848	39.4689126551588814
32.0172103614796768	36.6218872326527674	39.4027407313419289
33.8778458636197044	34.5150648845274262	38.0752161133567739
29.7086960814305279	32.4688236133251706	41.5009502541087016
11.0090558774496401	35.9959040298484041	37.0901691112360368
17.7661417535748321	33.1471663468586470	41.1636656523794073
12.1976781012754572	33.9054324911907656	37.6706070489046212
11.4363943131480479	33.8118510640160395	41.8407484678919843
8.9439887548983474	36.7806615133109887	40.8664032706265417
12.4538239047584334	35.9081861770223512	37.7952177262902609
12.4706919962634544	35.8883447742517561	41.3936202721605326
6.9286550809005041	35.6608789913100850	39.8992259684490094
8.7126891532774184	31.7160598946627452	0.4446538475145192
10.0269693236585269	31.5601975591591710	35.4222717095280473
6.8698174753801284	32.6184720857994961	40.6482098851889262
9.8011446434431058	36.8441078906762201	42.6924909870601184
10.7391165067862424	35.5708803507342211	42.1390240134624534
17.2851800804503810	35.4668612498496145	37.2660916044284747
11.0281720559819973	32.3725465652447610	42.4298697320005687
2.4632287100871921	35.5611429552382106	0.2813459805248923
5.0458071438473180	36.5553316717204453	39.1634982271529353
2.2445248636047324	34.5821809039781627	37.9447311093889823
4.5132727142781723	34.7006173138581602	38.1323064991547440
6.0054542820592056	33.5151966187237846	39.1493978889978251
2.8791493016592460	32.9761224653366511	40.5966823471160225
3.1781941519837837	32.8170363274030521	42.1798356367977405
1.3234396838074358	34.0225112864018087	36.4233868016766991
5.4512672982388972	32.8918106977302429	42.2775343191587964
2.0760656550737751	31.8422001291408385	35.9443925234786406
3.9042066008035174	33.2826213818110190	38.6258804849202804
25.5262664330041034	34.5875871922384093	42.2876510474702414
23.3181618232665251	33.7653588484169376	39.0102015979378010
18.3446364572808172	34.5727356013261939	40.2977012840766236
19.3452255008204084	31.7229648272017641	40.5842293016957143
21.5658296628241466	34.2087556156162833	39.2472653737541819
23.2183798062970226	36.1265760739485700	42.5160382482013972
18.7080390387088293	33.9494424994738253	37.9908269978756792
18.4177890239914603	36.7944402814370548	40.6617782104271583
25.0400691336606833	32.9591205864233388	42.1483185263479214
23.2518027790561987	35.1492964137863240	37.0593952513642506
17.9917822242800334	35.0981989399128054	41.9322604237762420
22.6933465359660751	35.2420396303707975	40.3874708598519234
24.5581737103237003	31.4209483136758436	38.6180365506307481
4.1004105030896909	40.2561326200056655	39.6973345786131517
22.5475967578129897	35.6271531828413828	38.4192293128656814
15.5648336922831447	33.7245942393185132	37.9816396922121484
14.4968317869532495	35.9019614780500049	42.4164144224498472
17.4626058782191045	31.5980552590205619	41.5853393623034506
17.1189039066899795	32.9444068340323213	37.7838416110761202
13.4472317380592052	32.9756046843753623	38.1291309430507255
17.4861286947362409	33.9937080203609270	39.0198508338996746
16.2170103878022509	33.3005643449660624	40.0034676120171113
17.4640106192649043	33.5761322371433621	42.7378531303887783
16.2447511471282091	36.0981419380064708	42.5795906466156566
14.6672872250530535	32.6746676473390636	39.3090133841354827
13.5839794074784663	34.4836320976611574	38.9233419716634472
30.7430505848578939	36.9849670955957990	42.6316880799875335
34.8634219603672761	42.6873178183406168	41.4147047258251675
32.5137251492435340	41.8718873799116480	39.5372967736741998
31.1245906954782505	40.1447092219170827	38.5034758252344815
32.8835149110937195	0.1956093977275679	40.7593848449899383
30.9759285368392092	42.3360889342122277	0.1775831460243203
32.6874386031445638	42.5083999334205487	0.2790233575862701
34.8265050186412850	37.8759346526601277	40.2866283723914052
28.1427728344237416	38.3137814019263416	39.7209256871707908
27.7807693688275670	39.0711642669599684	0.7617549831079574
25.5588525666906570	39.1863640849974288	38.6454074367057316
24.8317405930665629	38.6764876746413009	40.7448735542773051
30.9868164047473265	41.7689680666414418	38.6933819765430869
35.3351409471826230	39.1520400426251740	40.9407557720530875
26.1803769577083543	40.9796777575051081	41.4466237896488749
27.4364970526321272	37.5098035321393439	0.7498110891577650
26.5181892984437866	39.6916755937230761	40.4029930561021331
27.1691046624201711	38.8900830832010200	41.7312571565457162
30.0693984279052984	38.2277405573370359	40.8407331400731479
25.9685532850051537	42.4877876421782190	40.4871335540201969
26.4895287270450623	41.4244792290988286	39.1172633071397868
32.8006145150810582	37.7506504085398973	36.7208525295288979
21.0681467283717829	40.3509011515284186	42.9817929571431492
23.8815611636723659	42.5923238263761164	37.9794994415308409
22.9629271761387024	39.6711502561924405	41.8537363947861110
24.4136142239427087	39.2819317232117626	37.1404928075797827
42.6276478781960932	37.8462183332451545	40.4975951901344828
38.9661520437089521	42.1887648501622436	42.4412946507815221
37.3035453481322463	42.4661125733249349	41.8087220434774736
37.3009087878934054	38.6184017985657775	41.6706609698184991
40.9513134933582705	1.6869018216664105	42.3580924994505423
40.5406545420117652	37.6982756626517173	37.2040215088233452
42.4134578680072494	41.1214769913094784	36.1696261419002454
39.0514400437434830	39.4695471451264837	36.9511270176205926
41.1285031402542458	39.2909391004686483	41.3661642158163829
37.7390155077934182	38.5737075343582276	35.6567634897847299
39.0898849124537477	38.1256565662087112	37.9532819499126788
40.2374701541663740	41.1275842655324340	40.8240910824715613
37.0833656247320604	38.1088500090468258	37.4797003605271684
17.8131956712828128	0.2354397406194575	36.8882101389551451
41.5240785220773887	2.3658887690301951	38.6463498055140064
39.5344767780137403	0.1954303852495649	41.3602221541209332
40.8721271550854297	41.5803390781575501	38.6155165925177997
37.5356062221362450	39.9291359700317159	37.5147682159194957
39.1529056997670537	39.8792947449200739	41.9210323144857995
39.0038068430284710	41.6127523975567541	38.0451762721884776
34.3288260042616642	42.8471476292550264	38.3439363482156494
35.5391285146374258	41.0869796786500885	42.3675325517742039
34.2987002639337177	39.0543633371680841	42.2600863623773151
31.7201148577460081	41.8953515345016712	41.6915977296395681
32.7867477016446216	39.3246695739166015	37.9453009018065401
35.4891274051189924	38.9480309473426232	38.5506238889277029
5.3568782809869067	42.5592412378214462	41.5027549447947166
8.7022424947009718	40.4219058121563179	42.1130116908072196
10.2450289056900292	37.5683865311057730	37.0197498648550010
12.4468811200781122	42.1826752821610995	40.0515129016300264
8.8354552014321044	38.8058341553599746	41.6661151846454842
2.5476885594972871	37.7666896604068398	41.7307232454812080
2.3213519426250788	1.0639685783134654	39.8643502128907485
7.0603609172784099	41.9917735220155350	37.8022803211024510
1.8391907383540089	39.0653783301296400	38.5266295961673109
2.8565512314916330	1.0133018295562273	36.5427794899444649
4.5331048665646572	38.4900887863126826	38.2519712413643802
4.2847282203457793	36.9087065755132571	37.7478959179993510
0.4721669913871719	37.6032472338796282	38.4607672995184444
9.0199463153797250	38.9228560629107392	37.9327940780005335
1.5233888555141268	38.0804959656785371	40.2147871107750916
4.8369120800183767	0.7917497272562410	42.6743047233513266
5.0226237330823711	40.9689215304861705	41.3695323073323777
0.7299046914079622	39.8514224587327917	37.6015638847575460
3.5582093023227288	42.0844800910111232	40.1632494081233347
1.2887487330286238	41.5369669541481130	37.1641582195030651
4.6093116749827425	37.9749176465186054	35.9519362035563077
3.3906946920109888	37.8503482187403364	39.7166521755374191
5.4045014168962924	39.1933398616022046	40.0499450009572016
2.0159990545674695	0.3400299532517969	38.2262755400749512
3.3988154669232244	39.6311003514388602	35.1904860866477236
3.7906721808367356	1.1430145633582598	40.5073025480850575
19.2573767484130514	39.6086769173192152	41.9540226844511182
23.9385455267059122	40.4192482415863878	38.7767634557891014
14.1685459273886316	1.1065949690304031	0.1903337302372143
15.7990775860283179	42.4462445028997379	42.3468289858090969
15.6971164752787313	38.4627148708974360	40.7112877736487349
14.4928187615663191	36.8215872526603505	41.0018421980325485
18.6723517618900665	0.1732802046967478	38.2186945065276475
15.5575177653006183	41.2055578135857630	38.0363447072020051
17.0585046921375891	41.4852610785445108	38.1420685137804227
14.2773219429325859	38.7618602540402577	39.8556076933370065
16.0430467806487407	40.0148499018517398	39.7434734225191164
13.2725676250989881	41.1778783690242562	38.2038514350401641
13.5839774011481751	1.0302178848844770	39.8362257086185636
3.7327923093378699	31.6861227581391383	40.1367767659831927
17.7745525095116328	38.6758546798791798	40.3924210072667123
17.8652557846882729	0.4466079864824567	42.1626546599397898
7.8908956025191452	37.9647853384692553	36.5686403371830409
9.7347753193767428	42.3168241504728186	39.1729036231691197
10.6247053870304349	36.9548895879024570	40.8032286010500229
9.6200814525949792	38.1013684634538592	39.1954821944158738
11.9914362882762351	42.1873037741394441	37.8151456818049283
7.7337432005890765	40.1326190835893399	36.9154971127293763
8.5047279218227754	41.4460570066636151	38.5935706962336198
6.8467441006322769	37.3826028111547473	40.1421660982931243
9.1499644069878396	40.1290638345680506	39.9292136915262503
9.3415225466531080	39.5148434017267718	36.2082396098004295
37.0027489080720926	21.4229162844010013	39.5384753438189165
38.0267174558275300	21.8707256725532204	0.1022944726980327
39.5428995555019185	24.2683345283776255	39.2325707066000504
40.4511855042342603	24.4044380278678261	42.1680599655530699
37.1479379969503896	19.7844146320348457	36.6547408208606385
39.1715776045574131	21.4503382732188079	38.4754527694887187
37.2340075275195233	21.5411946615345791	41.1424299119939505
34.6558041676908104	24.2426864036061502	38.6232687793322143
35.3305024547097801	22.2093895590015507	38.6970197497074011
34.9283663305725227	25.8653466390545894	38.0204646905265520
35.8654307877307801	21.3241729041984485	37.4797715148276467
32.9561428364296845	19.6776058247155170	38.2450003783806380
33.8675202277459704	22.7176821310147723	1.0796715342733685
36.3702830764587901	24.0678357894690826	39.2775696346313836
38.1587846631086833	20.0030141238932480	39.9189661237202529
35.1867734540626316	19.3502366818557654	39.0258606737490297
30.0560701832237953	23.0736066853145481	41.7749138356055667
34.6171592309552096	22.9864470292014573	36.9793854776300464
36.6698183385899483	23.4154286361331536	40.8795216300018893
32.9678486507469231	25.2890373689966310	42.2811828879670557
31.8112553281107893	17.9207300218290051	38.3182276647293918
31.3010980387248345	21.4977362704034718	40.3005411107321478
33.9829386307644157	18.4402724531043916	37.7989615189400894
35.7300726908530280	17.5624600871702725	40.2961886414256583
32.0282317688158500	23.5087598225781811	0.0632707600177877
28.1625191678072433	19.1139386167511915	37.5930835604205313
26.5063655379792031	24.0121559211767845	40.8207660251836941
4.2486992744593621	27.6842531417122153	39.7104794831622456
11.8174809206783724	26.9081630288089571	39.7062557393688351
10.1628234447075112	30.4839414083141023	42.6568165287231054
11.6740665705145883	29.8971041601440426	41.3631681861214915
1.0005492298793432	29.9407087698599170	36.8274872267710904
2.1441557712519850	29.6885537171220371	42.9946599373764968
6.2692897991296901	30.8048984155008547	37.6546826416601590
6.7107532901993361	26.3827031144442188	37.3926952370541912
2.3840947191118596	27.7331777073145069	0.6139845788779051
4.7448531048929352	27.5454520938274392	36.8001463439700913
3.3277161518731662	27.4464593331821582	38.0671911329800210
1.2457137109291341	24.1847894352328758	37.2316434652412056
3.0925912672563620	28.1743383370721183	41.7068441511426116
26.4890772949874886	22.5602379969924804	41.7749585251272180
5.9966272450917142	23.3655968705521531	42.7018696965806157
4.1939839568082800	29.7191939275630546	39.0034396041283955
5.8963142000109157	29.1294640082378713	39.0830705146186048
4.7369501311879949	26.0735848170386433	38.0051969570004928
38.7780673617208294	21.7429127838988627	36.2784630505570362
39.3464265058168152	18.0106108734400685	37.0239610065725984
38.1901406720577867	18.7332323886281635	38.3124190459842282
42.2734213308196658	19.5961328598682378	41.1068652761010114
39.8183959853540301	19.4042938111366219	38.7702502289141862
37.6827436358830568	20.8136005164907445	37.8161750842341249
39.7154478111060882	20.2306330665573952	37.4223840717073628
40.6104317522119160	19.9420129785830866	42.4265666340426577
14.1222536693466250	20.7972244453526471	38.2557928814055543
21.0484946924849332	24.7489004579147895	36.5765784541705727
23.8978932410473810	23.3362445165912007	38.6364552377110684
21.4879198657843631	22.2146698407415712	40.3354155877799698
19.5566194911830031	21.5917498480011822	40.0821025671340649
20.6844145783842670	18.1807176498168310	39.7525388628945677
21.3397236053027868	21.7314043982193006	36.2639285160284430
18.2446520976508175	22.3851722943942022	0.0852644081761230
23.4502612348743789	21.4618143250545472	35.8997206250344973
12.5110254137253136	21.6033095374916044	42.4422550430238203
15.0558238913819249	22.1379789493420454	38.4672138165240654
18.7669403531565528	17.5034258692357163	38.7254774640942188
13.6576644986212852	22.4892630479099545	36.5923023004042776
19.2655843048584288	24.2932480141374398	39.7682839269304296
13.7480109907203509	23.0555845687834591	0.1239405046556949
18.1327574901036250	17.0726981300224949	36.9677070860296979
16.6764099233425753	21.0509277014509735	41.9434805776990203
14.2542800895655581	18.7615456200527788	37.5102566229279972
12.9119708680412035	19.9742750018528561	38.9427088836067057
18.3588951483696619	22.9661786907411205	38.3151983437553270
13.4951523829253244	22.2726084774365241	38.8041046970955392
15.6356743797108564	20.6813349620250335	39.9218639350236444
17.9644312826551840	22.3290632958359225	39.7485832702398980
7.6193812227554973	21.1554018850217567	37.5746902221177166
6.4720306183951681	16.6686068497548092	42.7757828658840253
11.5127531724582255	22.3809386647676014	35.9827944337951706
26.8897273847591940	19.4904975323192176	42.8443841232945672
27.3432179882664741	24.5182334920712357	42.8588628852196933
30.5733358348122266	17.7382715692750672	41.5605115052447758
26.7047948374596302	21.8540652232545121	39.9656355822544853
31.1859003875607392	21.2555999376725318	38.3265117499292884
30.2709020211957487	24.9856832872394001	38.4922922873955926
25.7661179505162963	23.7590728906280511	42.8549701610716127
25.7398244518700032	20.3080561200238350	38.4069111554336260
30.2241113253748992	18.2060082309548612	37.1302869539266354
30.5620733339766737	23.2744399797559396	38.7616744888975475
29.5987486570405380	21.1454755333223012	42.7537718988180799
29.2320879429995877	24.4863536924702068	40.2106262152368927
24.3678925116759686	18.9440560593624276	39.3051889922887980
9.2941781372035699	24.9926621125838686	41.5621957139507714
26.9237010771753944	20.3768759283158722	41.0452797955980415
30.9948010919456927	21.8218770449726449	42.4013918498447282
23.6958126824971735	24.7826189605142062	40.2851264429460585
23.4045454274654752	20.0513148327507338	41.2009190046872433
20.7938851329755856	24.6549108811095330	41.4180901545009448
22.7552388053192303	23.9832473689911936	41.9993680528695847
20.3025256546046577	20.7457812966978636	38.0860014618489160
18.7169253323102431	21.1985580153563085	38.0824018706008189
23.3822595019771491	22.1883306175775026	41.0893604501021414
19.6017191093893857	20.7455303092635575	36.6494584909079251
19.6198326083694390	23.0204331279487135	41.2702198481822293
18.5977990622742198	21.5068303795889904	41.8437126149366563
29.0317150988915564	29.1803062935586119	38.0951052759705604
36.8344906706705260	25.1868826610055834	41.2573911973350107
31.3280774113288309	25.3884341637161839	0.4752534000967341
33.1586410381388106	30.2011825607496363	37.0536703685577393
34.9082639603055682	26.4312723694481981	41.7682357893639207
34.6729124631821719	29.6103380351251246	38.0592984803835961
33.7402971213789513	27.6150451313231819	38.2793414181237850
30.7940369108269643	29.2267950548915216	41.8792669152548456
34.5695881348252030	28.6293253938783110	41.7170697250410285
34.1116441575458680	29.2869354552795151	39.6458015687548908
35.4043242595598215	25.3684945388882461	40.2245577212439613
27.2920562390914583	25.6158099689455057	39.9639771922022859
23.4813534127022052	27.6753486746812456	37.9543264587120888
36.2886606226762609	27.5604486647891846	41.7538870797823662
25.2297890861858534	25.0791542484346088	39.5034710699224902
28.2129925711257599	27.2090877434258722	36.9933720172807554
29.7372464050679817	28.0967401644817265	40.5094434116878546
25.9609975367583772	28.5988609179369142	37.4551582215906294
25.5216928477089446	26.3783155419813440	37.8335283115558951
27.5022916812326912	27.5282683408027395	40.7240600179881724
28.7455333329593330	26.0829286108784650	38.7983859215442592
24.9781315750158122	27.7205366369734030	38.6664045398978260
27.0814089092050239	27.2209613785618032	38.6889914983559322
27.8119904324923191	29.1071630076955543	40.9090133688856881
25.8914433576624070	28.9483393077109348	40.6103375488750444
29.2278889128600419	25.7599016924390192	42.8364933210240011
38.3964170899090576	23.2135082643760455	41.7625274738464256
0.1811514305187354	35.3212073563905093	37.7209383643638034
5.4497935558924224	32.8971792638373444	37.3679530491396861
42.3738928223170248	36.4687078184771210	37.0218335696630803
0.5091997973223608	35.0161584382298230	42.6175016132237872
4.7635066312306220	30.9433280862743700	38.3012910242250726
37.9882305277665466	26.9124077605764782	41.9521423988139759
38.5227395492711295	24.7605468723771516	41.3804883197536668
38.2890947422216215	25.2162603973617720	39.3708526575917404
39.8391399223888811	26.4595703756924081	38.6468815527990515
38.6967479365271529	25.7547055572641597	37.6275432655066595
42.3539736975988603	30.4689890450265217	40.2163547042769807
41.9233698350833066	24.5457192536003745	40.3733179050902180
30.3542735997491562	27.2797610331526563	38.1980351396224407
39.3473849503468500	27.7616038546126731	40.4417935573877187
42.1032532346287738	26.4591563665331755	39.3285627522899404
37.0804513370359174	25.3968132588276383	37.8585069876323814
41.1551116000841191	27.7166764347649703	39.6242577868024100
41.0175740214286435	26.9274196206985827	37.5013891620937656
42.8115742381160871	28.3541890941106907	40.5604063485790434
38.0528099009653644	27.3419558515588221	38.8453449644592439
36.9729481444101111	28.8950975823058407	39.9657764324493883
37.6245090942849316	29.4793741451441420	38.6059865453682605
31.7971621894992786	28.5050072575085700	37.3242794250274414
33.0622296885358153	26.9772119188856578	36.9534189506406463
30.9036639084538969	26.8815333776231995	0.8950119917672831
9.9069418073900231	27.0237489596669711	39.0739232577860776
16.8150078720511651	29.4221809188521277	38.2834763423900952
14.0547243053298310	26.4989814938551191	42.3438265903565565
14.6127034856227471	32.1481412194252485	41.2748844961715022
14.6612863052958016	28.9784558425246956	37.5366349682171290
13.9601804743567772	27.3662137322748293	38.8437760400566887
13.5985105938400874	28.0751906880746915	36.6716652263646594
13.7169172060746423	23.7430592278787742	39.5398215342772090
18.6550620910882046	26.5769535412531788	42.9941511740990308
6.4485599396019806	31.2262089348121812	39.4057158179980931
7.9847547635713427	28.2088236498778961	1.0607178376082884
9.2689988957819924	24.8676709684919501	39.5886231296866313
8.7757779387679395	29.6353306210440550	0.8612248394047288
15.8243895069406388	26.8857620391627670	40.1756111769615032
7.4636300046191915	29.7845273024939026	38.7145420360807080
10.4319357168829239	26.7360531586042214	40.9917752032554148
10.4916615569400413	28.5668666838412264	39.2618644276294830
8.1752800336395222	30.1744460297415813	36.7249252923759997
6.7868696842995151	30.1277094508760470	0.8543877329304911
7.3666060271731233	27.4941507863999774	39.1952162466332936
10.3101926651799314	30.4311054395515121	38.1300850431712064
11.2240894091265098	30.8166972231651002	39.4703699838683661
9.4042803668664554	28.2163211890580747	37.2990444975711384
11.1634206960404168	26.8443994920718616	0.1359465456786456
8.1976980974011333	26.0027006913378393	40.9274288067661587
8.1233927725491224	25.9668886471175639	39.0437467780075522
20.4683174974516895	28.8222664490721279	42.9761456492123628
19.9681199836557894	26.0733528356985893	39.0512476182535693
24.3064819816237438	27.4621773769972570	42.8863381605350895
20.4054223960789685	28.8524855409659509	38.2164025535712781
24.2688057432709847	25.3454372193626547	42.2096246849842842
18.5073444942226892	28.7130765256693898	39.2975826770479841
25.0334123043729626	30.6843339526820316	41.6782449776805848
23.2069683330322754	26.5732100831841578	39.9227219779095890
24.6891412762474012	29.2934099718012497	39.0936726592600863
18.6908595253580678	28.6072188862744845	41.3865792619980937
21.1778308394308645	26.5515067894678367	39.9345356481568245
21.9326872391030889	25.7711420348312785	42.7708733384222839
21.9651225230389002	27.1993903328812472	38.3027967471367319
2.1592400775291720	40.6588788007859847	35.4351159597759420
19.1435560238713514	27.0253047649934253	40.7678175230505460
23.9675083435537779	25.7206218118366081	38.4204195215599640
13.6510562766824215	24.7563425623794124	41.3961240802920898
14.1063606056812336	24.6147025521292981	0.3350790569624655
12.0448330882324512	25.9596096843924720	41.5344338792754755
19.1853815951971178	24.6303246722244751	37.6519966476818340
12.4072675695071979	31.7819538254314047	40.9975299085231768
17.3398804155683948	26.5644130069112379	41.9187086802273683
16.8974770089015358	29.6523744054485725	41.9855647966609382
13.4927001524902348	28.5434817679449253	41.8914201166553539
13.0232262572603705	25.7837392977464255	39.9560129602703569
16.6757120350009629	29.2059109918797830	36.6604674381403086
18.9455145560811218	3.6404293200184537	33.3466230414466906
34.9244959678241003	7.2333489089568186	32.2931459473652893
34.3732861008847124	2.3666051852219852	32.8705162010310588
25.5376209722552296	2.1998101476270775	35.9908262686139011
29.6101418373163696	5.1211888118370306	35.7634254799281237
27.2836685066112317	2.0234596889349352	37.0868405302665991
27.4075254471613015	5.3689325215177979	36.4238210480297511
26.4847056141026478	4.4593974208712499	31.4602060787759399
27.0692683707670838	4.1438126787191845	33.6253485196844935
26.7179485837990995	5.7503989758628187	33.3194506800704673
25.5930738703275225	4.1912103208298381	36.1466414892497099
25.6690784308987858	3.7966499248009944	32.7971532787413196
26.1636717468232760	1.8717081870672929	33.4132780620768912
20.9944174545946787	2.7082312005218649	33.6829881721271676
35.8677679722382408	0.9023327320175840	32.6423763781599945
19.5579057203759277	4.1006203865874440	37.2879463279501664
22.2541710633386423	7.7695341801800843	32.0953243400903645
17.7112300041099040	3.4589772404899670	35.6963743745168074
24.1671522326483696	2.9227525813874231	37.1031540741931707
23.8050877850719225	0.9647554016634575	36.1952063594895534
21.0604281289055137	3.5364345248917908	36.7883012200474155
24.8310305708299595	0.0317842835903234	33.3449168004929746
22.4346718757760257	3.5513484606256918	35.8281323677957104
18.5292880890592571	1.6472864990256539	30.2864432164951616
24.4719782802355823	3.5317753459042853	34.6634269481906117
20.8931964384192597	4.0443786250434952	34.4689033584758633
20.0446359958558560	6.1452784458637240	29.6620764047228285
39.6278372248182222	5.1104389747529373	34.2610288941470529
42.8416981669915060	9.5207304329395939	34.4602609595065061
3.6944109884964562	6.8127788830146212	35.0881914256610372
42.9261952266628910	7.1770500411961144	34.2989454036417456
39.0627414698668716	1.0004041440988489	34.4339288524798306
38.5753275940757732	5.8263277942688418	35.7645856354306488
39.1424032365297023	0.8932875244579414	31.2187688743644074
37.3427155983177173	2.1148353763470302	35.6244248472287026
40.2354565757713516	2.0358996286405660	32.8896466661822799
39.8000262408290553	2.4519282120306882	31.2590428418367310
41.2163958192977589	3.7691344562006370	31.5709466748677947
37.4762447424354690	0.7086453463579888	34.0249539098183575
41.1699465686580197	3.8429861059276598	35.0354860196034537
22.0435825041916971	0.8478452947319618	34.6222097986395667
41.5489430735277168	3.0904413803883335	36.4505778131767926
42.5228363869969854	4.7802794856607118	32.6091438082780698
36.2669868951754637	5.7507894237771264	35.8131956780119793
31.7712432609768420	4.8133712739066272	34.1552531937565007
32.3268894422201711	2.3581826573513536	31.8166098033944955
31.4345140186657339	3.5282521062366476	33.2015391330039122
37.8219653413260843	4.3604173064260729	35.5683373881035010
34.4803104987997813	6.0577724489210159	30.6192113437201954
31.6971405748669213	5.3582677699759866	36.0560398738381025
36.0694121874237439	3.7260193320357775	35.8634816115567432
31.1776340635278757	3.4435253702698398	35.5592641067513640
31.5896510125066285	2.0527886412665719	37.4382442771524211
40.3682505263459745	38.4870177087321395	25.7768136085047885
4.6725083564837373	2.4030922770586511	32.4789063885388316
3.7982005676519179	4.7079394820819616	34.5307022951625129
0.4535083870293670	5.6995243235156607	34.2528933557777151
3.9331801273005365	4.7047948748893322	36.1636579768338180
42.9587299412592145	2.4818709396261767	34.7968988363559433
42.4422770425492502	2.6691993659730544	32.4624578841249303
0.4987945135723679	0.9399107636274385	31.6073770786675574
0.6112002845547431	3.6448557737413689	33.8956281748878610
3.5328756461842583	2.6787967366999119	35.2021856683784620
1.5335432114054932	2.1887072418875855	35.3483698923655254
4.6858909222351031	5.2444771471334448	32.6073200626364041
40.7260626988321519	41.3341951591382184	25.2082650631771195
3.5431903282369288	0.9828110841570080	35.0589349007707867
35.9706845159663331	42.0780965824299571	26.8867718910750675
39.4001223484677894	41.5943139205236250	28.1266458020230097
41.4455097570102282	42.1703305985822752	27.7096450261440914
39.5414580963321143	37.1991026554073017	30.6917883600465196
42.2347105299205055	40.0307839862680908	24.3043868758454025
38.1909585824664859	40.2781035715028466	29.5002782547674869
41.0805645544233897	42.2437264112307602	29.3553358074206265
42.6576908011222642	40.9105982109597122	29.0622486258163342
42.2559873167821891	36.4741471439423179	25.5930109541509481
0.4114486879415065	39.3146398409337579	27.4997246186083402
42.3395099093999718	38.5422484976675435	25.2031713979587195
42.0078442747811280	42.5018332743617080	26.1694306933410203
8.2562638197671898	3.9190433200159451	33.3462641675358427
22.5754937240982194	2.9003873898000285	34.1524450702298239
13.7129035013112119	3.6979356735801283	30.5175042995123889
17.1161366097605949	3.0374777499673851	33.4287441273104520
16.0638980180371433	2.9133513992645756	34.6695695550017149
13.9231576805159030	1.1026172941414818	32.7199409278944202
17.7595718504057416	4.2835793127348438	31.6723077563436135
13.4031260579548963	1.8365721592965443	34.3411667370525109
13.8124558197405580	5.8526163680036065	34.3948046591637180
15.8101654299972818	1.0921828183001585	33.4026090327798073
14.9505944840697502	2.8900812773543190	33.4736482235380279
13.9564571648787794	3.7321279480730434	34.9969886796208982
16.0891245372294129	6.7077623561553255	36.3668621601431781
3.6202830995420103	7.9995988376038651	36.9530316825420968
6.7821208770199402	4.8658875381524078	31.6794628077625831
12.2324919749017944	1.1626507761460736	33.0402849100206737
10.7086820966384693	2.1374842100509133	34.6146729518486183
6.7994246564471368	2.1880534507977032	33.1079575412438558
8.3017202453462637	1.6526782513967251	33.5706825812565555
9.4246348088370393	3.7327230093251980	34.3922288745986933
6.5820462860897351	4.9066464166529444	33.3068940010363619
11.4460038936479869	0.6447710946034843	34.5334416954128827
7.9971740779192633	5.6449253337611891	34.3464867343095648
6.0751441810556095	5.4158277556850081	37.0239227853267465
9.6219661874024087	4.2987616864798959	32.0772022337906435
1.4830693991933703	42.8686202409447645	32.6530843746523303
19.9100852869733558	10.4639217169274943	36.2515799950512942
29.6551740147227108	7.1432609856705911	32.9245019454968997
25.1292489427471040	12.3674988131359065	35.2457414736513925
28.2917653893931487	6.0903577782544778	34.5223834172008210
25.8475109559785388	10.1595484675458252	32.5503650148546555
27.3934224231687828	9.5892507916305689	34.6339323342887226
25.4008363788891458	12.1783490027414665	33.1303856182997762
27.7600486247858456	10.0851356912798575	31.6615040652567323
28.5938186916168995	11.3824436736371180	33.7014005113022250
27.5352397925705361	7.4193664838628974	33.7909088418868961
26.2956376173966042	7.5901784861343380	32.1723084370141095
26.7992109958327092	8.1300229132648756	35.2620388058936030
30.1794018387468341	11.2734770849755606	36.3567508171288480
26.7614254032707599	10.2070149312573477	36.5446461302703653
24.7492215061560756	5.2754629940405557	33.5932048129832381
20.9108109125192385	9.3256967254871537	36.6869837625843331
22.7033083215382163	8.3295209793211260	34.2877931663682816
19.2862971256664935	8.8391721951998523	35.5131297119475775
18.4578592898249241	11.0088070539157759	35.1275454460756933
22.1189702603601290	10.6303907504796360	31.5227444619625352
23.7575302174896770	10.3112896139290502	31.7295040715180221
18.5447905397224879	9.6069633845569609	31.3478708031002782
23.4534767108484559	7.0291173440197614	33.0637957680129588
23.7304873817264124	5.9909312386613065	31.7709501398358753
21.2048183637838648	10.1427826526986138	34.5668806058021971
21.9719077276841688	9.7968188712667654	33.1654580977344224
35.7861415382686019	7.9151673388928927	34.0972349317285151
36.0754852935086490	8.6629618747665251	32.7444259355986205
41.7237436941461013	6.9866870613139946	32.5916655349545721
39.3316584630658284	7.2576138100917724	34.1670478265114212
39.0805590007283357	10.3193051342301736	30.8209793630874422
37.5872399708971869	11.9448310509313238	36.1298652601524495
40.9531227871168824	10.7714944475868233	36.8370131638485461
38.0794873416697968	11.6640547997643402	31.1702000707589164
42.4153686663388498	6.3810731047575331	36.2415387345228197
37.2353730947979855	10.4146230627388583	32.5609315732290199
37.8428474364328551	9.1905424506562774	33.5360572835113828
34.1823428465083410	9.1289138626170896	33.1488791870584762
32.5565609837215817	6.6578733184691119	34.4729287235857385
20.4380257953643429	7.8457939444056901	37.3435199293530147
33.3342077157860288	7.1014070906304934	32.3675141963989361
36.8540420224641849	11.3323660699518474	33.8768760122143604
32.0574774306986399	10.6631121069945412	35.0295952228005660
33.6538934528178473	9.1352160863700131	31.5912537002030689
32.4302608438756721	10.5726099993396794	33.0110734630004572
32.2599795538531637	8.6776816971662214	35.6233508154493208
30.8965156474008396	10.3744649632041437	31.4493067122740833
30.7511028986426531	9.7799278483359320	36.5766327009444936
31.6877188817948507	7.6839061320627939	33.7298989372286258
26.4154691164181443	5.9777334812890386	35.0340689692823943
29.6754107868811303	7.1060589665886562	34.5055213028200782
25.7000530837604728	9.2460315563761402	31.2275836161539573
4.7291740709231469	6.2004473379485479	36.2337689758728843
5.4453082527886689	10.2939499196895952	32.1091576179063338
8.1857558878415908	5.6940161701639846	31.9983765278817032
4.7461404817112784	13.2821496428120867	33.1452984141039551
7.2356116824280523	8.3071712878163151	29.2983001714289664
10.2742848269187643	10.7818090000834026	29.6072389031192422
10.3036528990975427	8.8670444404907318	34.0792701753435026
6.6469170658261234	6.7206057436672753	30.6910757615949663
8.7111356873810131	7.8143325472233176	35.0661726645067731
6.6265501833429248	6.3855609258140937	35.1263243360476096
3.2996008820108806	6.1011389226286434	31.7431533416281013
5.1186517834309688	7.2965445296111717	32.0024053866525691
0.9818504916530291	12.3188251008341751	35.2465501061213828
9.6098604150104148	10.7256531868744815	32.6140111188934583
42.2711719576053397	10.2897613920191731	33.1463475535451124
2.2473133462424322	7.5289367579230939	31.3136176063508955
41.8645501135330562	11.9636023615780260	31.5492032633418198
4.0251935802908196	12.0760737496273443	31.3729453862169265
2.5349864378402422	11.8094530785226546	35.1033681547065157
3.6802998164306451	7.3012436008455408	32.9067003143930989
3.7954050872327438	8.7685929908847200	31.3428346803728601
3.6259687061814980	11.0629500178521027	33.3964326838826580
2.1231381181812896	6.9258672974591295	33.4647885233842501
1.4715084785630719	10.7825694726910992	33.6145925628169380
3.0774677903090000	10.1443041505185363	34.5588689506508189
1.5012665026088428	9.2090430677012947	35.6559438847880799
15.5073092441354046	10.0427735383682375	32.2542981076153126
24.7846863350982787	7.9501790707656674	35.2865218291596392
21.9673117390672736	7.2464061976231857	37.6722512902725910
13.1897378512607890	7.4029926115955620	30.5455822792112990
17.4382604192563093	7.9143319907238849	35.1808770321813427
14.9388852139399404	7.8212227284056155	32.0121353386098448
16.8088307920654110	11.6994444859988498	31.8472959174922750
14.9023760246796684	6.3245375339097238	31.2995063331697700
13.8056923439518950	7.3472578401410695	36.1631228363220600
12.0384549899963957	8.2636482924017187	35.5828867082623646
17.6818747902788189	11.8950463776221245	36.6903127323598639
16.4929932317150261	11.1546905741326388	35.2864931758248588
16.5765642958523962	6.2016535814646518	31.3605495800378620
34.6911154588496160	40.9681765570997385	24.9614864568709294
15.5389593894676246	10.7674743030322766	36.5411328951897048
14.5313855118858228	11.2130093433329829	34.3980234073108804
17.0916486733904378	11.2941397245152118	33.3669873394129013
14.0913013355588230	9.8440697948478277	32.6336281525835972
9.6166867226574269	12.5374034958484994	31.2475343413190316
8.4178381976967884	7.4578619693357187	33.5081830997639756
5.9206139659189372	11.2275013196535891	36.8585377828961498
7.4993764501293860	9.7470270135226791	32.1741067405113199
7.3247109173039577	7.6062188665464623	32.2190108597926397
8.8493154252354245	9.2596269543209804	33.1567976164745772
12.9970524008231774	5.6186590242466465	35.7623046986323558
8.2785961018932888	8.1300967826928794	37.3197940874313758
19.1499374238370699	33.1310655578915387	24.3547119592880890
18.4819942576668339	33.0642458466704809	28.6273322443022060
23.2701584468900684	34.5196951843590938	25.1438139927082496
20.0821804929206991	34.7309881677152532	25.4861540328393623
21.7156555114059486	34.2851772112312290	29.2691991352492913
24.6273251120806442	35.2320487057413843	25.9284720077765662
25.0407058485061746	36.9625784393491585	27.3987808567063098
19.8154195031724463	34.5832240367285380	29.0648564576353898
20.8679419116917799	33.8395942100078670	30.7038793365959997
20.4044710183260207	36.7289234493301535	24.6722519278796959
20.2520160009375729	33.8164013194899837	27.6378822390586762
21.4678513216723701	34.7928972904986509	26.0113892811472205
19.7986274001045217	31.5799085651327793	28.0309280240826482
23.4602330728061865	33.8525101408111482	29.4781672393100429
21.3307759065624900	33.5804399412614387	24.4095865020755589
16.0442982903124047	37.4285944494392311	29.2049296968828003
16.8931468494449675	34.2198680115323342	27.3637113008221640
12.5517103346752279	31.2794280970589398	29.9685069141542186
16.3554038393932686	36.0240563828810991	23.3734903724414345
15.2742857348000385	34.5139742221385575	25.9454387531117838
13.9047587797404848	33.8732430981136261	31.6141550682608781
12.3196254995104013	35.9510714968205320	25.7233625393889938
14.3626291981656120	35.7290026832359047	24.2140265154633134
14.5894851270113488	37.9316885706008549	28.0026854900156472
13.6171203378734287	36.2925408802976790	27.9238541915075800
15.2623991734460329	35.0204395371911588	27.7626461803203810
17.6787964595983560	31.5954095265834312	28.9823179994220155
27.6299727374386279	33.4666246089223520	26.1960874537074133
36.8308052755811701	31.5641572592650199	27.4153554505971364
34.7625243757127365	32.3350751296897485	30.4315546611207459
34.4950570058068280	35.3173039229820773	25.2418079735067913
35.9298103529673369	33.1684930552181783	28.2177625140178172
35.6016610384084515	31.9632102858924512	25.6913797279298812
35.5728093910021670	34.0385684706362852	26.5831130561470488
36.6821393583675572	35.1079224926085445	25.8476907874150719
34.2423181157362819	33.0565946764592482	26.7239970475751321
32.1857747617186973	32.2504365173039034	27.0194341089125665
32.8854642705269455	33.6181889759572599	25.4873210413152549
31.7418375945518179	32.2263569916694195	29.4230315302167895
35.3608830776176220	36.1093190648508084	29.5660436796475246
14.4682160977478045	36.0149615967084173	26.3361401013838901
23.7085214053841895	33.8145989696368687	27.2464669532330603
24.8898943831645951	35.0975112408405110	23.7463609257506008
28.9718385544991754	34.9951687075454743	26.1540931012431912
31.6874320919418189	32.1508537487568660	25.0459796648250048
26.3063707608999700	30.1919194953371814	29.2551214224643026
30.9141378652806154	33.0517198455368089	28.2826421441810680
30.3586529642398126	34.4070434964809806	26.4765907517366870
26.8279693899219716	31.2777011422635987	26.4116897231346925
25.2672264733273835	30.6069079983331100	28.0649520988697638
26.1932196052134394	31.9156614078961063	30.0221355439804860
21.1716719846080537	32.4731016975202706	28.8890207389110678
21.0208368205622840	36.8202012914576073	26.1459703593947701
39.5715214523143217	27.6228291923118725	26.3835000950093423
2.3229994289617411	35.2117995832003459	25.7683313014509174
4.7782281200083965	32.3138870616790541	25.4312540462498831
4.0815532614250811	35.3189404677709149	25.7750109516538615
38.7605897425883938	25.0755580102470681	23.8622964474544688
37.8049274228627326	31.5379464157497367	26.1997832240204360
39.1103341420629604	31.3322713069229373	27.3333706046746236
36.6964193815103741	31.6430273470588475	30.1652632306256479
40.6313984101490178	26.4107640962230903	28.1901566352772939
42.0772708186486497	29.7233402491023710	24.2325429723091510
38.7564501284065912	32.1290838835947881	23.7127185579871345
39.9901389496011106	29.4582382601203214	26.9133300294729771
42.5942771227796371	26.8048637726997896	27.4114997506815676
0.6563810617680064	36.8683502048174674	26.1897904848823870
0.0035074424988540	28.6526966721891725	26.0724235329903564
40.8794512869919231	27.8566860972301313	25.4788269818718938
34.3896382562570153	29.1383854309652364	28.1423404822279863
32.4005331421836971	25.9761411618395783	24.2673182954397859
31.2190732403552893	30.6374119085757748	25.4678502746964028
32.1243015979909998	28.5184964593451333	27.8711333177452580
35.7764274787267382	30.3293315165058104	28.8689448742693244
33.2122698014899385	27.3226475073655664	27.7718158316112280
33.5759039899402509	25.7282639122358532	26.2448171958475562
30.8274323480888377	27.5216951604293492	27.9991937918238172
34.8364885409939973	25.8321997928619425	27.3495077367047585
37.8173832408702850	28.1851572073118994	25.3646808678054363
10.0386273107481045	34.6467644818571472	29.9585778293153737
16.8601897849974414	35.9744274899295320	30.4474334487392895
16.7613686349322144	34.0693364468277693	29.3432276677798818
13.3666673277834978	34.8634569409071204	27.0888720356780510
13.8560827588603264	30.9686715714531537	28.1075317368841127
10.7631069745882915	31.1050715948601066	30.5096265502872406
7.9064408540653943	35.2056178677762972	30.7288725229900486
10.8601071695863016	32.7666680581670420	30.2241254536646409
6.0473933011624199	33.6640526062747725	26.1050195528015330
4.7807331480956279	33.6257104954854924	26.9757568789699924
7.5420802445291741	30.8045540715176678	28.6883460559794869
7.6259391105505232	36.2778633731149753	26.9861791541106442
11.0505563327058471	34.6894348851865288	24.8145377067769957
30.5203021326425237	36.5965505279805043	26.7846975329550894
6.6858666337689385	32.8075389357791849	28.0329514950572900
5.7583665675838374	35.5485002391345759	26.0307999759366062
11.9257944111904148	34.3602728776631210	30.7189931856733516
12.1394557270286239	35.1274677674017468	28.9958623946322938
10.2495779469144885	28.9927794080665038	28.3477542886418483
9.5488551455959936	37.4451281177373971	26.6086769869157287
0.5278678036642959	35.9587829629309184	28.8119370988999215
3.4821043029681675	33.3146036378646642	25.5144424659075071
2.8165892742897252	31.0600020224080851	29.3672485581826201
3.6738882419693328	32.0304780239726270	27.4265478047921363
4.9835617047495591	35.8694942628620410	31.2606143642748542
2.7376133763255908	36.7854707137408710	26.9782778725852168
19.8683034386781543	42.9924339425677431	27.6197093072035962
20.1104254468750447	38.6809327975481096	25.8829938034620675
24.4644460784628137	40.5025876473837911	31.3513941932260458
19.4929808389227475	38.0331994396338615	30.7626939069619283
20.2311709765913506	37.9622925335429144	28.9246833185901764
20.5278521937143488	36.9831835169684808	23.0495550453970353
21.4854419725510475	38.0472576510478717	30.7658777888604114
21.9132462642104855	39.5877622514058984	25.2056437602110961
21.7446602252529075	38.5178033617919269	28.5603234433342692
21.4509061294717043	0.0286694926915771	26.3853616222699614
23.5614793684738331	39.1331006789056062	27.1919332955428956
21.3015873457363476	41.8899495951033671	27.5657552397806924
23.2040053819321415	37.5985988861802483	26.7304431318116720
21.6076382963014275	38.4126847835452025	26.9639309269656309
18.1990894392486986	39.8153162078489089	25.6082475305737560
18.0690717442382649	37.6142847792026984	29.2732808684382171
20.2039014293172769	40.3802753538819488	25.1644884033782930
23.4385407391505431	42.3608253718741423	27.3340400926886140
14.8900490799295557	42.9199856256755155	29.9740903185418652
15.4075347178415143	39.1679136217179789	29.7445748724186210
15.4780320404788103	39.4367975663082646	31.3106394450971841
12.8651224323837230	40.4812199829628270	28.5945976246376041
15.2754367386269401	39.5085159522698390	28.1374417480721490
16.3135975466794214	39.5792597310128826	26.2493799649575763
14.2591917535587633	40.1173695630530176	27.1370294152937959
16.9909639381929658	38.6960172080620808	24.5445341711492802
27.6695312479567335	39.0266147635568430	24.8585801249866556
33.2354792776241297	0.1999591057962938	25.4752059308710450
35.1042876686857070	38.7876609224446227	24.7625136125093483
34.8796042009746401	39.5035903483933879	28.6325633541431905
32.7096633436737321	40.8866163686491575	27.9038323208590704
34.3130542924815671	40.3671518945783347	26.5476552801513357
35.0798067836861378	39.0458658905817799	30.8055248390820253
31.3852642303771425	38.2850966550050771	25.9772544572044595
37.1546585669692675	41.4576706093055165	30.9055373263246196
30.9418233024681939	38.2468954759900441	28.0017194607082018
31.6469681707472397	41.1524204313901762	29.0758584952012207
33.3950680314156116	41.7999317420812275	26.2313817487763714
33.4810801152747430	40.0544941964488643	29.8591740152775245
12.8924100242839863	0.7809656335550447	30.8547915974787941
26.9695745233107758	40.0301110923478660	26.1351740604602476
27.4414435333195641	37.8945404456258004	30.5161437631758972
25.4786689338938999	38.8812360142670883	27.2920025025388178
26.1256053833697379	41.9075868504509685	26.3267527375183263
28.9765095516525903	40.3913983984310860	25.8699598838371152
25.5534194166272464	39.3875416223354478	25.1211962254736108
26.5740567196713471	40.7961001960977754	24.5376082840355494
26.8265785896693600	37.8129272983058726	28.4163035957854540
27.7757307074597080	39.2591618470461299	29.9278573390083587
24.1738105634032081	38.1642214966502706	28.6624955343564629
30.0131902487901918	39.6196766157778697	29.5785514005720671
24.9525352103412921	42.4019564151453423	27.8305812739639826
37.4415056450079717	33.7764695622630384	27.2737148720718281
6.2383922967916288	40.3042844614070077	26.7107955769054861
42.4971916464231398	40.8783476351382333	25.6758314990477317
2.6740551742136653	41.5489158863177295	26.3558026929093963
5.2516642996437906	39.8836703461306286	27.9129357324843141
3.6047799084339411	39.8510355731937977	29.1088230747461516
40.0399761151879616	36.4680882960841970	26.0260577545732197
41.0470677434557061	31.4680833006282903	30.1536913288710444
39.2743866301331650	32.4694736363183623	25.1589755745676378
42.2093303736302801	32.3750877454264767	29.0916177105906542
42.7224473568504450	32.3723950952788542	30.6858328617025826
39.1850731061311208	32.9498307258902656	27.0800084628704099
37.4977922253031650	33.6826494561862404	24.4063082524561565
4.4813258398736684	41.5749962070728927	27.5532292442105060
40.5428317485622287	35.2209278691122591	30.2077410693358495
36.8994922713316953	37.6262331499580824	23.9302018221820241
37.8587643032380186	35.4936606095449037	24.2141298451091878
40.4498462318974532	31.3561305340811600	28.1976450822125706
38.9699831454755312	35.1987095663861567	29.9830081816630774
0.7361231266192635	35.4887243652121356	24.5559472874843578
36.3480610788960377	34.9363560503417148	28.1766734413472548
38.5905185471022847	34.7196827929665091	25.8664219875022496
40.4640500504607061	33.4259315491557274	29.4031786795583336
39.7035390811199136	35.6789010634671442	24.3803318888503320
38.7651214995442643	31.8740828838052401	30.7016602392264346
36.9126213867457551	33.2473019983113289	29.8213833093325213
9.9724474207196199	40.3080249650352869	30.1600172425938062
14.7121774554059339	1.6767630628004591	25.2785237120048443
13.3955723878151378	39.7391764432443040	30.3876997080658171
15.1271411498302264	41.4232380811425998	29.2374490455464375
17.6429318508716300	39.1925440800111105	27.6258173208081566
6.8001666299214056	39.5889640334961541	24.6370430799042062
11.7209669379234978	41.9632678917530626	24.2981021498801546
10.7094385078491925	41.9396171843847938	30.8426554440309530
10.0207246943049473	1.1999359446091884	28.4391354871508710
8.9815611933907071	38.3520121097635425	30.8070457813818237
10.4786388930380738	41.5097862551188612	25.8043882737631947
13.2507405623626422	38.5813128458141676	28.5724055555607883
10.4385996415154185	39.2054974224638997	25.7453757992966459
40.4729315300705750	5.1225222488541551	36.5246072298008357
5.3834244262789435	39.0425076863720690	26.0374797377069207
6.8733243087411182	38.7603085061886006	30.9802493398679921
9.3457268606521442	42.2903883632898285	29.6061543849632720
9.2651857406005682	0.2735764732975773	26.1747941321854078
4.4722298056409304	40.8471908135296857	25.5650693659096966
1.6234335337667001	39.3590678973012871	28.8487538936295067
2.7014448667458724	41.4100151100978309	28.9891256581937249
2.2932234218145213	40.1806115597993809	25.3669810551808474
1.7032125888670397	37.5006245436196721	28.0690313520158128
3.7548399436721205	38.8018411237044702	25.5727459343416861
3.5692888976145993	40.1824147808467842	26.9634578608372451
0.9683624747251185	37.7488027739485901	29.9690291237358011
31.1585715021599086	27.1048912170256422	36.0529343100587241
34.6410365003686280	28.8484843798859316	34.4811974520426006
31.6619377521506493	30.4470514982792899	32.8366083997544322
36.5769904748691488	29.3636924907271144	34.6373652228008666
35.5552295839452128	26.4790819074635202	31.5379796309204323
34.1677634528502594	27.4006792297320949	33.0284183631260646
29.6470950628076686	29.9659366518075636	35.6401860021196626
25.4176833685007182	28.0974753392414769	32.6646090054558371
26.3536406135122441	30.0195453407132753	36.4397626197170652
27.4327305645308961	26.3141039158729413	34.9656228225742680
29.8600562115725197	28.3910539159462978	37.0687005102884441
31.2654299048068189	31.5925616718429225	35.3846879027091887
27.8037240109140882	29.8645889961490099	34.8731445311768908
29.0412098656141708	26.5878288683802495	35.0961661916439098
34.8587054676803092	30.2334123272533830	35.8482486325783967
27.4997199488137980	28.6555230645811427	32.4606078007193801
27.8825862115139422	25.7414337845798471	33.1043437553218141
30.0594893316183480	30.3130379632236178	34.1124695735821462
26.1440710273596508	29.4388246197377867	33.7284081554425583
27.8062374921301618	29.3099949383153522	37.0626139253585265
29.1285129775267073	28.4817373674189938	31.2351959187634201
24.0491083730399389	28.8290766598577193	33.6467064247938126
19.2001411399297233	29.2959289696431249	35.3373139130601643
23.9224857296792095	26.6691173337603793	33.3547673090275367
20.8959186238627979	23.1803252258746220	35.0304806011731102
21.3991250278594798	29.6281333264860578	35.1422845005953164
18.7628302381473766	29.5373275615710327	37.3651213515788569
41.5759849108228394	29.3909464731390777	32.0043108263637066
41.8177080892379536	26.3982017030340010	35.8257415050610604
39.7703603599824618	23.3370561209755856	37.3140678019004000
41.6559070524609325	25.1905656498131378	34.6886078475702035
0.3725658202984127	25.8886550394298176	31.6663311485526364
38.3122031464658548	26.1389870118619108	28.8028543241122534
39.8198424062503165	26.0656866092220056	36.0507527451486851
42.6082140608095301	27.2476998801800505	31.2409497801753133
39.6953813692137203	27.7987529976413654	31.6204583566529926
37.0262205432676978	30.2665091863447593	32.8308843015578944
42.1019167788996569	27.6271934160219992	29.1803039894769682
37.9785135109632392	29.6195536564271080	36.4096058467543102
36.9037099581584371	26.3910248830998135	30.6140202178332785
20.7848082950607669	29.1170512006621820	33.7046768404857389
37.8550260712739828	25.1544239454074052	35.8494221268712820
42.7806097401943504	29.8072680473156240	33.0470404225358223
38.9008906442977818	29.3882097622669072	35.0103673909178994
38.0299826047118685	26.1037390145601726	34.5235393712086633
40.3826528064840673	29.5614089040370445	33.1930937920567715
39.2098009365224414	27.0358259662236975	32.9257424385881095
31.9562882603376828	24.5930931185780253	30.8313935154500456
32.9838552196066388	27.5649772636748835	34.9140860781614037
35.5890090169092304	28.9612189952975392	32.6563177110497449
32.9373754206233471	28.6687071055786937	33.7319593355020402
31.1143172297792852	30.1876011431975542	36.3712617527800717
33.5554850009401378	26.0691449287443255	31.6754473262855285
3.6481791306991336	30.3733229082099712	35.0616181598912533
11.2540995246535420	29.7387740638171039	31.9009139836507423
7.9926533404792677	26.8241809958411999	32.8214133735900759
10.1460743135166354	30.3463245223020586	33.7664791562069908
9.5354777944074485	25.7746154000460344	34.7012086498808330
8.0929960111380286	27.0527509289472938	35.7713744013260637
8.5022193625695106	29.0359475355243504	33.3104476112075076
9.0405505514203721	25.1450889554678980	31.7818937577574729
6.9504857296190750	29.1427120667031190	35.1406542838100009
7.7535544662350881	25.7061773265349665	30.9225413424024786
4.9725196427923963	28.8319810626946413	35.1625264970849969
1.7197225286540776	27.6187471271087439	30.8259420306038940
2.1283442749292432	23.8601114191308277	34.4022396277040556
7.4867119915146230	25.5525979227565045	35.4102754654431138
6.1140964502620356	30.1999122074548829	31.4762566595915878
0.5310382785385066	32.0037865232465535	36.3223701785327506
0.2160148928660067	26.9161784630451031	34.6416875667383195
2.1142020935512371	29.7415176519636795	31.0447985109416180
1.0145650728591185	31.3291018484612387	30.2628962532661312
6.1290191509622147	27.0473557763859453	35.9900157428413863
1.0589818786302752	25.7859674610793626	33.4586060076609328
4.2947895261224849	27.9832748727646923	32.3473751897221362
0.0931696080870363	28.7982365454734506	31.0505545100688600
1.8011645077782934	24.4177291058581147	32.8826403607382289
3.0622338427697122	31.4228722593465832	34.0199614060060824
3.9079650314489305	29.2662216124597130	36.8747204863772495
13.9964917230739925	28.7526971950365393	35.2200531144652587
22.0988501620107840	30.0087184540445655	37.2010789344183337
19.1342226680900680	29.5853772482412687	32.1154521486156881
22.7450505711294184	31.0271392499805323	36.3548438332600341
21.7666331575185552	27.0272950993662384	36.3911709009906659
20.3667865704382578	26.1874313030759573	36.4635917678605139
19.8961428494692179	27.9306509681669475	35.3026876054986687
24.2799296598742984	29.4322183730453588	37.1204523192069331
23.3514395775767802	24.8913785990741232	34.7158049335011683
18.4518957358886695	24.6950499217352117	32.2998719169596953
14.4880856312442923	24.5060127172121476	33.8689491339962956
16.7244810702430975	29.6248840158188180	34.5836274567266884
15.8932569752893560	24.4036009392031659	34.7423120123263161
0.4609731987426958	28.8376067894709003	34.7124173102789157
14.1037322881266576	24.7447423505707214	31.7287465251600125
16.1593744583421390	25.8875636209435882	35.2474629033805229
17.5031425476351181	27.8492743081785434	35.3739083380164985
13.7822524526418349	30.2988497756934265	33.5613980624217874
13.9209508578333203	26.5076208588034845	35.0660207434511335
15.2621237910491487	23.1805704691203083	33.0415335668162697
15.5412533495079472	30.7619895922019992	32.9307485808607368
18.1307628191005143	29.9738806754039757	30.3266558475296861
14.0811278295112974	29.5858757173931082	31.6075222792061439
8.4431777621666662	28.6872060177636605	36.0035484475254819
8.8602927104464264	24.3284502449458309	29.8009423485290483
8.4879922625708399	30.5795814853297756	34.7563192854063914
24.7463272415090003	31.7771235382003425	31.3029895946578733
30.2083192017513440	34.3321355065078748	30.3281347920046720
32.6428122343771534	31.8073806057625319	31.3988665075334694
32.6314020105590856	35.4627234569548762	34.3981780000185466
36.9405257504150057	35.7698850353712317	30.8331129849616801
34.2131990019724839	36.4378163508405137	35.8793303940128467
31.8714093052290792	34.6412588483735604	33.2063766338436253
34.7604434279725680	32.0726578073365687	34.3769839455794326
32.7787204968135129	33.1143400473194660	34.5001427170699699
36.5332553289874156	36.8274666356660489	35.8419253492883811
30.6403188721108606	32.6080324431523465	30.6489181011248952
29.4945067698650725	33.0120064273175160	32.0239706784800262
25.3757896431723289	37.2052802650584837	36.5204959880835602
32.7081296745874965	31.7927632568825338	33.6470292409636897
28.3229134966179714	31.5543330373049642	30.8961476734655101
29.8593798538598456	34.5224939219619813	37.2065174346185330
25.0291646054394903	32.4414596033536782	34.2956210858519412
25.7881625794775537	32.8483370308655509	32.0688552342312647
26.7831192080125398	31.4606136408556587	34.2419376205852402
29.0799551513493597	36.3610387641892459	30.5126190917589248
25.1299620460029978	29.8291886276338083	32.2084754933894715
28.7614986734662601	32.5030572084210405	34.0826238780747275
29.8456291638653184	31.5255831832426168	32.5030444221099657
26.5335290916740334	30.5658312480590837	31.2239775753208448
19.7886117246288364	33.6269031487996060	35.9227153043909624
19.3510874390147798	32.5560162485278752	37.3309264970522179
0.4997115275209703	32.0106432088752300	33.2905642551172036
3.8522074421993060	39.7651966760240256	31.3433318312510245
5.3763260516754228	38.3986962952760109	32.3344853369434446
3.0671274473463224	41.9356902560645040	35.8612957499192859
40.4966574989994612	36.1547574607116928	33.9754672104499065
42.1992849049557179	37.3706283158488901	35.6236019532763137
42.7413497089751999	33.9548103440206503	34.1628744276229810
42.7384186727910844	31.0499131051731609	31.7321446578803688
39.7841869643439878	35.5092685958318626	35.4134267665037825
42.0757784985695054	35.8557278835853168	34.9382267936099566
41.1681115833185771	35.4087203050575781	32.0781820360002996
38.1088256661413496	31.9985333467829705	35.8561447567289093
40.8925202761028359	34.5028685009277609	34.1136529419662935
18.8581585518564658	32.4936185583970740	34.3798061295208370
38.2868836600230367	36.8017921806992803	34.7684830297477774
38.3412912475018359	31.9838130991307636	32.8585371304427056
0.7056082060458503	35.5582575685718325	35.4020098478464220
42.0817782912230527	34.0435996144380368	30.5293194405452262
42.1978144179128805	32.6104401250197711	34.8136167425484544
38.8178081177271324	33.4997640087884605	34.5266172874463564
37.8572191766917143	35.0507682661664219	35.3113214563319602
40.8704374225969289	35.0278517074465157	37.1851764010084835
39.4116488796551039	32.5684188257267948	36.5646539623114961
36.9930907821325050	32.3828453254678905	33.7294871603765003
39.8136076086870432	30.7759933337977216	31.5166319778813104
35.9475924978585368	31.9889997853209067	35.4373689279102919
1.0532716097671573	33.0165875025682567	31.3859267887051487
10.8673505952721161	32.5848440777239645	31.9566813260875868
8.1478908933416054	32.6724669898889388	35.0346333248013266
11.0847000141630492	34.9602480658889903	34.2467117403654839
9.2602734526830304	32.7308649077658984	30.8223689183256262
7.1069206477994324	37.1706719776494552	31.2757877916045075
11.5825117485344027	31.1871808579377081	33.5091652530658095
7.3410385839829440	31.8122614816559519	31.2819575369748861
6.4419310719901279	34.1411579612112419	35.6857248070583211
10.8010508334064319	32.1454483280289551	37.4217857078165039
12.7917574115698116	31.8001524480521702	32.3516367549413388
8.9816102944385516	36.4512254433131631	30.8801046802596204
10.8329099252697905	37.4752771596898171	31.4812852134516952
10.2613072952755058	35.9075652762491302	35.3269506991470763
3.1923393411025573	36.5433752766364606	32.5679477114575917
4.6695726212835460	36.6990086525495300	33.3294223125999380
2.9246967365108580	34.7978518549016229	35.5623621044865672
2.9690013232227219	33.2487758056215625	32.5319857235695480
4.8054722848451439	35.9003796066783138	35.1368455772683603
3.3590553023047529	33.4142387062292485	34.0765540320722664
6.2368928644664772	36.4875074824757348	35.7855375299626672
4.3455046584630761	35.0418814221025912	33.0313897471423843
4.9208697026027703	34.5830943013915544	36.0281816405062258
5.3761472285584837	29.5889166065570173	33.5183970136734075
37.6305747316280517	27.1017412283115924	32.4786092776004480
41.0694015870365732	25.9963863041460499	32.1023895536817037
21.7670227334934374	33.5586719683283832	32.6597896065644946
18.7580395190510778	35.5937945471854462	33.3070125376769184
22.5813215654942141	32.5664946381453078	34.5109877764688733
22.8901662386645341	36.6138974005761426	32.3460534234583150
22.5054004309538378	34.8153208741951161	31.1376314014012863
22.3620152623057109	36.0480964791355873	34.5068063750772396
20.9318997700172176	32.8038530141437548	34.5975044747600577
21.2611947255678544	31.6751560977570215	36.3574688621592799
24.3810293922947565	36.3024121032557332	35.0345385215109886
22.0634305854349364	36.8036869213825568	36.4293927616802975
24.0464435270419585	32.5905526240686072	33.0024471915888427
21.0268871989702077	36.0620550233678046	33.5505321846083575
19.4075101172309488	31.0901033668182123	35.9564557002829801
3.6472024722782406	29.7329165248616434	32.8594030213103920
15.6893352516204896	32.9711004597470705	32.2815865884138304
17.1035715960086954	32.2076078553362635	33.0341638621680858
14.0953494686912038	34.6990483356108470	37.3195714558370710
14.2433584609341395	37.0069944246215670	30.7261606479038818
17.6212923568904856	33.9030907699608974	33.1379075976858886
12.2294547198671566	33.2858230142333582	33.0826832008430642
12.6816960478165104	32.9271705752729176	31.1527291884622350
16.2401121708263716	34.1922102880115020	31.3515381887100126
14.0171893151548979	30.2803728946772530	35.8045678609068290
17.3570441023098283	35.0658875416759059	34.8475233080684816
16.1709332528615342	34.2415092945694326	36.4982400846686872
11.2252069440394138	34.1872572043318144	36.4482545612324458
25.5412742071022869	16.2189794154609785	31.0315329929353005
26.2226394717657598	15.9337190027258178	35.3534316560507449
29.8267547641827271	17.1761337946689565	33.1559368171932078
30.2319903309536926	13.7952129659466447	32.0132055656318286
24.5437137295578971	13.5191610660345933	33.3489876247853800
24.9125958347482417	14.2684750228529751	36.3170032091506485
29.5081186391036105	12.7166116914372331	33.3085958746443751
28.2137449351064653	17.4648156534897439	36.6832999941282267
29.8229809168244593	14.9894345368358284	33.4573591440979925
30.7220041459375075	11.6684376710575144	33.0146793371797500
27.2338986137562173	18.8065326911676998	32.7652385361019753
26.1887287109443214	16.6833050696799887	33.1037820052877478
29.0146506885100770	15.5264347942946301	36.7136814045519984
30.0071947638277052	15.5284770312478511	31.8248344798325427
28.3545494667583924	13.5252337226903290	32.6171606429709584
24.1588476173168907	13.1051802527767709	37.1875256457003758
19.4124545387925984	12.7653901183841079	35.7634785669525144
20.8908085128420566	16.4815067749085529	33.0020814803058471
24.0788461353515544	15.2073282362329927	38.1442877375434364
21.5133606323614295	18.6799608602572782	33.8153982763170831
21.9701870653611628	18.2118692570255440	32.2309094100402902
18.9064368874818385	15.8635076629970939	33.8111260296620415
20.1138104403558060	17.7471412336185885	33.6244748108920533
24.2512827321038635	15.4255756715382066	30.6109295569629118
17.6224665855723579	17.5668498779136897	30.7930366817986787
25.1444162534576705	15.2743461601546855	34.3670897615165174
39.3470054092107659	16.5321705227919864	34.7638968998120674
1.9548286620250566	18.4840616733480871	33.5900144359228321
3.5743739080300436	24.2051532132706164	37.1792983290871675
2.9598151302295159	19.5236865794137913	32.0607028672045402
42.8248010780254162	16.2436513844883734	34.9593253730586611
37.4996843927702841	13.1139783003551518	34.9896925653633346
37.8903000890191990	18.1043958997198402	34.3940689713531356
41.1105169706194857	12.9985165921144361	29.5608275390334363
41.7603646775578028	12.6274426715850687	35.8002746828534768
38.3052159127884622	17.5358599409148930	32.9032755465751379
36.6715993296094069	15.2393922848758727	36.7645421354629960
40.4349650192800638	14.4903952524391872	35.1281017638719533
42.4256184272419432	13.9122153595504123	35.1091757701328930
24.8205198577916839	15.1304592048326025	32.3827577874467707
34.7477414411311472	17.1242509196547488	32.3592624915770983
33.7991438924834853	15.4955539184161957	33.2475422790394646
31.1979339471930857	14.2046266679892490	33.7220417819835561
32.0869221976707379	13.4116617053239064	35.2468784050247166
36.1499074086056211	11.7006127607180144	31.5025082840824595
32.6231986873978812	12.4281756687134699	34.1343261633154285
34.3057525238362615	16.2265723142086209	34.5607109014180764
31.7145609896693408	15.4127611552227464	32.1812310609572947
34.0373006949432551	13.9740865527830742	34.8983358931778511
31.0595244367885215	16.4525214363391221	36.7964131261099254
29.4525817179885081	13.2874454527658781	36.0274583802012458
30.1503139381643805	15.1337320222727669	35.5634904437557680
5.1972948749502645	15.8839407148321659	31.8049378307068018
10.0988439235886158	12.4356097520230549	33.3098308630679725
9.5750673847712537	12.8785197832257907	35.4900622334051334
6.6526019563936130	15.1997936523182009	30.7397597596500525
6.6931085098530616	15.0756090136073961	32.6339291719184601
5.9961988099740795	14.0581012392313287	33.9144546048956244
8.9902576368198304	16.1250156282304395	32.8139966087466206
9.5551702506650020	15.9685191982613546	34.6654365635279902
9.9549461114615543	15.8907233579728526	36.7939381604841671
6.4697624872431669	13.5426166191041233	31.9238125677617042
7.0843657743198358	17.0131741757261068	32.4861031888054015
11.2067501977667021	12.2900682119586406	36.0886436260734484
8.2646610754345531	16.3338448452167917	30.7468651419519539
10.3067362552558688	16.5449992884356512	30.8789331310006929
7.6463774809818164	15.3914075891094324	34.5226261114960806
2.1127531017467489	16.9028596068546619	34.9398212978907097
4.4276804120402984	13.7040911810699573	35.3479047472678261
0.9106292795129693	15.1023339182124889	35.6425657691389759
3.2435341623086256	16.1921969521899669	32.8131748931567415
1.5291928365474088	15.4770048944877825	34.1226268892204416
2.9496505831696211	15.2668777136180829	34.8910257841338662
37.6662696501064644	7.5333030647069492	34.8630862878882937
40.9685770952698505	5.6977173112483843	33.6737145612499091
42.7025879302261160	8.0336991829015663	37.6241959688526535
41.1808127281018344	8.3896796929539370	34.0671059061482850
39.5161841470676691	7.8453692603083303	35.6417362202410644
12.9425947712249876	13.5995282995213618	35.4325592958888294
19.7932415439166256	13.0383325420895240	33.5471663322198808
23.9056446293403475	17.4745187331647429	31.6187926463602480
14.6644182466181441	16.2277506251642833	32.4493610916065407
14.6156526827536517	13.1300184442976970	34.7677666117005515
14.2013535693487629	13.1487176608815659	36.7960283173432643
14.0578396692079419	17.7713069505240640	31.5625867569598526
12.0288479725405697	17.8613018530983716	30.8849821135026161
14.8467296504812314	17.8075447412219887	35.5377416761679328
12.9439549145735882	17.5041424829919166	32.8284907577772032
16.0376681735230910	14.6053402962666024	36.9176909568714748
12.9157540080242619	17.0844853268907393	34.9207514575937807
14.3109051820887743	14.6665841439962144	35.7820328265209184
1.3529785463433031	18.7372398729026131	31.7189015857372141
13.0119845209063421	14.9003987023748614	32.6722281172915601
13.8950767178880721	12.9656928841266872	33.0783971793061795
16.3152696452324655	15.8653775974162432	31.2041265618733199
12.8999868984061603	13.4700664556074479	31.4052482021973205
11.0170869613185971	16.1709646942245300	32.9190335603707069
14.7260974536315121	14.6979708372902991	31.2739644443417788
17.5060565784810507	15.3337238916412932	36.9115920905759793
18.2113733302548582	19.0686165597054611	30.6124885765933392
17.3382035244511243	15.5329422277171254	35.3323896706104676
17.9319621276104506	13.3265328762514379	32.8588271394648999
14.2077667054890551	17.6928202527284029	33.9857700812589272
14.5334534393892181	16.4245088333879465	30.4560484421169058
28.4661138859688734	20.6478991723725542	35.6080704231814238
36.6249133026641971	24.2819592874869308	34.6248952950913775
33.8922163064603694	19.8526371606091665	30.2973757679012579
30.9398136028988162	18.8819977589699022	32.1017448827180161
31.8546672378264191	23.8094580587419244	34.6001422691509006
33.1329881235255357	22.8435639447160277	30.7584459776688313
32.6370296102910089	22.8293099470410112	32.8720071641888012
36.1479137235606061	22.8986378417090002	35.2871616887211346
34.4787161273304648	16.7663250860127846	36.7923823633639913
35.2192895293898971	22.2511541486368287	31.1745324708480780
34.6763115711216798	18.7135079288948951	31.3970395875135573
28.0074629818400176	20.2882399169597285	32.4166337493164107
24.8183214426846099	24.2854178546074522	37.7637959190155712
36.0773871030118798	21.5442241709862259	33.7012639030912950
29.0529104907037166	18.8724015792873594	36.1954009175589206
29.1473867838416787	22.2216067915208946	31.5882538757054832
29.8171194753344260	20.6036769745612673	36.6282156262436800
30.5219404696918808	20.8127384032347926	34.6409949996338256
29.3659577645487495	18.7890555682944509	31.8576257985367270
30.8582600227323667	23.3321502435296644	31.8693257601980768
25.9910894850592697	18.3184102451893018	38.1352689153141355
26.0247804228562352	24.6663402522677302	32.5289051960183428
30.7339784540084757	24.0855865881141469	36.5646564204140248
27.3874317575579020	19.3427604843307179	35.9774272176847418
24.9814589106232923	22.0923046262930036	37.0760397234300498
24.8624549988382206	20.6460140517753103	35.6454156869402610
38.8607440488967129	22.6338034673896402	32.6707274355901802
0.3686798134515570	27.9343842478884596	32.9098060672863753
42.8712317108139160	27.9669663473356245	36.5270804667420634
38.2412814509068326	22.8338962104871861	34.9638724282358169
39.8044618912453529	21.7344015090198042	31.7276838720428351
37.7460353107555591	19.5667474120905887	30.6773368835072411
37.6033417462281818	20.9749923705704759	32.1551385741984603
42.8297881542481278	22.5402618250789715	31.4111039827110403
36.2953638238476728	18.5245517481572612	32.8607021406079198
40.9777715713277715	17.3329860169021330	35.7699039121024427
37.9104380477365410	21.5464213818575274	34.0656776559788881
41.5484154654292013	20.5644916284900532	31.7283554474568170
42.5099975483943666	23.2700383805466728	34.4449206617403192
25.1761781785710212	21.9518382911677499	34.6712903745717540
42.8262565978621268	18.9494469773364642	32.8335697138519222
39.3473277105775878	18.7121405841080950	31.5097732918822544
0.0398432500271255	21.7703062961619622	34.8006497897642006
41.9318741385087890	24.1851843396485293	32.7109672974971062
35.9174568524671400	20.4845717318568710	30.9522234125362345
34.9099950434801087	23.0899106934778757	33.5319098976916266
31.8403767774554822	21.8626380370768274	31.0751784286530857
37.0163199884923486	21.0188492341127997	35.5566315837856450
32.3477620515605935	21.6935018834616677	34.0128325397890237
32.1271959637740849	20.5306189549773634	32.9207084497418947
34.0213713851544171	22.0358216737379102	32.5712518992930029
35.4504476350772038	24.3648219549225686	36.8849171168947620
8.8129276185120311	19.1545349484706797	35.2834125639346965
6.5717758114490552	22.5387526343338109	32.4557773447015094
4.7444638260089205	18.7658219257207897	34.0858042473541545
6.1876210868510499	19.6141746853452155	29.9708384818453553
9.1889230143589771	19.5795292182195269	32.3675570840361146
10.9411849623330255	20.7141192807731755	33.0495155959222302
9.1311881436086715	17.4116586828032602	31.8270787494829115
5.8852811949120962	21.3420226116379972	31.5533894491886109
8.7003266926665184	22.4625359597422118	33.5172759644428950
10.1551549613219301	23.5695370820493437	31.2225848088132345
9.1452510244537990	20.2564676638401906	34.1284423964595192
7.6951303301071441	19.0918224911579806	33.2103125556775751
11.8633065992737947	22.1196835775927170	31.5532798166749409
9.4112981859816731	21.2266910352964260	35.9889973812590185
9.8322690525314194	18.1667032827843009	30.6344589116306167
10.0258233247898705	24.1246491572366928	33.3314343616669007
7.8726632393368075	21.1466622659347863	32.9983810744458097
8.9410163155833597	22.2493835010385119	30.2082222798367113
0.4383031947480023	20.5119857323881263	36.3133696847994401
42.9587704489278721	22.5068662331626186	36.6971428491090208
6.3812245558856295	24.0404552888036136	34.0662045119989472
0.3217705706254628	21.8258544311997973	32.7458160162601217
2.4470730594624746	18.6391966779556775	35.7331981644507550
5.3213494360358533	22.2198851436063585	33.5825883010691015
3.2882035018963394	22.8200943734700239	33.8836659783781116
1.4895436905379971	20.9547467036379800	31.3750978728579781
19.4028097641047417	21.7425122718787449	35.2674886959734408
26.6460764494728402	20.3894718096260874	34.2297177854393624
18.2759050653654285	23.1008537077095255	34.0734439039163277
20.4698645762999405	18.8095224702177610	30.5497383594503482
20.8310819764077948	22.3685489528103254	31.3854785560246121
24.6108054678745667	22.0115383879296509	30.3474900865780697
19.8604456083009069	19.6108005926587516	34.8788211827640779
24.4243690669757072	22.5531757643359825	32.6731855799088464
23.0462293650876582	18.8125463684326313	33.3049999084199868
18.7085244625218117	22.8202764301652934	36.4352152292225853
22.6089742479295914	23.2191837037276052	33.8389429258390422
21.5085441028464857	19.8076371847698596	31.8238569921847443
23.0130695841047483	22.3073383534963412	31.8428061370066224
42.2362330287074244	1.3952477054143766	0.9125485912432025
22.4788991286169377	23.2913304212565109	35.7991281067251563
22.7336170116534646	18.1315125407913378	35.4856136224365812
14.3616529747688073	23.2704453288511317	35.1458673799375489
15.7789921574236285	19.3481103766923006	34.4288818786429118
15.6021073482352826	24.1216824199003632	36.6114368804394132
17.2202689792813288	22.5608949412749951	32.5410657597372932
17.0430766639154676	21.2635607708574668	34.1359073777937141
12.7406901085878399	23.2397214795479350	34.7809492509479909
12.9372307992498570	25.8480164016743075	30.0127446312280739
16.2016658923161394	21.4981905779830065	31.6327871061595829
18.5634636567600211	22.5280888089003355	30.7099974030727552
10.3914256142195800	22.7623023137251863	34.8010102081698136
35.6713871069087602	22.9990161320486379	6.5315922104856181
18.5350336559096824	18.0772961335646549	0.7947014976644999
22.2918269914849638	21.8660553349945275	2.0777032571056622
23.6806790773991480	21.8301864756827335	42.6419092799758701
19.2801649280405023	19.6136040694022320	0.0281538536622250
18.9212692223253747	22.1054808879946982	5.7893416634332837
23.6485294445287302	20.5136051254245082	1.3895617772356621
28.8793339221638163	18.2030109266226248	2.3134622033481991
33.3599136794951647	20.6739491226949852	11.6586700516265616
35.4561056015364997	18.1885424282141486	9.5977525823928183
32.5935019907512995	23.3519279462536176	8.6425481170502696
33.7808589428172112	22.4599737615581780	10.1977059228126414
34.8479739832681474	19.1361724985512076	12.2900635294544394
34.2754256054827877	19.5716853897189473	7.1712646597330085
34.6833967620434294	24.1633690908958378	9.5019635356634478
34.2394972820668642	23.1069489920272666	8.3158929542156592
34.7417509067643735	21.3470085964457859	12.4513408337733615
33.6413028650481678	21.6234751587395913	7.2914930356531107
37.6428058691271943	19.2280634240280044	9.4233927909498458
22.0368656691773239	23.4312487245696843	1.8903710101518574
18.4329144398318050	21.6550139878540833	3.6108258463041509
19.0153006458203073	23.2474980780685918	3.6826910504914006
20.1489700298762315	22.5413044558946645	4.8053643458878659
20.2168685933366454	22.6017238576280626	2.7662739100537910
37.9887508603157258	22.1148120231554941	10.6328033224389653
41.0628144756409839	20.3196872548216696	4.9939607132985211
38.8399470476414592	23.5490951705044829	8.1425025535360902
35.2292971484552098	20.8082993823554148	6.0221416045908587
38.6969681298436683	20.7504753193922475	11.9732246377081282
38.8251793876640292	20.8110612287284269	8.9913654109751562
40.4269872591087704	20.4064266950346216	7.7118452330174474
37.7719401261648926	21.8350211741143383	8.3627188979695433
38.5233898436188511	19.9955450155123700	7.2048233598822584
40.6292278581913422	21.3991452886222611	9.5099649099946273
39.0499751173748351	18.9653237703066253	8.5592466432179961
39.7141141425936013	19.6702300767720892	10.4660986412059067
30.0086564192822500	24.3968295746320187	11.9871663693441430
25.6525172231375684	23.7747022602685085	7.7832033422446125
25.6948232189567349	22.1083396363309532	7.6426329604712055
28.5082851263256458	22.9924698990675545	5.9935535133792559
28.5736247614565571	21.7782793861515813	10.9468570760458750
29.2820808828209707	21.4260385144979999	7.1488217899294453
25.0902583600050733	19.1734253815710751	8.5845019801844078
29.7882607001036455	22.2844677438877028	9.2828421579869218
27.3144552962609808	22.0269911719879339	7.4090076606849165
27.6909269101364686	19.8188554668069337	10.4098336212890636
20.0488159981848533	25.2397643868057067	7.7008777114834137
40.5011790082054830	17.7906241422879141	1.0510311529279757
39.8716818938642987	18.7230740009548491	2.6301198441284144
19.7835626234760369	24.0351162529283400	6.2851763060528887
22.4123048175569544	20.9393883495963493	7.3799795147115370
18.4639543883400918	19.7278682710060806	11.8617244645422915
24.2981813040441601	20.1219640779284390	10.2789131017914741
21.7604001287595956	24.0544407246142562	6.7526644365800630
25.2758968927032726	19.2864173449942840	0.9782334441189097
29.0849492041556026	22.9608808003888676	3.1453372708349785
24.1743871005183628	22.4967797291557865	1.4975704849156422
27.4773328391880227	21.3344652660993539	3.5201339519081150
25.9305158840616876	21.2439766008079971	42.7756987190843034
26.9211058454439609	18.4035969454202188	1.6115082418209110
26.4044871808088004	20.1004227226495615	5.1017181284181170
30.0958833497068774	19.7038261721708210	5.7567404415033607
26.3888254020517685	19.9317304040828134	7.3274596830090166
23.4914292913469112	18.5838011691693872	2.0636871058826673
26.2044801515666137	23.5503694921136564	1.6955902285464237
35.1124129699884548	18.9370410663989297	4.7694011337546192
36.1629130444626341	22.2022147610271467	1.3135185117539077
35.3322400628117421	22.5149221070558951	2.6406418002562067
34.8971497359874903	22.2341015828719684	4.7823461997341568
31.7005090248391248	20.5617327892918524	0.2309021460344698
32.0748674756850747	21.9006861971036422	1.3836544578002121
32.5970990050180660	19.8114597180874199	2.1388843911416289
8.6395267745103297	22.3104286928521205	1.2915645416868806
8.9106343175576050	17.4655022250525604	3.9692353536454079
10.3926565869777754	22.4682152858364894	5.0550001332113279
13.2209194347047756	24.7957056458276917	8.0110761083113093
13.2813114319516661	28.6143993499126523	8.4765589702816904
12.7000284433667883	27.9468844947613704	9.9732082379799500
16.1618942728796853	25.3739732703236491	7.0991556184910065
6.2780854346163339	22.6081059237646116	1.7716266823505704
8.3427192265935641	23.1563147408952439	5.1456812858911283
8.2127098616030043	22.8929275518914146	3.1079500092126660
10.6130810810446370	21.7354010712610872	0.7548464496534454
12.9758647498706772	19.9852223474446014	3.6399856958738401
16.5823307706879248	24.5030369876132994	2.7654051575475980
14.0756540896161617	23.4286150965883380	4.5345223400263359
8.8107947467802887	24.4390934183064701	6.4447737293542087
10.9140632128452175	25.5071230478145097	8.8864313268546571
6.3218388496769391	27.9690073032067161	9.2857365759388966
11.0770883931165365	29.1280018063382293	9.8598605736315470
18.3009923840729769	26.4152098040990566	7.1960782236980450
8.5941484440786517	22.1700392151529933	42.7118641005842292
7.4355690993750914	23.7282030647309803	1.4417628673647582
6.8608293990037961	19.6743034249495281	4.6486121687475030
11.3447150686821061	20.2500172097845876	2.3226960719197298
16.3403919523679448	30.5195637357750122	10.0836198530287877
17.9717287917436614	25.7684693633836623	10.6339582252326714
13.9251538653085127	30.5237291615683226	9.0424635179454054
18.0129702011711146	27.1650124303337890	12.0860749999074137
11.7509294427420503	29.3179704226486635	8.3425474323606927
15.3938297865285296	29.5114990924246321	8.5296254862293921
14.4139332492654475	30.7335973577578550	11.3749923285760559
16.8230042848178165	30.5221787948728220	8.3518323992308527
13.1056201674171966	26.3447155552991354	8.5296743027850042
8.2582468878199169	24.7293965647512906	4.0804132542483158
9.5288144945136448	21.1348250074549213	2.7847771033646813
11.7726971906568227	20.6691374596244479	0.3873209860211999
6.7938136765981545	21.0749037575232521	0.4899937885421758
3.4616557427499060	30.2593574855861753	8.8849339382437371
14.8210805730908532	19.1831463931172586	4.2890192852321789
13.7662171598083116	21.0040551281728050	0.7546748765955726
12.3621333294872375	23.0236330201203394	5.1194681856912156
2.3848080369065556	25.2315483518644399	9.2493086846048094
3.6390134264464336	27.6654472428459641	5.5757989757164719
3.1625743172855199	26.5510685863494551	10.9827545354854070
3.5925619777720215	26.8784450428739312	7.3578306142346186
5.5805335742096931	24.7688581451281067	11.6964598810226956
13.4129994819186003	21.3861970375320141	5.3530890404993041
4.9797204734314997	31.0482505543363558	7.9942673535850863
0.2249411807082046	28.9656202963817861	10.4162283417951276
1.1468727156818723	28.4406146013699797	8.4992091417544771
2.3268122878297270	28.1989120490050844	6.4934691979963715
4.8029805994513417	29.6316803181232586	9.8030720920635446
0.7774498516773615	25.0062240238316349	10.3253345927651914
3.6307620130114566	28.4846155200529836	10.2103938164481658
18.4035844823296060	24.8031060615385073	4.9166325481773434
15.4993073401365926	23.4484351110309213	6.2234329756679490
8.9082580316885700	29.8756978326189255	10.9698947171384198
9.0111768817408429	25.9967873273462331	7.6695938394823964
7.0689136596195281	29.4068858599778551	9.6123381156372343
9.6365945741194956	26.5071332530711210	9.3999195806665430
16.3095254124118121	22.2310856954215268	3.2161133711813554
16.4259187172834622	19.0737861795799297	3.1260402733909962
13.4087577355434622	19.6335692819240144	1.6766981014906266
17.5690088239783186	22.7154193851864754	4.8374839620049599
23.3127408509516378	24.2477805718386215	6.3257809736855899
14.7431441658373767	20.5813703216813799	2.8124115093299125
16.0141223587823198	20.7825141863998617	4.3527800263446368
7.8326608515703660	27.2186593309977667	8.9742047726235032
7.0916079759820816	25.7855087679749424	8.9301853975287582
13.0320627265211328	29.5620162057316271	6.4953859806612533
8.5539992343741851	28.6053481601699922	9.4675840081855611
15.6088468724219087	24.0223061960131901	3.9803416372211879
14.7282597591819915	17.9223907532615030	2.1909596722905649
11.3513226066246595	25.0462473167809279	1.6470694631532961
5.6382801494058068	24.9475059704426805	5.4317136623964402
5.2248362982175083	23.6144705903783283	7.3124768899264563
3.1054372333376250	24.9686602379767777	6.9904861439438735
0.4032787780013600	22.1226256635842127	7.3081642490274410
1.7961853992439705	20.7879522195610740	6.6596269592542878
7.2607748388217095	22.1611886671140823	8.9913846912564104
8.0984833711327511	25.6105718989460591	5.5273511222355278
11.8769966222026699	28.6582238011534116	1.4932327914234809
6.6209904238538728	22.8978380254670242	10.8038991713293466
41.5563521533951388	15.4422135749137421	11.7911683465955868
40.7076462802548633	16.9856574052325371	10.6239714315409017
41.2771926951000481	14.1326269130430546	8.7078577162073429
41.3119336315577925	16.4451717183624986	6.9839912613702344
42.6548305741600799	16.2120814462311920	10.3548186606566244
40.3495492176181543	15.2009403301422861	10.1722268063251491
39.3051157244238354	16.4543627655338547	6.0144748113974549
0.0827860793148869	14.1505076650009425	9.6373176762340655
42.4493485408193081	20.6834629707314477	6.4639768420577424
9.8107774435947093	28.2019926814426505	2.3071891550210126
10.8983088770665137	29.8468587096115492	2.0382910309217794
12.0167892836456236	30.9617625656245821	0.7294045192136102
6.1244745441923119	18.7434943664391902	8.5322962175974606
2.3599020535659387	18.5166768816870189	12.2064125469404292
1.3268265006538764	23.5071930724693274	8.8436961689189708
1.5755958135909336	17.4755462771777914	10.6225283597393521
41.0269940395509849	21.1713027155110360	11.0621217148810160
41.6956332837637831	16.0687883058965433	8.9897903191253850
4.7631318123599184	20.0372132438461108	8.9252617541744552
0.3528539153275133	23.3195174748227103	5.4472660012024621
12.7850168062001686	28.2460243585570439	4.9110634423146466
9.3787806163791156	24.0834196050691247	2.1902159416946354
6.9676149151722058	25.9619265650768440	4.1271345132124644
11.5752884842695423	28.8537923283850226	42.6849616390851523
10.9937251870379544	27.9867947534367438	3.4399407533235546
5.4813838247147606	22.1805969882749494	9.0311464244062574
30.3284330351851743	13.0569685841374312	9.2938330976334118
12.7256977740613362	24.3455123797004163	3.4418932695380708
34.8092673817655935	15.5950374652193489	10.9121312958992807
32.2789506156685277	19.1307357094151094	12.0656952941754003
36.9538455241442421	13.0777022505649718	11.9684580703305059
31.3838253332094972	12.2361460146658754	10.2027384671246750
31.8797897324410435	16.4357838279615152	9.2013518999251591
37.3338291343521789	16.7758935900006385	12.9534698998448103
35.5881616642775356	13.5524497075365051	8.0111224829107197
14.4221244794811234	29.0721577157905955	4.7866746487618874
18.0632983414513610	28.0159796856076220	2.5706951549895023
17.6308626559830728	26.1454457230787902	2.7672572943052494
16.1538363793371751	31.8510862612076764	42.5175969868602550
32.5882514632692022	17.9842347422047979	7.5374573926534687
35.4423041602748512	14.6139698615379068	9.2608751551853867
35.1080182431353549	17.7827395105073052	7.5082181767191098
31.1659451305895523	14.4479242270543295	9.2198577713211609
33.3988615954389587	16.9996226245892252	9.2211831543782061
15.8883466471422441	27.2941776395339382	2.5437726409279957
38.6894848077867550	17.4021890619196213	11.2268564426418713
42.1724605950826188	12.6258216749574892	10.2289737600095396
38.0977175400335923	11.3618798177319693	6.5054041096793505
41.6127731097984466	13.2010282991434025	6.7632407756179145
36.7420258910225925	18.1891284165562190	8.5082719206913193
13.7632517503191778	30.8779732964735594	1.7209781855963178
16.4878839555616139	30.2506375160543790	4.3042304324826421
14.7610909208042784	29.3113713693034228	3.1236369920875582
9.0781393882927581	26.8241635539933689	3.9348166984411970
17.9134972206940901	29.5460032737728611	3.5458916754090084
16.6053092789561951	28.7997053028723222	2.3054821238096728
14.5405852133583124	28.6894130858410428	1.6348550732924014
14.1161834322819573	24.2032101386562388	2.2512144183506151
17.6941713979489101	25.4668687965408722	0.9449723792716299
16.9440918006481169	25.9603112735145132	4.1499122130724082
16.5570880365688140	28.7250069737152387	4.4330549643042474
12.9656236952818258	28.1832035811142916	3.1625819371302164
16.6332722889812459	23.7132367105700013	8.0222448307085727
18.0922870937246394	18.5864895841369098	6.4132307173853995
41.4768642818576154	18.3378929863447482	42.8319820213337863
39.1033388362211838	23.5231145288788426	3.1904886840045696
41.9977342543153895	18.4383495635278187	2.2258695812578533
37.5792517364573158	22.2635222304843303	3.0549188710712816
39.6136805578471325	21.2618478878542589	0.3705712512438638
41.2496210357928206	18.5907120239873471	4.1484035028828270
37.5979513887693244	20.9215411545348431	1.6250141003114209
39.6920428622667245	19.9695776147919162	4.0673168029763005
16.6129994141246691	20.0347261505635785	10.5271004902640275
15.0155489269547378	23.7517366575290083	13.0548902363610893
13.6892497425080251	19.8305548457030447	9.1299832476838727
13.1638738716463219	24.1641157160101798	12.3927046589215415
17.8757189525559710	23.3019292998533984	12.3500045262278384
17.3232738698037743	23.8824019312038622	10.1071056886324904
16.9062331728365827	21.9365090002327392	6.7649538638956033
11.8863114962398910	19.6707669547612447	7.8427485829831696
40.7731439933461601	23.1539571191170275	4.4383157766693229
23.0837170797290376	21.4955436862007296	11.4703094766835019
24.3754814505160091	21.0889782904690222	12.3018119349495159
23.6457541020673787	20.4525552520646663	8.3036855134540684
17.8732882029465436	22.8218388086111545	8.3271329113867800
23.0164717456170820	18.3416736170706010	10.9421504922381345
23.5801157434176147	22.7115292272491480	7.6854382458745985
21.5533208367553790	19.5793974285183161	7.4152088174418305
41.1509937567976465	21.0562496913139618	1.3505420535764530
15.0890361647734412	21.3506997580822002	6.2692961238757343
38.6567123017739789	19.5507397803750571	0.2527415466910558
40.1905536543305502	21.7075068800847397	3.2658793399046937
38.0207065493010887	20.1090427319623188	3.1024430207181961
22.8563002672417745	23.3601572517934848	10.3275551990193595
37.2787077397895601	18.7919401501510919	1.5592774034712551
36.5695511045512660	19.6108872631220841	4.5327120527735261
39.2063770265410980	20.6957048202052540	2.1197245816765329
38.0811367638850697	23.5609337528867506	4.8620627824448315
11.4122251732769939	21.6005867891622394	10.0820167352381684
5.9368099836010852	19.1596068620347779	6.7523771268322434
9.9255051480621024	24.5386928563821485	9.8725294532460275
8.5790608859772313	23.4790304240270018	10.1473221251693690
0.7353750395930414	28.2223002604873621	2.0072323909472369
1.8708925104346983	27.3979417821801547	4.3365730045897815
0.3277055791157263	26.8611065599857533	1.1715577300402515
4.1495619252655036	25.8858309806242204	5.5092910094982459
2.2849648562324285	25.3670905984886481	3.3178328920447542
9.5218725620002438	22.6603230653606822	6.8368400285769804
7.3793951650675833	18.2047809554655196	10.2708033538795256
5.8182889036717240	21.0471205133750452	7.6582650938443457
7.2806584238072798	20.3177616335087095	8.1012606520366202
10.9828993813993385	21.2718459435467011	8.0416180494490170
8.5019708491759758	19.0396640726349915	7.1338360523828541
10.9155967214404388	19.7043442282360282	9.4654449515691343
7.7874429150164177	20.1261708880931138	11.7616027703217796
11.3548141869927637	21.6389739161253907	6.5065772922217224
4.0664668428612618	24.7751124364883211	3.6616508334357212
14.5502738260702955	18.8172328910689721	10.8210640579637136
13.4166284246761602	21.9074871390799899	9.5023103223816712
15.1592803967456877	20.6328784234138851	10.0111518503608163
18.0458304625717325	24.7624974422975050	6.9816083392890995
13.1070587982014697	20.5781074269194235	7.1648110636269600
16.1433735737998738	19.4682582687340577	5.4132022629835479
16.7037424427906167	21.8735868266334990	9.0549515752876388
3.3695074659525401	26.3775762703697652	2.1238289195996920
20.1207019361578432	29.9463192850377879	7.1556729983151524
1.4938848246587122	29.4659658386942418	3.3639744614449274
42.1158768822877008	25.1831342621982230	0.2378271283290710
5.6802972351268695	26.8363463209306197	4.7052566290578932
8.6871684523741450	19.2856125221549917	10.6287096817677771
8.7700865108313248	23.6393682156783989	8.4971403411111712
11.9489041066085875	24.1462235923503101	8.8145218595906432
10.2775889703867378	22.6804632544413849	11.2952596082738896
10.0836052352080063	20.4867406240913184	11.1123092314295153
14.6258486841468596	33.2295450364917428	9.5526635567727158
21.7882469574685693	13.4227453008339612	4.3369851854129982
22.6964942559414418	12.2863767690496033	5.1803697934803434
23.8190750435648226	17.4427314929041906	6.1226354943715915
19.9750942781138043	17.2575492125976240	42.8639988207963114
23.3504954996578995	17.3098528033170673	4.1601720242563704
21.7916217767165641	15.3798086959702900	5.1289035195218027
14.8884927469243120	35.9295321885512280	9.1196106195269131
17.4155903082919714	32.2573255002420680	7.6698788719196314
24.0825920488631233	13.5162414005657983	4.6269202702594621
14.7421444472851420	31.5352205257597049	10.1302825491757567
16.6773283174319396	33.4738275797758291	10.3691215863849138
17.7675916084216610	34.0984893010028571	8.8765338838955117
12.7980373473573348	31.2864534232635698	10.0381837919459560
13.3099311968234257	34.2919158639614778	8.6998151371557899
12.9092004949977994	35.2794818093067590	9.8945399162159333
17.7388393209855941	32.1395363610809781	9.4880933646894210
16.9587431367697867	35.4808354373162942	9.2928776545622132
22.0261772389867474	17.8486298112579966	0.3566469719427650
20.3922281707001076	33.0733822808157925	8.5769180257620388
22.9307012992750927	35.3928098161238651	7.0661090126200472
22.3191979612029243	35.2854190180394340	11.2725868658226673
20.6231045732741904	16.7835094852632700	2.5907033335807106
21.1627741758721619	33.8496478558165137	9.5931870271167412
23.2833210826673671	13.1024138350310579	42.4514547725235332
19.8059092432576627	13.0385399173539192	42.9264438588040562
22.1940782409236377	15.6521048954598729	3.6010807489867549
12.3264394316804040	35.1769278424643232	12.0493122450474957
22.3922366861409046	17.3764392345917571	2.3751742339207484
18.9244130253818419	15.2733074856090667	2.3715899116489303
19.4928198072103029	15.5500612510819405	5.5025884756153509
20.1134497797758840	18.4516865148511293	3.5274941580228880
18.4267824735534766	16.8301245954179883	2.5435439172322294
23.6886484001958415	11.8785679622697948	3.3986228295939358
20.3653321950307884	18.4353028401525059	1.4306710055743428
20.6598181689257316	11.9128214671848749	5.7380249882615439
7.2773937777924917	37.0352768157878387	7.3180254930985535
8.6404432443276509	36.7428475162213175	13.0983363963588904
10.8179728022446433	31.1880737833089015	10.9854020075451366
6.2017472141023928	35.2750825078603114	9.7712375858530933
9.0710299250310200	33.2105709784784437	12.7763575239356637
7.1202001776128983	33.2560956144681796	5.9628455026164469
10.2651873028516594	34.8357125497713511	6.7102973591561508
9.7306930179292870	36.6992211507630586	7.9400727563429001
7.8589323172533065	36.5651679289410296	8.9455776689544368
27.2399974845957544	17.7961506806452299	3.6329652356089759
7.8076751640859277	32.7937061965709304	11.7558407557226232
10.0952959359985712	37.6735478814363134	10.9814285805969547
25.5748515912571470	12.7385162949039703	3.6423763384106445
26.6448448949604604	16.0731513352598760	4.0469575965473892
25.1349738807307865	12.5382940497668525	1.7722095261243589
26.5186574009381637	15.7365326279209690	6.1744397091789125
25.3434947275345266	17.3750744898111442	4.7745484030471168
25.5306145348684872	16.9972148230965061	1.0116487077468073
26.6371989737649955	11.8164353383924734	41.5575881797275599
15.2561975687831861	31.3121010851840182	7.6193882555222503
17.7759220953495465	33.1055274512318931	11.6178234244290213
14.2311576306728860	32.6488595110510218	11.7251730050890597
13.6869625782646995	32.1025339482247531	8.1510680646178706
15.9813111475472436	32.1262919902406949	8.8864887098847483
29.8954341190919379	15.6495265913202388	6.8595260466073595
26.1471921227431068	14.6962529384508969	1.4621072842374827
25.3167587912956691	14.6089527080207908	5.0692250655600031
22.8531793927733311	31.2530496177461927	4.6791220464381906
29.1016432907407143	18.2676765302756969	4.3951489800179626
28.3785043978847753	18.0391453373483657	0.3245784380540767
9.3517935772547496	31.2569326381850026	12.3006052142184732
8.7978390841991221	35.5169497713180391	6.7330180253600007
9.9315122070979402	30.3490651676812000	8.1880934601257902
27.9968182481241250	14.1927522958700134	0.5414164347478108
28.4916474929012118	16.5102609176891271	3.6400927314427403
27.1828512256335308	15.7910512382110415	2.0148918432231784
7.1841944406519609	12.1407662647048991	5.5011479529675746
33.4353031602406929	31.5881969831135905	10.1713476674774235
33.8995536092723597	33.6041781626227802	10.8022893241261446
32.7759929694078451	35.0872122758462197	9.7614724746966495
37.0646559282051840	35.1086029817505789	11.6005027031504486
12.7106255970024762	18.3756468751088704	2.5719552878819814
8.1930374305067755	13.1615642813563305	1.4482190357686411
29.2871148537511594	33.8215169929215094	8.6996870800469388
32.0116898476087073	34.6484778475541049	11.1982187308852676
30.0406674057946468	35.3931381240154010	11.6282476631864533
10.2914516389959001	11.7167331095386942	4.7105413671648879
9.4125226206777235	12.7184379371181198	3.7490108655877301
6.8949574889966749	17.2986084159207927	7.2191782417775361
7.9502629868899675	13.9260029915719237	4.2453299222220675
10.2315267011859667	15.5176858083854761	3.7312318681299650
10.6193748886085277	15.3643342495795512	1.5043768002456592
9.3527748874410985	14.2253738208350882	2.4645836588587096
10.7484531608154299	13.8108639040043624	5.2052537920675359
34.1030901787817484	30.1182989481024777	8.9003242663594389
3.1855623950149115	14.8266363366005542	2.4943198257331445
6.1550588026999904	12.5743358246683403	4.5160463954402719
0.4411133469725572	16.6190398579457934	42.6371060420852217
1.1096514609586463	15.9565588849057018	4.8518921390873198
2.7677843603832679	12.7427051053953750	5.7252850918842526
1.6162111207252596	17.8988834261371217	0.2983589568428753
1.6934694211740098	11.9042521979504574	3.7266295004620273
34.8862484831657937	35.2417273332862138	10.1650064332658534
9.3016671867616392	15.5193628074717669	4.9674817972803336
29.2630769890533209	35.6462713096163029	9.6388152226426094
33.1056192821176367	36.0446206299434593	12.2432953604690695
36.3917652755557128	34.2213401980098482	8.3192921628048673
30.5532202844837357	32.1576911050321286	7.6957734339756740
30.7365290614696178	35.1629455713538093	10.1013279287637729
32.4542260288188089	31.1801529056029167	8.3225269321189916
36.1859361435259999	34.1697224136027629	9.9937524125668400
36.2883828817016507	35.9248127150805132	9.6582981831832733
15.3510033594153246	17.3544950977031789	5.2308285742019676
17.8848972435686839	15.9884023348101110	0.8595634677800419
16.6264329509048743	12.4413570457766376	3.0531336003887306
15.3430767237050834	15.9416129998096796	1.4617953503251131
13.5412437136337864	17.2093185107801787	1.1778797367447018
19.0564547556559916	17.4387179710086144	5.2037561064890303
18.1116120854917213	18.2904746731560515	3.7552714111099230
17.9981286806009031	11.3404665758570697	2.8727447106777984
17.9159082705590116	16.1202985434233632	4.0985574648467926
12.8510561482256804	16.2133087979118571	3.4755206667583161
16.4386267870785616	17.2684949691069214	3.4339795523304235
13.1956056643033648	14.0367976388338249	4.2401484433130436
23.9343179807467905	32.2335321581049641	9.7383255700620737
22.7261798469447776	32.7619295056097712	8.8729793163637680
20.0798688456685461	35.4711618845801553	11.7894445228773730
21.0966309879126008	34.8285010102589965	7.8430974932234436
22.5819628901015825	35.4876405419743861	9.1399388698026591
19.7479496044300333	32.6829885975516845	11.0122609284549462
25.6653246672504309	35.1453019527795121	11.0586254155273505
26.3365663333077151	32.9514217933819253	7.5186157070430539
27.9443926276929346	36.1700195260536219	7.7694063032712295
27.0835522228671515	32.0477467798741955	10.7320010951372957
27.8895941080386969	33.9719538309973714	10.4448242916911092
27.9908393833434879	36.2219006250765005	6.1650746304899631
26.5080362904814777	36.8855076814146301	7.2917052444488952
25.4969201313115974	31.3652910894576529	10.6045985855061904
27.1640150926608648	31.5500885871505545	7.3280270009243420
30.2111051686403265	17.4063530658225076	0.7546652336849944
29.7949215080948306	33.7081092219410579	11.1048038453026887
23.8593522616637408	34.3664883903405709	10.2247824145695834
26.9584666669132602	35.8021001482516397	9.3649668140662641
26.8000123963951502	30.9700534192549775	11.9211024470217382
25.7662443932627099	33.0384265158382249	10.9778029076071206
27.1320490763777649	33.2312994461588431	9.0181492831540986
28.1708745125896769	29.8826155353012730	7.4128705732624045
25.1922807159650404	33.4706045950935476	9.4938762638741085
28.3580288730850540	26.7004334383618449	6.5408245549055186
40.1221363575453083	14.3030662549629195	0.6217392238737863
38.6417040471426461	17.2677653499817403	2.4033868113434109
42.4410475414990742	12.4647781599789678	5.3536059004413978
37.1438096788422882	18.0262719864104461	3.4833210421239915
38.5726053183089448	15.7413775224364993	0.8250050740774761
24.4085069047414258	25.4900121482108126	7.3593022121011948
28.2560733448258574	28.5841849421531542	9.7749760313714145
25.6608493408368616	29.6527078859761737	10.5354828801022897
40.7761978690642479	14.9900450355364541	7.0039939181612816
26.9086612080193959	29.1977579245064440	8.9451278528458289
29.6054168852284398	24.7802803959245139	5.8104163444762040
30.7366759656615933	26.2793051529675310	11.9054973178023467
27.0226470513384598	27.0896915712469379	8.4117077086710665
27.7741819143758271	28.3088344304829107	7.6235382016672490
27.3518499140233580	30.4342313119901355	10.4607966025477239
28.9786321432331846	29.0567772109443858	11.7561274503916806
29.9871288740388096	27.7533594314713952	12.9329701226084470
36.9981428135773953	28.6645219428140123	7.8694973185318062
31.3806402633018173	30.7828753950829750	7.0541388305960178
31.6604316954530418	25.6371787548894829	10.7432971793476693
36.1051915832479580	24.9486202662246406	6.9313395414967935
35.4796892602447755	29.9588719333185942	8.0661494941224436
35.4254942155145187	25.6250293744368740	8.2765815285427653
33.7851791694451080	27.0182686276087587	9.5030319365553702
32.8735347513288971	25.1846912834236321	8.7958982402479773
33.1108642063812582	24.2600843436635216	10.3336160112778082
5.2697138146667184	19.8507139733749831	1.2968933847972197
35.1858215438033852	25.3690280656015581	10.5588401298211743
40.8668270326601686	11.8617246224775652	3.7276464443772488
32.8042786751936646	27.3683211484300095	5.2455617309774443
32.2098972621194761	24.6084474730299547	6.9599483331339957
36.8391827886842691	16.8745158264976745	1.7001666553364188
39.0783506682126429	12.5481987947122047	42.1011320592049501
42.5567461027991030	14.2721939236399145	4.6865001041586165
42.6296435139751608	16.7070769649942328	0.9874840419526311
20.6137286708024838	28.7290668043588937	11.3829450144694988
23.4943342239449855	28.7847012733223373	9.7483387281577407
23.7051249639278758	30.1084320356985486	11.4090813343512654
20.2474277517439383	30.4091552845972153	11.3382643170848816
22.3196856327823063	30.2284673356152602	6.5810134329863894
25.3999554975340267	27.8858561955562116	9.2828667780176666
25.5602392324128864	25.7165855066135478	8.9246937529233392
23.9022609296658786	24.9929648926494785	9.1158679580291846
24.0601009656722482	26.6382313089184990	9.1819641488978281
2.0856302905895725	21.2913536194291133	2.9939950177746195
18.5706493095368863	25.6471543754475633	9.1178664057717143
23.7309314792352808	29.2118133642928122	6.8067098603023295
22.1086652003309680	29.6259097130117368	10.0332686288930528
21.9690205399396490	26.1690705707688807	12.0143020238273746
18.2298616765498522	28.6366458444535539	7.0193892307206145
23.1997432615528965	30.5497964653102372	8.4323207644302514
22.1546978311528733	29.5022451375235200	11.6902299362833482
19.5507281370282584	27.2383552813411107	10.6114942404853174
3.4580205947404008	19.0401358717788831	0.3551100783942071
3.7770878772679213	23.2432883752261752	0.3712927420057200
4.1590763571370468	20.4166574748018697	6.6715221638626643
2.6144303481324322	23.3011306095155035	3.3021873479195740
6.9155990952112205	23.6176125548023350	3.6368329476877630
1.2339170334747265	22.6730573973930092	1.8560581851917990
4.7232756038862362	18.1222824950014960	6.5274367242832403
42.9359841207667614	19.3618062622544365	4.9065706071108144
5.8156400904404926	20.5975447634112321	5.5796694455706151
32.7499016516910189	27.3481611610771260	11.5817847768950930
0.7140616542760373	23.8241700302354147	3.4732364724932436
5.8708962405237655	21.2271490855362259	3.3553464530199490
42.1530265002497586	24.7408804625812131	4.6787586481286629
1.9353409778571724	19.2590185192742425	1.8113268782056253
1.5708357818896368	18.0986876177309703	4.8683262016782853
5.1679374074175088	20.0154695426634568	42.3773242879678236
1.5891224289017765	20.0187696633535275	3.8902343008368252
3.7875757845542481	23.9709897629169753	5.0826037096738599
33.4984249202918392	18.0472019848406156	2.2528017867196106
33.5950782447520808	12.9154569023230845	4.2292084822835774
33.5003553759137915	18.8998046955068304	3.8255946527326756
33.2356221825975524	16.3696863511651642	2.4656524210590893
31.9543369300964528	16.7327513565056769	3.5044834110579326
30.6210065130007436	18.1834515587853289	4.0589463470492175
34.9542036918344436	16.5536962787936588	1.7915942308805628
35.2704912934368622	14.0343135613912917	4.8344194890461107
34.8637273149364759	15.8414463281717897	3.4540351407619769
34.9458557950197672	12.9579778517918172	1.2028946084215459
36.8164793989519126	13.1354614067147075	6.3271590306951531
34.6155072803692789	14.3059676748560474	2.8634804786754362
33.1234639920146989	14.7087173961852518	2.2096599655202014
39.1033395711752760	24.6801862184285703	6.6496360795557967
41.6751947084465044	25.1470822878978559	9.3895477760880031
39.7758425623468028	30.4666560948816816	5.8804713457450353
37.7413671346960840	25.3932508792619593	8.3113617567442386
41.3388457709190789	30.1536329741960181	9.9851201138533927
5.4877802463883025	34.4540186904470715	8.0903108584412244
42.5271192059272920	32.3758372950972841	13.0477482343733300
2.2269149797538184	34.2778631879301443	8.8395348288732620
1.2983838510858048	35.6462968373093361	9.2011035525032199
0.2224005160788871	31.7193929077986354	7.5925103637602191
7.2447643236170167	35.1333126609990174	7.9887898340338399
4.8328894944077954	36.3159035276695334	9.3394865271633289
3.6798306743481053	36.9195809372071651	12.0946657187843165
3.4973877384975651	37.1808624622652104	6.2337316795825268
40.6870236181441811	23.3540594517053002	10.6196124367480422
3.4634741460406611	34.0421017334229816	13.1932153184226184
4.9812085618632356	34.9643352601127617	11.7395946465423258
3.0937664855397817	36.3570835891567867	8.3551536059150884
1.4623366253134742	30.2404178436215467	8.5932336813938370
42.8994595029008607	35.1068252179537694	8.5597953070585486
0.9219198457157163	33.2509590155114410	8.9066373985499396
42.1112586952512871	32.1535020223653945	9.5888444291551700
2.1998851368611958	32.0389879175647678	8.1937059156485006
38.5930180565677787	13.5139288678241272	0.3915436178649389
40.1315594867863226	29.8561408011335452	11.5591008445705690
39.1536095581810883	26.4484223670886429	9.3598651279954481
41.6973417652021467	28.6699666771116810	11.0973547609617675
41.0566317854461431	23.8324563888000469	7.9142341563531851
38.4859603071269092	26.4707687319561771	10.8981099180934589
37.7642750286594904	27.5376302206651502	9.4806353133874630
35.4359810098731458	18.0172910993716755	3.1330284636799983
41.6617394614605985	13.2392478579711224	3.4352854103016135
37.6908585806079728	23.6856831449482037	6.8900502487832416
42.3397892139807297	15.1489657338550430	2.6987125759663146
41.1242298658465089	12.7832477071196529	42.7407462529134534
38.5362323970952616	17.4254359843777173	0.5707937132986003
42.7302191858291778	14.7847647929311421	6.1613226211335403
35.6690316384375876	28.4009684023643736	9.3080933623884139
33.6070042276000009	30.3990877379359823	6.8174384533023300
34.3626199345391967	28.7974985356120570	5.5993329987984959
34.7834868028573183	27.1443448033133841	10.7404629444460227
33.7710238820161877	12.4902161797371249	2.5171559818955505
36.4239998771163300	26.6783583750729356	12.0123212860795139
31.5904300232480431	16.7747487570599709	5.9697843343266914
31.6675045432851334	12.2491860432019006	3.8518175655621665
35.2300116293712335	16.4019105753490884	42.2643755147419213
31.7783150199968816	15.7872737480039831	1.5435667329179383
33.4736875483634364	16.2260698836655948	0.5654290569413261
33.6488307316244999	18.1228107322730487	6.0780042902808162
33.5071988950547777	16.5665211993032990	7.0547968851255582
32.9069028374687775	15.4027754255115923	10.8740230686051120
39.4308762939224593	28.1240937488636256	11.0153916637178462
37.1443647442003879	26.7837754165362796	7.9197736279716997
40.5416766160368027	25.5987620969204528	7.7366955931036934
42.2729974227984755	24.7906902496939558	10.9198406240126165
39.9702785404996277	24.8006948834853951	10.7028911795889989
40.9177421677657094	25.1282794816673913	5.6448579945458555
42.8322227049236162	30.1022009102584960	9.0509821374908519
38.5501273758796330	29.3244331132657017	12.5181507080722820
31.1738764235321995	1.2487685727076703	7.7173433801389688
1.2722978621198546	31.0012511983392081	3.5314698389985204
40.1500379028597578	32.2047930484450475	3.2392964666493560
40.7585029497087845	31.1197420485511671	2.2027342677454325
42.3843896603797035	34.7021856135251099	6.4288419203821459
37.2870973327198811	29.5581683626569109	0.3419228052475020
41.4932190818906221	32.2509921035343368	1.2299118818113066
31.7520611303862808	1.7157276239924499	9.2263544618189179
33.8279181828570117	2.4755016458906316	10.0097123404126087
0.0701735761985308	33.7340784803004325	1.3953201832773470
35.0856201251306459	4.2799623951369039	10.1977676557505568
32.5085289447779147	4.1695945243034780	6.4355390608721370
31.6561368886820063	4.2881490564610694	8.5990332846644240
35.5631135792887605	0.7285438931230287	6.7438102980986709
35.4185382372506368	1.3167412427928769	8.9683899284115487
31.1016552504725432	3.9522453175983143	10.8345511258434630
32.3153545083547797	5.8068566037742393	7.5628171407356319
0.3381069573168955	38.9047413450409891	4.8708916737675132
37.3671398340877374	3.0430159361402556	11.2572814538704939
39.0756935794180080	36.8203890242562721	3.1681484808249869
39.8490068811864404	5.1054189236926986	9.0468709138716061
39.8686466019762094	0.0224974004913334	7.2481210296427800
36.7337412635601837	5.3619019012881255	6.6682351066964562
38.9809273090101343	1.7612655975721954	11.4113929540266170
42.4289452920084855	4.6075317064780297	10.8557968816879455
38.8701150548035486	5.9260054747769484	7.4463887943148457
41.2400984093446894	1.2879431901143934	8.5897049584792668
6.0664163858620883	42.1467252832300332	7.3145113732370683
40.9472911373395547	3.3290654175144709	9.6503264246952032
37.2034324168878499	4.4148562918526979	10.4865044891922867
41.5255997234257421	3.2998813614660678	6.7468292765909315
36.1996522085998720	1.0005839213708199	4.9739120760084701
40.1127105314777808	35.3538243064889031	5.7703114367063071
38.4289761867983515	35.3601977921774164	2.9042894251822400
39.0467851881403973	33.9752479951945148	4.0296288503270778
37.5987241834104395	36.0659652518255598	4.8299499154983270
25.2942895103210397	0.1469861669826730	8.0425375719720904
0.9331826706296655	38.6257290470216006	42.4270814032628323
1.2881445833672505	39.6430647800288796	3.0602953086654732
5.9064997034624547	42.3899152276700519	0.0192816842418044
4.1729642991629357	40.6541951074975287	1.5552828032138275
30.3434999624377006	5.2509607167099706	9.9521648463523196
28.8110765478638946	0.6134732961221245	11.0407053684848204
26.9694831732907581	3.3789056529367234	8.1058272747023530
28.6076783771292931	42.2210216721435145	7.7727763055255537
5.9072751868225719	41.8026649575120359	2.6393473126463189
25.6172625928807669	2.5521462295379149	8.7479712496860529
28.2265315620341219	2.2899991973185703	7.4356263926952026
27.9722631149605903	4.6280740235935234	7.8447393378197088
29.3895140044164940	42.9033874429912245	9.6849995287857560
28.9237018836606303	4.5132207715006087	10.5917011128969705
25.6518083441101474	4.3460997740762650	7.8056113299003025
26.0062827665886189	1.9652679314021189	7.2581374903513316
27.7174548921409460	0.9555445736486526	8.2327485700736425
1.3514002828152472	38.6821862950091457	1.0323392049526650
42.9640378746705878	37.8178017392312640	3.7288181342842006
5.2482414902500940	42.5126682361744557	1.4571988657225312
6.1122189482346707	38.7509595362850519	4.1513756935869583
42.6558607448335962	36.8215724464080694	5.5613431595541787
33.3459610854094706	1.1672498595725649	9.0179658496698014
35.4446790950977970	2.9493290850201870	11.3660475048962919
4.6912433437061427	39.6518024804313640	3.3418834505160717
3.8428931828343051	41.5344618009827684	7.4649766284059398
42.5201052245118731	36.8504644452534791	2.5419692775764315
2.1145702540245490	40.4205686390945331	0.3924800622491270
2.2925210883506977	41.9578205098541588	5.8618293260604553
2.9575641666060406	39.4233758951858277	1.6874973595645819
42.2776389669150348	40.5307176663993616	4.7632391743363325
4.3943752379848631	38.5566847869482956	1.7693735733850509
0.5983242304366846	36.6610493666489035	42.9625258243288854
5.0101515423661338	38.0580782986442401	5.0989308092420345
1.3765964891554852	41.7996381927365732	4.0125203388099964
13.8738127176747348	6.4529772897884152	9.2745375999944510
9.0086761275002107	6.9610280504596664	6.0546545361476820
6.8160109847470540	10.9968402791209208	9.2585750103759228
12.8421829030165586	5.3962361822624381	8.8681508955105741
4.7850401770431095	8.0846467283165087	10.3645095723952689
9.1946643071456169	7.9776033103067387	11.3485672152948460
12.3927099008872048	8.2859562202572885	8.6677367113896988
7.4798047056364156	6.7137380943545297	6.4268414495950870
9.2676677930574911	8.9263028855855922	6.4702664410245445
12.1382794289176115	8.9571676775216265	7.1407284159297113
9.8899459664276534	10.6284188420292303	8.0236145156840397
12.9583399764705192	6.7677164318348284	10.8305446610622482
36.5457192482098137	36.5268833516297988	5.9510945234889627
32.4127242987052284	34.8788588907015509	2.5203434781349974
32.2493528730322723	31.9589867246371924	6.2933841052005706
31.9516532986389947	31.5058783585116942	4.4871991071085686
32.3569471558228017	37.8837701688376427	4.1136203224625598
35.1461582439096816	34.3978006526762954	2.8751945877029934
30.3889840173160088	31.1290230151829732	4.1254121117209932
14.0076606048468424	9.6057439650512944	11.6897040413530817
12.9762271450297710	10.5392286113030593	6.2164002870262145
13.4542576572359334	9.5539985425246474	8.1859530742560001
13.7775180542208631	7.3265994512565049	7.5526403780268039
17.7088395097695965	10.8174553353115837	7.9456577148850513
17.6770273857304403	7.9041112863259322	6.7922634432913371
13.6981454703195080	9.6305327876494875	9.9459700641167270
27.0947464618564808	29.8050898384490175	2.2194599461591147
33.7767918869249968	32.6389860833556114	5.1888612983885123
26.4055227130090557	33.7474742552968010	2.7301775747523371
27.3367997875041908	36.6538642042656306	3.9964561107177961
31.1615364533067130	37.7709829615790582	5.9659423414894803
30.9438598773718994	35.0051400317306900	0.7528943949025032
34.8053921187718913	33.9839156988939379	6.7702652492038666
34.2169060040578188	35.3702013870505496	1.4094601018862878
10.4765502185842490	9.1389094751254056	8.1840691544517625
11.8555669742658871	10.2018319517188161	9.3658719532642589
40.8690743109693173	1.3056438527971534	10.2623443005372099
0.3482398000279712	10.4366346795635305	8.2507802077171117
5.8863480065233613	7.3411915738589846	6.6066890219183669
2.9465451073872080	7.1624821171679738	8.6862231080497576
2.9872465378883759	8.3822220462755155	9.8091402687600926
2.8371759767298661	10.1707956280446474	12.9113905996429779
1.7657346611297671	9.8810555180571420	4.8924079047902174
0.7528003831033742	6.9210137749550240	12.6465396716114249
0.1856004210415897	5.6330319831097366	8.9318377076818276
3.0817551939561381	9.6868485193205736	10.8681166610119657
41.2985469897873543	4.9462863575382334	9.7684069765879382
37.6757743357739940	0.6178266664130702	6.6113341835366901
39.8015329715537263	4.2031981734238908	6.2008714919049295
40.4326001878906425	33.7060403296631819	4.8806294844525349
37.1723355565519995	33.8679469359314638	2.5982700249432069
1.0131113608979778	32.7669665919480124	2.5601068549676662
39.8257624253052356	36.0449841557276329	1.2277519771546297
37.9964603690162761	30.2034264246656399	5.4991481667514552
5.5009751216757978	10.8304080409290204	5.9314581434397571
31.4381166039492008	33.8034792827984489	1.7073911780553719
33.6115016290098794	36.0578562556989297	3.1839484546408232
34.0286551632790761	30.9244924253707332	1.8703202388469429
33.7533226257927339	34.4874613484666739	3.8555147897396815
35.1038855262257101	32.7603167634615886	2.7863259136528700
33.4953149282516875	32.9676937966731742	2.4158844388709029
32.2619794628400030	36.1140501934507512	4.3203510895391100
36.1941048378749102	35.0182256553804834	1.2703369637442605
29.6243173307085392	1.6840154181441918	9.0950788085624588
1.2105340647606846	9.8696974590257636	9.9694592995537956
1.3641433673510870	10.8171182547020130	11.4404679770377999
2.3729989545983812	6.3480724816932348	5.7725293706645111
4.6419645567171131	11.1392692429231026	10.0114853992434583
2.1432951264357603	11.8066318661054392	7.7599102779236304
0.6796945571203495	6.3698150483949041	6.7994479757224440
2.6047288368381039	11.0941621807609554	9.7137759681468001
4.3759634093207440	9.1556872603096195	6.2885302947319444
3.4849044977775603	1.3984495347321435	11.9400318739946165
0.2744418477305531	4.8112930831029654	6.8757715780150663
3.5121663201495639	5.5932473929941571	7.4338273794499354
5.4442841018564661	2.4088784110013752	9.6886645576379564
4.2259493297581194	3.6428060017917532	8.1093904219716553
3.0080136656324803	5.8705251705214483	9.7045410726972623
1.1969621214959896	0.4857622025053430	5.4465332384404226
1.7223740209511940	6.5749169918489532	10.5407616140487388
2.2760940334024533	4.2992899197900041	7.4581691409252073
4.8189846160761460	5.9274222345677074	10.5897656638109083
0.9882332977844822	5.3762686157343218	11.8698951019984982
4.0486566876867789	7.2918179292593077	6.1553627654494267
42.8356507474926005	0.5987700157465915	7.2201021790696052
1.5141994695963048	0.9636191657489332	10.7645751962672325
23.4747700478162358	37.6049207947815631	2.7066530881138320
24.0451762931965263	41.9311124208984154	5.2203257985652236
29.7282409501276241	42.5839191510720383	1.7591715886985422
26.4073478597657250	38.2434160480467895	3.4662773401947446
21.5515164095167400	37.9182868410245248	2.4485707791730431
20.6597238611040623	40.5294177324112255	2.3851494039864805
22.7200839212328844	38.4164576045260944	6.6984384903281464
23.8480399700186538	37.8464011894686791	41.8384874276325078
19.8119120781383700	38.2283747994942615	6.7291513953605984
9.6041445700275894	1.1299567957768277	5.4654741126884412
11.5986973086581830	1.2926104727066345	7.7896725706674470
11.4693697124671399	2.6572749748324997	10.4721948434895662
8.3326940922090262	1.4639184700056649	6.4120142858213711
28.5100830457630856	37.6932768505020093	3.3216629013705439
21.6582327991481449	41.1453744839506044	3.9613340098436534
20.9603506395008665	42.8472279191441743	4.7317851304545000
20.1670636267182246	41.8086147405793298	5.6575220288049364
22.2040733539771935	39.4092759560687540	3.3637562778870174
20.3823742489351574	38.7716936149278482	3.6562124435258569
23.1942077519229990	42.9918574817947956	0.5429527451789836
21.1150231396706687	39.3060695753029279	5.6236909915624391
21.5766720107313184	41.7020243727935096	1.6804967241982953
33.8448234080320773	0.4051429969580567	2.1107055574864231
31.9770785247445453	36.7866813263783072	0.7510556232858971
29.8767735511368926	39.2750247093686937	5.3023909507849218
30.6241399099005775	37.5213287461690967	3.9463348905263302
33.6749463714272821	38.4538794805385962	1.2200341992136587
31.5578512757419603	42.6688005957239511	6.2336737241234550
32.0205508500013707	38.4140509986328738	1.0487087758902824
32.4839143706512772	39.1055601149006264	2.8858977520659939
34.3166955256156712	41.9273524527619088	1.2818893027711054
37.3046834993655523	41.0863282802948291	0.4155989039010532
35.9468062799792847	37.3199959740366083	1.2032602004739612
33.3639148626006090	41.8367352740091718	2.7974700038882894
33.4023209733159518	40.1546539409377488	1.1636178689723866
35.6018016347338957	42.9045154622780842	3.1207315024636681
35.1226874633175328	40.0994510045101933	0.2867224291768375
34.4843591641844327	39.0911898630617429	4.0200140807700731
30.4410676720109699	39.0891711038883827	3.5402779061386966
35.8220943299605281	39.0520457438912985	2.6536980737329605
37.3913669248697502	41.8208214558209477	3.8916320363569596
30.4953524964896872	40.8062102715696540	5.3893369110969607
27.6628794213677480	42.6986509081168677	1.5769390273390846
27.0836372831267980	0.2591903074326694	3.4909581763013042
39.9805860860426634	0.1345635111733928	1.0362128150459853
40.8325081843177244	38.2584697189754266	3.2371477066568954
40.3204536270954108	40.1726174378493681	4.4434552148236754
36.3131864214761393	37.9419202148416730	4.3447087449271864
37.5872483184395918	40.0852076526545886	2.1960014508547347
19.5476641798715640	40.3097324050394192	4.8725676399513453
38.5580979930364762	41.7987915896589115	2.1077247152901823
38.4024797136282956	40.5306223164208035	3.8245505125817614
38.5136013656970064	0.9360040501688126	42.5399003123005883
39.3755052909578964	39.0401875705631767	3.3317374545379916
36.5105020386367372	41.2945213369148476	2.2557849179444229
40.6679519807172341	42.3712481042326559	2.3185496581146849
31.0768216638719359	0.2841305626792049	2.4127734129077925
40.8999631202771781	41.1735497768487093	6.1860091254702274
9.9796792432369976	39.0271729339229054	4.4427788093894955
7.3839674716041914	39.1454415595201937	2.2852334367573479
8.7595232051072376	38.3089588315626202	0.2467240020816895
10.7361877001371813	41.1889324724937538	4.8215186190770174
9.4566951071292440	38.4721211792670417	2.1782587168944176
6.9424826345049322	40.2046288578861493	3.8167313281863620
11.8796790559697545	42.3790100966855476	4.2613154140695215
9.1466247679210735	39.9881519790228879	3.4877330581507819
8.9101854978911437	40.8912247825331718	4.6989217997834256
9.2333335136264729	42.3220796800792982	42.8839348620973340
11.5937286452820736	41.7326795574050564	6.2172232666092269
15.3050276766881854	37.8533203486040790	42.5362458505797889
12.9918258641835891	40.8397304001250276	4.8879737568843629
15.5508462713256019	40.9340571801174207	0.2525160525334628
16.3065306900208817	37.6989715317639593	6.7441477493592954
15.0082238328789987	39.9305231131373546	41.4465130268886313
19.7655031530014149	40.5398022536989515	0.9677273190602655
16.4751589583160687	3.1476734279446075	6.7067092125654826
23.0830941618273542	0.2670690557839024	8.1679230467281645
5.9923072532452641	39.6247288032717790	6.0198118573755330
42.0985856921473243	0.1146463847648054	2.1737622688335172
23.2329748097446505	4.1363641852389801	6.7380767999598659
19.3515203892713643	3.8929952474068776	8.1157454682684822
18.6720985100831989	42.2406975710794796	13.4699033270962190
23.8751348727810146	3.7243751907018607	8.5044848371260926
20.3424707615974398	2.3631538269199552	6.6781839947903245
20.6524910534171831	0.6366022283131002	11.7185499045723471
15.8385226775748098	4.6246285440379360	7.8848735332113860
22.4248857951608507	2.3596764946625965	7.5299201466248009
19.4752621020313512	4.4262505454344021	9.6500327959886025
24.1505117845091490	1.8133763716062576	8.3236863163155075
8.5501289950000796	40.2056230921723028	0.7552880635407253
7.6424632184720798	39.9013234254144749	5.3905311077877718
12.0139050045178539	35.9234634781056812	3.4334411396712770
7.2082523117175903	42.7761064219212770	5.8062647270535273
7.5783427896985804	42.0689492883127230	3.8552629898518163
9.4482101324714254	1.1095167696941048	7.7702941576081832
15.5999979762459997	0.1502422601127396	4.5013048825523514
15.7369936446112000	0.1408395293367081	0.8505888476132524
13.8476088001784259	42.3820542832117937	3.8256424930471793
14.6599126796892314	40.3884075906636824	3.9644304579216261
14.4019287922034369	37.9049430565576557	5.8925126744366700
12.9050068709563455	38.6908808854220823	5.7446891066077681
18.8354484696860709	41.1833719435076731	2.9690770693407180
6.8513974065513672	2.0897202850772274	10.4004753782822732
16.4502074817635595	37.3068150063997450	1.0375942555725861
9.1416771933417582	2.7221710867413758	10.0970480968720224
6.1281609190950119	0.3143431893462834	9.2333593298142631
8.1945583926192338	2.1635579305918800	8.8837616620454849
8.4787231874022524	6.9868798109314358	8.3157023768961906
7.3116053408964596	0.6246119491272274	7.6570993480205836
10.3343930203953906	2.3582374546103186	8.9950022699961298
12.8659352191174090	3.5449187558144866	10.0383572482257879
22.9966394116633985	40.0501055673792479	5.2251815808951774
15.0702942079687219	3.5378214789863658	10.9739948938117031
16.6184398659939951	4.9106565466768188	11.1845302015161661
14.8567609981951971	1.9506839490750330	7.5836408459960740
15.7757532689813686	4.7726018430114507	9.4757459781224966
13.8543922419012482	3.5891914243154175	8.4191418100111974
17.1674817156882824	1.2408072075626633	10.5647677326870983
17.9878303678163256	36.8531152579604679	0.9890851236853779
18.7973964774172657	42.2226820468975887	4.6169665869641863
15.9020624041869336	38.8118967068629388	4.9544409070090225
15.4143825535563117	6.3139417247625520	12.1633172771269198
18.1091765328496450	2.4971154610887054	12.9940142417273474
16.8883708148371880	2.9285298239083479	11.1522385708542675
13.0623345091734766	1.7615455123805184	8.9715129661323676
13.1460835913272778	1.7269902467168314	7.3500697970812290
16.4424863994406891	1.5797320659942917	9.1450770529422947
17.4484061235744221	3.6845425359681441	9.4829808710235035
18.4455233390852342	3.7259407742283113	11.1865267410198825
18.7783472152787780	2.6832045448260495	6.3602348379608973
6.1855941927659313	12.1635271382331585	10.2172128335960046
35.4348822360461710	27.5692994045965101	4.3085611126032024
32.8958690086591830	27.5512557031673140	3.0196487800906731
33.7327580909271916	26.5703801060668070	4.0224835057678865
32.1197737343861149	25.6846159439136130	2.4848653897026796
32.3738946315305753	29.3322701689823511	5.7062404619814791
36.5217949763526235	28.6670866818616510	4.7403609014685708
31.0062699408226337	28.6066006806204989	6.1358585305530315
9.8479541199300566	15.4081616492286972	7.0685593636069282
13.7783822087872849	13.1690919318360979	6.2523917696902611
10.2478548965328571	12.1133447804382257	13.4331795724203378
9.5225118951650440	17.5939362307623881	9.6905188455092297
10.9379734517320486	18.6587148282259996	11.4107752683880381
11.6701939163113106	16.5041007598193836	9.8613821424800570
7.7348253622499108	13.0529488233607136	8.9328842321950166
7.4948154049643838	15.2458060930939716	8.1740079961105483
5.3240602437838396	17.3002225635161544	11.4467850363488637
10.3581005245803084	15.9595419309398832	8.9859225727224867
16.5732220576209635	14.2210293323953998	8.9166511240178838
26.8600927753104557	28.1419268167056948	3.7291491310194931
12.2226421415896862	12.2683224554977244	9.9261643023279245
13.9692951786036375	16.5711062742635633	8.1661004127141616
17.5557777211733956	12.8629677149852206	7.5570790585123966
28.9777914574486068	28.5242713144365929	5.8685295088769136
30.5309995442475071	29.9997506831887790	5.3174189723706746
13.6175335133460109	14.5427285744427532	7.5604861770074869
15.4568926025682494	16.6506452915336851	9.5247921411401641
6.0820639094094258	13.8123581071258510	11.8938190707079912
12.1421285209581082	11.1773767334287637	7.9877450745038043
11.2955836303197454	14.0583728315691516	11.1354544271671578
13.0392462909445079	17.2727241654854531	11.4783203371273164
13.6306603528233730	17.6507699584735782	9.9084576737671881
16.2525453204820636	15.8859512577469726	11.3396710850395035
15.5828357757543969	10.1311958276283658	8.7292777307833909
17.5240549437526951	16.5894801866743542	9.9934787620193077
15.3667892686909973	13.7690947392366621	7.8682241448661241
3.6684082032038274	17.4732277805797231	11.4866211232275095
39.8093257904870370	30.2970583753120266	4.1962270586834336
42.9373520871910941	17.1531965632450500	8.2199704974914365
1.7882167881566269	13.6708391495186063	10.0582312490725361
0.8374365950664312	15.4555276533355972	11.0758127052049620
4.3541702199860914	15.3798907736587633	11.9614871796270581
42.7548805797863807	11.3556435993205618	6.7381116158320689
3.2169355703088138	16.6801975021732076	6.7802119555190279
0.9575710754097352	15.8487548354796228	9.3733746357573544
40.4976326673956848	25.9772725395155639	0.7396265997394152
3.4642923312089637	12.7099092453719500	9.2644092331621071
3.9743671767398050	12.9878717389317764	10.7569525759095672
5.4000134918913858	18.4956219825137858	10.3499406453473881
38.8967341604635877	25.1038576613008466	1.8885914118836058
37.7624551905776045	28.6828533391337004	41.6781569712279634
38.3488612205086667	28.9324529470490006	4.0440163380663998
37.0392364515353663	28.0790641205607834	2.6206225805721219
41.4428975454164217	26.7709238980201860	4.1629203350278852
34.1616547530150569	24.4447064833511547	7.3358691619757783
8.0677345579604367	18.3885177097361989	8.5056352750573332
8.7041604825780272	16.8483168196400079	7.7819884352355748
10.4735200325936244	12.5451217916659044	8.0194915593554992
11.6753022528550883	14.4117985287921080	8.6110487130805407
11.6959264036823942	13.3754628963985116	7.2902674827725829
11.6140940360060565	12.0644898305000527	6.2079491296702072
10.0789453230285435	18.4685547782167951	7.9648753191114015
35.6227895748532646	26.8024909517068082	2.6858604026381174
30.6924016002404194	24.5064706528858842	3.8574484531865436
34.0201165501050156	25.8019277823989448	6.3179562027297740
7.9848909241132704	15.4554094577306635	5.9046724826810131
40.0991958938814221	25.5526556547687846	2.8736444714252043
42.6882929896573700	27.9390056730792828	3.2629041110407333
0.8218509670621759	11.8418871201488916	9.4515062192434094
2.8528753750305236	14.9265615237044411	5.9656815680079758
39.0882678731648099	23.5789548596979763	0.3264022765790621
40.5427456429562838	26.9960191380348782	2.1212191761014147
19.1482631316007819	26.7486219077754619	1.5548529609148940
30.5616055196685998	13.9230961008126570	7.1600169301669307
28.5833344925222015	16.4914229753336876	11.5564792271702732
27.9844937792882575	16.7847578183779049	7.6841403702701045
27.7375126766814581	11.9909737274193144	7.1795433977545713
28.5189166070997544	13.9933772212256216	6.7505162221407806
27.2982592474901864	13.7496670111243215	10.5204949368480651
25.5285189102584553	14.0317939482813365	7.4324673151156500
20.9752900629169545	28.2999986668057808	4.6067362931615152
19.9195290793203803	29.0942712124341689	2.6990277624363164
20.9567076727567674	29.7427314466292678	1.2390227104468425
21.5451906721550515	28.6418644024682578	6.4660306670005125
23.1801426451664447	26.5374213981270337	3.5485303392046976
23.3295082431196619	27.5441472010939492	1.8567290274938859
23.9632717907564228	30.6090986932908109	5.7990977942485884
21.3673763782811719	25.7757825862668675	4.4131309457042356
19.1756429392987364	26.3199247093769948	3.6879597425641459
18.5762309056092079	28.4372821368029207	42.9610077115665732
12.2866459178881922	27.0327087551166905	1.3593951579394123
34.0097735452795433	18.1300696638627095	10.8307782608631413
31.9768891483500823	15.0536448084384773	6.7453971277346589
35.4715303046286436	12.6550263138448766	5.6298429897102658
33.9383821317800027	15.2364369173495273	7.9519975461187897
31.9063132097264308	13.4009407175152635	5.4848003360863329
35.0142200388877782	16.6074861714066024	9.0798241525466814
35.1192131394760096	16.2498811241033678	13.1757146934329405
14.9467756869744584	26.0198237541563024	1.2390123653324314
19.5961270490957631	28.1032375941172425	6.3276237392139345
16.7505524238161883	27.1864940409982410	0.8760002227647932
27.0952419780164391	18.3803861908993937	8.8283950223609757
27.0136646386976942	16.3503929878175001	11.9855523381936226
26.1417882398001709	16.0484841769398159	7.7085583765133565
27.5490867675077347	11.8480709272017766	9.3179156018679858
29.9351695985383763	16.1402755258970529	9.7583734948884331
27.9729838470561418	17.2448022186575223	10.0022203925125392
22.8122129704496750	29.0934069070012526	5.1539902254138230
24.5979455180452611	12.4059953150757742	11.1670645872177410
24.5475271022792789	17.2512990818153966	8.6844657389176163
20.1637312683844812	17.8201386618327824	6.8550753431036364
23.4684069889301021	15.6327974131732752	5.4378910756704784
23.2991913599427036	14.1601845764791872	6.1823073979428100
18.9740161602683237	14.4445216970615462	7.4232637013703568
20.1564539925022004	11.4679214896368755	11.8026244010446479
23.4580477223503649	13.3071135888405294	11.7131083719509093
20.1579926063639085	16.3935603487415307	10.0590904985196641
24.8955582661670292	12.1840364408761381	13.0120585707615568
28.9532525503486369	26.3896467418572982	5.0978872801123503
27.8829467647342923	26.1735558742999146	3.3319279316574795
26.7500853815230677	26.4284741683347733	2.2120200521152240
31.0008573654554560	29.2088390381000664	1.1831438559238443
28.9550177168029883	24.5542675511225923	4.3229869485396915
24.7958561400627104	26.8602156241392223	1.8273750236263571
25.8371496640657270	25.2808965799434624	0.7729002009915115
25.5172123589832651	29.0557594265805932	5.4497929617543583
23.8901275033192633	12.4650842769037311	6.9429921998757971
21.5103223233667080	27.5258860914071839	1.2989044143346826
19.5459509509206661	18.8386055481754120	13.1237882355998696
23.1713828154113592	16.3479549299871927	7.2029493599170848
22.0200261819613523	15.4771124124204711	8.9858695660690309
21.7332616420797393	17.6340938605265727	7.3541388742935165
21.5484535678326843	17.6438063931961615	11.1757158431464738
21.3849400481358991	12.4848178883870098	10.9713415600695416
23.0779459012545693	18.5014478746475284	7.9394334984248998
39.3470860642172298	28.5904515142969515	2.7817534414908538
19.5084306645644894	18.0441714472158097	11.0948898317712601
18.3290295386063491	13.4208061466056048	9.1791769451209611
21.7748459574423094	28.3724876235283432	3.1892116877102095
23.0165790439174280	25.5844061379564600	5.4692709846545915
18.1562361335756002	15.1677537363396020	10.2504043779477900
21.9303768546255604	17.1698047369823712	9.3428930293409937
20.6071454528072984	15.7701386482796622	6.6210292609793377
19.0766633819503930	14.6199037294701597	13.3395716875772727
24.4737732161151129	7.7301350963617352	11.6889548084013288
12.5596438090750642	31.2880012502668698	4.9244717526600530
17.9613248193492012	31.4064547070230411	6.4882358808159415
13.3454374470498358	31.9840684167072666	3.6849053203763646
21.5239067701622169	36.6575822585316615	6.6945227748764227
20.3163677102269169	5.8044943909324989	7.9155286949447632
18.9805999397225058	9.1934510043895354	8.1103046137124242
24.1383412452748800	5.6899331008379024	8.6776060049655808
18.2184313610742166	11.7888736275922934	10.8038149194474649
17.1864144501253904	33.5840342387063799	1.9332698551886467
23.8865695980585109	11.0431976034407935	12.4279787603805438
18.5191250063049253	10.3253173157980509	11.3858901965482193
19.9317346223005529	7.5218209397175535	9.1280145464223477
23.2814668927301263	8.3961805747510585	8.9236363401510612
22.7664419002518628	6.7168627401891730	10.0847314414473352
23.8961992148317606	36.0258322871372840	4.2248004771378822
18.7606281819149672	32.7465773676577570	2.9809449592629056
22.7570112265272257	32.1756239012184011	2.9999506296182084
13.7432752449597082	31.4725159989485306	6.0386507015282813
29.6382565233998747	11.6567420149508170	11.0376514467102051
27.8584372635668949	7.7073058214789594	6.2113355094282152
28.8924490241221612	9.7227532239433270	8.5542890606672373
26.4215112644468739	11.1619660513028052	11.2087995181165976
16.7926318339516740	35.7126357029910650	2.3788372261882622
16.6754882295929825	35.8918673896497751	7.7778922898193334
12.3693794720723087	37.3389237886491756	5.0283271681851156
13.8157904041214383	31.5769203171903960	42.6423890865661903
23.7762651134853620	33.2329179185908927	2.3345086355578886
17.5729886997582625	33.7290108263532531	6.3493584762474891
25.2985846000431565	8.8488417377902771	8.8853550730205217
27.1587827211699206	7.8647122345823934	8.3111002652281929
26.9816440168491845	10.0476096114577498	9.5130549788564345
29.2175049316288380	7.9458815132020479	7.4132929733037685
16.1318125259600542	34.5349593427576735	0.2388154669943994
11.7845329960270711	33.9394200686094933	4.0409750151607344
16.4806699992596606	35.6912191993248840	5.9061254473936540
24.9556355780063832	35.5329621573420553	6.0277702413272163
24.6425731251786821	32.0174786635470241	4.1018516821043072
25.1628103859500847	38.1797770676345323	7.1360571649814863
27.5676431528424857	36.0773583489829335	2.1648016083023016
25.2443792191185352	36.7129596595961019	2.9702664701330042
26.4609114435745170	31.9082414963338898	1.5573249581214936
27.8311036064159367	33.2889636475464741	1.3308302745939442
26.0758156095671438	36.4115703273356743	5.2842082948756488
25.5633080927088052	35.1397270032594946	4.1788346955463371
26.3916333463137818	33.8330821842567815	0.8344906400089102
28.5714594126007349	32.1374849046141051	7.9439870764532099
24.8844594867179687	34.8651259968969072	2.2775993669304730
30.3412209097407697	32.0282349977013894	5.4979311864505673
26.1059117329148194	31.9476391767099699	5.4361263272767868
26.2118821773204864	31.5178698937128665	3.1611531133942101
19.2634607711119621	8.4866570449936027	10.2947635371715016
15.3133382071341337	6.7762872674653956	8.4087215934018609
14.5948429187422022	7.8294211228133452	10.4341818651742475
19.7613910454243467	12.2536606286237646	10.3557406159757690
22.4648564220296088	37.4923338741298267	0.7039303502007088
24.0195452470115178	36.3451489843273166	1.4456246782807649
20.1794765359374821	37.4175565741329166	1.7096254200850747
24.2888500641645173	34.5369934325673213	0.4909613684047727
24.0711309584673074	34.4829050758451388	5.2672462247541256
18.5668754542025560	34.7708902306626797	2.7310589610617146
20.7468200455805913	7.0065043804323253	11.1350170306217251
21.4767142818695440	9.4990968856689229	8.0628537964503799
25.6189821212140174	10.9517695718758468	9.8262365435229153
22.2624244952300998	10.7110322617787830	11.0895763664060194
18.7710417967192491	11.0522202691446036	6.7246626855135556
20.0760389471276071	10.8235372755643091	7.6295178036875066
21.4241083786713133	11.2214974883221412	9.2822397675857591
21.3061660371893176	7.8651659086034122	7.9254398467667890
20.0618818879588723	31.0848581005192486	2.8125317686991047
21.6980378548786135	33.4660584857266272	1.5172963358844807
17.7872795134401507	31.4802822670373921	2.9098400339480404
5.4618314862269202	36.3804961338473944	5.9838007491718352
1.1531490660688821	33.4097554219072990	41.6898345920667737
2.9111182770559654	35.7216623686133019	1.8468520315689050
1.6733298002992645	34.7336021286493946	2.2540088520130457
6.4979480890268828	35.4066237459596280	2.8405082141122224
0.8197619557648914	35.1264178953271156	5.6214791413802718
6.8889947242113330	37.5524750463019501	5.7648770878206799
0.6187622303255536	32.9590681654088584	6.5431502597337161
1.7077672612044592	31.9972635815168296	0.3162750338310892
5.3837918278209802	33.5171230876278088	2.4878211212114061
6.2880807324576775	33.6014537900309449	3.8739772727332569
3.8793239503658059	33.0807712532007940	0.7145456000631414
3.8528861372050778	37.3107194370748303	0.9601287883772922
2.8833221977099122	30.7892831279189529	4.7677474308782921
37.8448231505609343	7.5407122053783491	10.9323446782197973
37.8790016242992351	11.0465016179163626	12.2121802788688409
39.8094073645390196	6.4387569259569659	10.6855649618782227
37.9530365648140204	8.5108429164053128	9.2860153910125067
37.6277865142009844	10.4424016180744150	8.1094812271812966
41.8003844569540419	27.9138479942373401	1.2767059490200503
36.8287933835908774	27.6293724305305268	0.8597303638362330
40.7546700475815058	28.9073513969383100	4.4320294274531546
5.4639404817346175	34.1234863965932931	5.5702451016451047
4.3790943126118522	32.1151822788001198	5.9707298916473084
4.2934418326678800	35.8464949486385223	4.9413763961686268
1.9141288161097065	33.7322948171863786	0.6936772631269060
1.4134337922724629	36.1232593066263377	3.6672096221987709
39.0023411223041805	9.6463282206950769	8.1131717719432501
39.4106913566992532	7.7112120396463641	8.2151671143129601
42.1081555081946988	11.3258203809194775	11.3372109030494261
39.9968025589505061	10.4762195811277508	12.3463050449690996
42.2654558706308308	10.2382376973942915	9.8471587069713600
39.6722535360064441	10.8519530372553845	9.1755994322312056
40.5755463111784422	9.9659025998409625	10.8317426668895607
41.3746150018327583	11.0542539472806798	7.6298113932554017
1.3059593124678817	30.9870299918939551	1.5313627536503727
11.3325648094550822	33.2258090876513705	1.7112976529111237
31.7799301781749435	8.4837189179433885	9.2802492686449796
35.8151526656752139	7.6754354522912491	11.7343212290528154
35.1711296735860657	10.4318803604397523	10.3693023263208204
38.3541882356096338	6.4022091704227986	9.3995631656297043
36.9005253913866298	9.3913474913787649	10.8858984100000367
37.0035994337939300	6.7858029037666432	7.5655994898500678
32.8071839688385225	9.4341046101305626	7.8110530569504224
6.4440729814117645	31.7329785577966348	2.4634741734277994
33.2419444264373922	7.3582859486139522	8.3610816846565736
11.8698458325338247	34.6296003658388045	2.4502580799221678
10.2110405248057532	33.3915976000846726	3.6207261611110031
8.7273114819868098	35.0487250858273072	2.9951800911697499
8.6349732528422756	31.7234277744108901	6.8397480040611436
9.7457106857616314	34.4389845197490772	4.7951998301917138
25.9691032238100448	7.3155349815762571	10.0227299913888395
31.0185825472801753	10.1046542778752713	10.6075116981367064
23.8427549312128626	8.9182016081535771	7.1323103120815405
11.2948093858745242	32.1654958318410493	3.0736509456822514
36.4315999573755818	10.2422159441243004	6.1972480992316159
38.9267468698309358	9.3964984656281310	10.9117420810914876
40.7603724405701158	9.4516472248828585	8.9309222658992571
36.4699859164661007	11.0760973202260722	11.2385300154517616
33.9891675842337122	10.5689139016523299	11.4946974959909483
11.1730217221409678	35.5293482772453331	1.1730900467687329
10.3801308159878189	31.5349177440088724	1.2093807215004433
9.5013961045393813	31.6285383118516776	2.4772884653274683
41.1192342520118217	9.8718529815551612	14.7959086641481257
32.9652297143354716	10.7716620947208757	9.6482366675763931
35.8952790111170614	9.7929807132089977	12.1320013524718178
33.2666884667531875	10.9248741795047390	7.3863095262830250
35.9542853692876321	5.9039296573651496	9.4679705549410453
37.1320220988780036	11.8721552021842154	4.8555462971195871
34.0123627374155149	6.0032472039967644	9.0091462288322930
35.4360304225373000	7.0527628095931227	7.9245573139849617
33.3112698409427423	2.4755966583337736	17.0746104121340139
26.8051588025701051	6.9912484989179795	15.0456452916375358
25.7378446833040329	10.1587055810132139	12.9899633640197241
29.0154011713983380	7.2356630339397219	14.5115695132758926
30.7436363058728119	11.4133510347051335	16.6741299770174187
27.1346747570737001	8.8042792968490300	13.5027997416474559
9.8733265945677626	41.3010317857749456	10.0668646934926258
11.1825203807776195	38.8144728523385751	11.3269204737903042
9.0525219281645111	37.8970531338436558	6.2966280945103925
7.2393574199061046	39.7665910450660931	9.5909554299052786
10.6860155943171815	37.9355274609675135	6.1208208132596056
11.1889949154997499	40.6673547041484866	10.6920772273020575
5.1032578786004725	37.0274139316945110	11.1385108059851685
6.0210768146218596	41.4349917050694572	9.5142141674807466
25.4185136765206323	6.0237798121367474	17.3819630961252294
30.0082727942886152	11.3722418612986491	14.3955184146296986
27.4872690058944400	10.6302841951442506	12.9849777596890075
33.0837652698539486	2.4542618743327425	13.9242501181999696
11.7521781467532414	4.2315521846403126	18.4498169333326238
16.0364716172039898	1.1725058044431604	16.6553316848493118
13.1829561598253910	3.1139861182338828	11.6219734481175063
37.8550317303634927	5.1500065860327684	14.2487912336068892
31.1184722715518980	6.7215089726317450	15.4422915176291156
35.4454406813755440	5.9995633801264932	12.9616482237997062
34.3512325826122122	1.2140983779203451	18.1659865782452492
36.0788609825623325	4.6323159901651936	16.9498004985453896
36.8584182880257600	1.2787042386367964	11.7823964219292456
36.6309454776952563	5.9284887688807570	11.4195059719114109
30.8530215775103471	1.7998351724997335	14.5853640759996548
36.4262375017354998	3.7495376575669872	14.8734941407224195
32.4231599043370409	7.4905294608015707	16.2124125076893506
34.5005692015211167	3.2102550829067575	13.3296212708705966
31.0709521476366177	10.7636169876666372	2.6822529196764533
10.1646293386057494	8.9746652454008125	17.9573021301888787
13.3470246710876097	1.1604404857433213	3.9927092512415170
13.2182696836504832	2.2496561366393264	2.0655481458487936
38.8906095679112411	2.2083234798710101	15.4851977489821202
16.9593781227276494	4.1952999950191021	3.0895116796009567
27.2614282863988215	4.4590664833439986	3.1842515761667149
7.2179386916210584	3.7982427608486260	3.4471901910197924
6.7094715335965809	3.6161005089259244	1.3660304819573317
11.0540957232485280	3.3087750068620645	4.3165269374742667
8.1525137231962859	0.9424744499524300	4.3621101693546969
9.5531477259806454	2.2989658939113955	13.9511838510278139
12.5031295248180818	12.0905333973959852	13.3100643119616766
15.5918710938205010	10.0598805912059923	16.9399845022477464
34.7104496868515682	9.2476271753731734	1.5935191346042747
36.0432179387375484	9.7279366999486161	4.1978022178639431
12.1329256606938340	41.7060152373647455	9.4604327599598275
31.0014587355943405	7.1576278701273113	6.2070422540417969
32.8424899829629027	6.8952296691323554	5.8917823341174476
17.4116540378398064	6.3405044360439957	12.5895679288122810
2.7521351141987220	4.9963098636777561	11.0830378859911622
10.8713343444910269	0.6813524787177466	17.8134295122019388
23.4077568308874575	36.9664939675683968	7.7179584534359584
35.2654337817312751	8.5757408243689159	4.9635386278537457
35.0540054391945972	11.4832496806434730	4.0075947726304575
19.5686627519383194	40.0188243657389151	6.8181922830260913
15.4444981259821628	4.7257745158189035	17.6389067123840846
15.1763042365904592	6.0067030690299816	15.8734141179832804
14.1093112564257090	1.1158243534610706	17.2942312427878235
16.4588143388483807	1.7407296785731829	12.5765733848845613
16.9876236006966508	5.3934573440050357	16.5176862131719311
29.7216172789514914	10.8606347759897357	12.4258905182050849
7.3531395106245290	9.3346188181373755	3.4870348059237721
34.0725479663509958	37.8609272499637939	11.2605033594646518
8.5848394001733741	6.0275136301176664	2.8696272869732939
8.5738464133372485	4.3722442162306976	1.4079203387259085
6.5716186337028164	4.4190098022968556	4.8234671392928279
26.3249016181277327	8.0861284286590021	17.3220874437915704
25.3996267641901525	8.1587152853496914	13.8829088674893892
30.6777937035460582	5.7311029798218742	17.0658173071510255
29.0466232508127433	9.5577907639864073	14.0229545096064054
31.8640245835838485	38.9031342266065607	11.6723011934575496
4.7030951168821185	2.1286635831489367	15.5972433968990138
11.7383718830271917	7.1163503089862870	3.7426148654764400
11.7350999805570950	6.1440791023317898	2.1415254833530630
12.7866425116357014	9.8595933674748526	1.2546979550680057
7.5652818020574797	10.2368104751292588	5.8131725172276827
8.3863853258502896	10.9907070290419266	4.1434484152262856
11.7539875310172697	4.2097888376127575	2.5251388505880996
10.7041657708456395	8.3670966094783505	5.3187978385580665
42.7689288988558687	11.5037803695070640	1.6754945183024563
40.3318693902498921	9.3427375080708046	0.7740222994274455
42.4010364506520432	6.5128234033173795	5.3016036460167069
40.8113336773310493	12.4673558799070765	1.5896534152336819
41.0507797751609687	10.6083201947562902	1.3080418692034717
39.7808555743417998	6.6815041647078006	3.5020618194946920
7.6689153484460606	7.1604574957797951	4.3580658972098751
12.6323638193929551	3.5399290114949338	3.7137991164251041
27.7363641806467598	7.0175465881071251	13.3513543780370316
30.3357094889020900	8.3863618680390939	13.4734740838029357
25.1985119091072818	7.5788036947097073	16.1180913537343180
30.8151485471902582	9.9382210104680357	13.9920781409965826
26.0337359049894737	7.6907485289005573	12.1694753916229725
12.7233378090792968	1.8127427700562526	42.9796455149678067
14.3386545853422476	2.7378183721515423	17.0229834922398453
11.1376801823981673	40.9669382248207512	13.1741145616604935
7.0104951946815781	39.2099119967976861	7.7353232067716133
8.9404922143558583	39.9661592691500900	8.4499441649787990
9.3714149851123647	41.1126428186078172	6.6194655922167822
8.1359542185645299	41.1566173787599610	8.8054750728476314
18.9231230394095213	39.5464703465658900	9.7240241490769073
33.9743749820659389	36.6237707794403207	10.1679885664068284
32.8186126434975449	0.0724629122078352	7.8301429207541062
34.2613450781882918	38.6569849822713252	9.0707879980392718
21.7863182119420742	39.7305570150295537	7.2547542527575777
21.1695170039614773	41.4111785551629197	11.1938107789373671
24.7023143352391443	41.7186456284858735	8.5389559965890207
18.1281252609054349	41.0190435504582283	10.4432034537816847
20.4364901197511877	37.8837645498925966	10.1520998732009371
0.4180243160787335	3.1788188910813147	16.2474009790030038
19.9712989313486347	39.8681004483179677	10.9208438194459951
14.3952796122849556	1.0897593631962903	15.6639436987075076
32.5412643193347364	4.2682938141105842	12.7185828719445642
8.4030969064393464	1.9682518659175472	14.9636044053718358
35.3483347180459688	37.5757076982268785	9.7494464668613947
36.0958974287602388	37.5090974885976109	8.0739580527800179
33.3066682639583362	40.1231335845898087	9.1440289601469367
34.9038705321638147	42.9531092848771507	8.7509511276885643
32.5381959423553653	37.4686483104783292	11.6785019005224573
32.7158503132921794	38.5991347875609563	7.5096732183565571
35.2647761232185530	2.5191326314346290	14.6619244205440307
34.4618595556663720	35.0585072522278054	8.5514517594867403
9.3267621881398686	39.8128234974504807	10.9947497383151482
7.6848391975935328	40.8748572431978943	6.7916840413905772
34.0474057854308114	39.3301225885880825	11.1222483150976039
9.6421719687601275	42.5812063745150411	3.8757717695261613
6.6036382034531993	5.5646013155183178	14.3796500497697277
1.4358147455998884	11.4298393640129223	5.3588560996935417
2.7775402501552935	8.1358160336911336	4.9440800853041580
0.4447946583439721	10.1789482907693820	3.4912589240071430
27.3340423578701035	3.2199545909278164	2.1233948479130622
25.7068954849383857	2.4609616013411366	0.9883001272474884
26.3296752270385888	4.0078148278480494	0.5001833991803250
25.2852008521640670	10.6648764154601530	42.8900550572853092
28.5172073136164350	8.2999960283708418	0.8689898717471937
10.2629300334244107	5.3855046485259166	14.5865687566481785
6.0634052735802086	7.8315640691371557	14.8893492448783658
6.7046505478231309	8.1873540964194458	16.7415016456767844
8.8997949109323606	8.7060781766020590	13.4428822888938200
6.3790578198184162	8.8643484617301365	6.3471029264908223
6.1143041892102028	4.1227332170178732	13.7038560940340055
5.3279271868215972	2.8005486703450564	11.9161463095629951
5.3798674846354482	9.7815400463811297	2.4789370943328732
8.3323848972754391	5.4931484693328940	4.4671679118261887
8.5299386125919092	2.3996941424591873	1.1524986936601038
19.2527711804623678	11.1051401384919544	13.8862733881761731
24.4715125187352172	9.6803179993798629	16.9094985193477001
8.3354271608754740	4.0698098191779293	14.0905859573895320
5.4066307250379113	8.3043494517696370	42.8236277744377745
3.2400975608467961	10.9530639832322390	6.2835957038938863
20.8725652151996144	11.0408445994679099	14.7683556109183538
19.9468035794350698	7.5888637509683798	16.0486427929241948
20.2242705433930468	6.1054580337532904	16.5156892471458399
20.1045490604872015	6.4753190646875076	14.2213632561270149
21.9128604611859430	10.9663491579119672	12.6953900399955550
15.2847734546427354	0.1088852068210665	8.2476987842808143
1.1655702385698936	7.6600488228477905	5.1586852014138991
0.2330086722462133	6.7299710237433557	0.6943584412286518
27.9798215403262631	40.3783370380695885	7.8163963799399223
26.7428533971386742	8.3619031190579012	2.3008820001423662
25.2022599370799334	10.1047589685458608	1.7193336451543486
28.7709764377435349	9.9861483002672458	4.0797526797233559
27.7289493492756236	8.1760695346179943	3.9434974972415988
29.6879427729843961	11.2935840945635988	4.1870856396771909
30.3453488814904304	9.4231898384657793	0.9699869647960508
29.2035497904810981	9.4680127155259051	2.5817649016158146
26.4345503430598043	8.9745000259463925	0.8302412657778602
18.4479906302817511	9.1191718466061644	5.9647210426783568
27.6671309278354762	36.2677629428484636	10.7395944304498556
27.4141066532089219	38.8213635436333320	12.7496169643677444
27.8900276661334665	42.0205075790135893	9.4275917889244027
30.3512611117620423	42.2224189919702866	13.0305371644485621
29.3761695051942340	39.1892637034311591	6.7984584343565180
26.9904077780565324	41.7628881415080286	8.0263854674508419
12.6661996028064952	8.7813915499005244	11.3993102281545564
23.7493007559067664	36.1777456103956609	10.9212005405420136
27.5246345488519069	38.3108115409747612	7.1626080101763847
15.9138019889855116	8.9896840892996170	2.0409362141416185
6.5563121974073111	2.5375215858700706	16.1811731001399650
13.2032072781560004	5.8450339478702480	2.9806459626753741
12.5517970851462284	7.6874576995551296	2.0173222824454040
17.7371696133290406	9.2846775114450555	3.1160660018680257
25.3988965910356228	2.1934520920079765	42.2068426891151276
25.8827662105323277	2.9773876051638930	2.8499450137594824
30.7709884423288322	5.1297286747611164	11.7893585409334953
33.6132183500480082	5.8764368411805039	13.4617577823553400
31.1826501418109920	1.4708678347277400	18.4755601275253198
32.0389725096969258	2.2309912917784023	15.7299360500785372
27.3023079558032684	5.3486469970805963	0.0105817305416552
28.6794699147991317	5.1681282414015079	1.5220321058929089
32.1982265589307275	6.4594116290668779	0.8758257067783396
4.1850944959862328	8.1572422227343804	1.5179789632794496
6.1340916755782562	11.1771864740402957	2.6975806920395464
4.2362471651014735	11.1760359536470801	1.3508717384959268
0.4922985066526211	6.5797138832380915	3.5011075756253764
7.4977194256191693	7.5755475680784388	14.2929077123661674
10.9871564389334910	7.5617440527890230	17.6973447934260228
32.8096379230872728	8.0194092163171860	2.1393656012153044
31.8417884250299217	8.2675852352674681	0.2381030571883619
37.0003882794352279	8.5475371410278438	3.3700504285957780
30.6907265137656573	6.2146678005968834	42.1010809423163508
13.9646478776424114	39.7907765901900774	6.4517915999290585
33.4100378173172317	8.8938575557380144	3.7889943699185200
33.8120151180597901	7.2784072818390566	4.0397010735659169
37.7230074706193861	11.6978457396244533	42.4427909867749236
33.1061941866268512	10.9551167027978753	3.5930305201126367
6.7814113697298302	4.8934521159957907	17.7586333613182212
36.7399585670523763	8.3998968287101992	1.5723761797882285
33.0089634250975266	9.7856903733003886	5.4846175843607936
13.1711400149771531	8.1529828270994429	15.0085837212950928
25.9537730838934735	0.9092344342703275	2.1529909209877203
23.1113309791557633	40.9058089985773279	9.9807722404080188
10.4112374641123395	5.2795114703078472	3.2728169811255494
8.9311263346181278	2.5166869327399901	4.2975944219100528
39.0421337258441739	5.2744544927805439	12.5854315577467482
42.8279241241460298	5.0580660667053650	13.1088759511365325
40.8564906038535156	1.7570654463845801	14.4209685529931306
32.1663046339530396	7.2070522399822519	4.2029700888413348
41.8878773777606597	3.6878497224239721	14.5893042053200084
22.5647942697256525	37.4866093517745469	10.2331034753694929
23.4647106025169343	38.5777367373831979	8.4456532774959161
19.4040350769146457	40.5248047545861496	12.3414727149179129
34.6132271545591550	4.7531238278713843	14.7006339621153366
7.5234404705405726	6.7417002913704875	17.9929767931316249
11.3963750025260211	9.3850779456217897	19.6114929516865573
8.7606046337298871	8.1005504013139671	17.6406684692739297
12.3223984557895427	2.8615959258385333	6.1058276526583715
13.5295664692922966	40.8240250761995256	8.0069008027593522
17.9853374130986907	38.9618723400175426	7.7313064991042504
14.9038946989265977	39.9721344600541642	8.3559035122115830
13.7181662884736362	41.3974120706829183	9.6066832078661548
13.8059089368251371	38.7405418682443923	7.9113353406961124
12.8630368234015648	40.4680416657707269	11.2796405294945110
13.0920846224384615	42.6913594232934059	7.8111550510605952
16.1606664400941717	38.9058026969545452	8.2772005534998758
13.4516214654712982	2.9155890630029413	4.9915613219990576
34.1954336013617208	5.0925136279194829	16.7769409729625352
32.8808931255533992	4.4042215821919477	16.1898678244333816
7.3558714537732506	5.5458659485912847	1.1718567690761548
31.4435658226864767	5.6596027389576768	13.6313125067066743
17.5465809190478765	4.3310362540901766	6.3245040957506973
16.8599021847262556	5.9544333904563338	3.3888556341518394
14.4600962171752752	0.1689963920637625	6.5276530731166984
15.8153519817198216	41.1310699651361702	8.9940532556473638
17.3069555378475251	40.1584530614811399	9.3563849062473228
17.0610634439494362	42.4811563607024141	9.1960793832248733
14.5440989065256758	3.4953271312763161	6.6873398925710150
30.7371544376792798	6.7517953884685040	11.7296899229591407
31.9293133225979311	3.4636497382583475	17.4089411981549880
32.5372202526418590	4.7090618866938421	18.3810422015157933
36.1778712835082743	4.2691062924433858	12.9978004713250552
29.8994948558441713	5.6373865091676434	15.2453434888686328
14.6900673933220620	0.8420017305680209	2.7095700415662276
14.7071620967352299	1.6099345884389324	5.7417355966665786
2.3310759247498916	1.7053159859852429	2.8014758877088228
17.9219664556530844	11.0651069382131588	5.0501607491593967
21.4997696631925130	8.5213692482410099	4.0980573787812071
0.3080689768355593	4.8340642099610234	1.5329996945954409
4.9244326051479437	2.6480418609804079	1.1275131830575695
5.0545162838307052	1.6357226869169628	4.9809796235692394
1.5763738748620872	4.9085232877858429	2.5212706703620511
5.5657967237393953	5.6934862575680141	6.2534790708907044
3.9789609249152718	5.4480591557187408	42.5056485220426197
5.4003888716579107	6.3172183212447557	4.7286482970433568
42.6426741862118774	4.5349690442455310	3.3932548762971035
1.5278889356210448	4.2320244597009840	5.5199056442680385
0.2381623147527380	2.0244363015501490	2.1469883762029922
2.6815391966164159	4.6940448126381975	1.2367143085901300
3.0859666058470872	1.8111476682548708	5.0927294048025278
1.5982673461545647	2.7006317313539396	3.9021772573182472
21.1175000716658872	9.4158843990646393	41.9959226361336206
11.5699635276569808	9.6291192928070704	2.2722188742567844
8.9323338740865168	9.2391780475435130	4.7034870723791267
19.8032916026295354	8.4514670290647391	6.6639571974371679
23.3173122498388921	3.6499343597931961	13.1219573973933930
24.7382272141969537	6.4120415798501007	14.8405930009226612
18.8430402534796819	4.6709195066554665	16.1702549295097384
22.5729267963711209	5.7459423898091675	19.5883878551738384
22.7474959282724178	0.1707602168377633	14.1654925283551485
19.7493092046851615	3.0809249495462554	14.5982833883762932
23.5340406593619598	1.8126600441446150	16.1708480102409595
38.5438721035302336	31.0521860701256145	7.8330008073417234
40.2506861379332861	35.3458622201593400	9.5047796143354919
22.4993343341189345	9.8458456718977629	3.7723040320610672
40.5282851828520947	40.1491454420476188	8.9988939913898296
40.9418595615643213	42.5954730400111927	9.0061110949069310
15.8395181158486853	8.7932130006546672	15.3286022661221057
19.4116062775303782	1.0257106046951934	42.4519706023505634
18.4608796172618206	0.5351807997058396	3.1990848389140121
40.7890403436758149	4.8421583244135924	2.1420781794819543
27.2723116732765369	3.2756478031697291	10.1464950603776387
28.9377002455654306	1.6462899756134981	13.1792933903174507
27.8345802465116918	3.1929178050577303	16.2435096422446072
27.2393481138287008	5.3535589080975789	10.2169496287780230
24.0253936308445830	4.2084984015473985	3.1985021008557468
21.8799480824097508	1.7020713847431668	5.6754977487207530
23.3491066236535900	4.8259427225790192	4.5493997024201898
37.4297938886038537	32.4487591262784463	9.3208965989492985
39.4649681824687733	34.4824545901227708	10.6697346746128527
20.1067867082409855	6.6395768527455079	3.9337957215308075
20.5200058120586881	1.8789089594434831	1.1380074366995894
17.2487472676395655	11.5144630641493233	12.8060600659334760
38.4252965362543080	40.9117667484997298	11.7018450111033285
18.6177162302662076	1.2948081235533360	1.1908278977615667
14.6530022336763945	4.3518848345134398	3.6430952331326276
15.0084359985184950	4.9071904510129727	2.1634415292522915
13.1870937936555777	4.9836633145431835	1.1854777075179277
39.4709038193872885	5.4871180231978220	15.6165292168545573
41.2952871992610326	3.6124923845387609	13.0715869762971657
21.4216909074812314	3.8460339316384902	1.1537986214362508
23.8584613149011986	2.5128565655226995	14.7274340645725204
20.2129254135639371	2.2766494111856201	13.2622745545389513
23.2486786277606186	1.4555952445475702	18.3587754693293839
19.7015426825350417	5.7138547102294357	12.5507333908686665
37.8475665908042345	3.5594328972858298	16.0354847610946756
37.3533518700310267	3.9569339609104066	18.1334498548432919
40.6276578691962413	5.0137874072326447	17.4527507767607268
2.1752566208977049	13.5488945022073874	2.3652504371798990
19.9437905649280971	1.2906761022521662	2.5488487816393413
23.1017810691360310	3.1996858650396152	4.8032216944860924
3.2240415788493832	3.7728351671549403	3.2584766675638628
22.1091070035804158	0.6843466866267105	1.5935946027178141
21.4372608717029856	4.9957941541887392	13.1597023341786805
36.7683894168098107	39.9119105637611185	10.8613204929631433
42.5151320011725957	39.9555803873582533	6.5851514290618152
39.3021473365321583	36.9080274646302300	7.3165633851720084
38.2457384022196862	40.4149047813469053	5.4436933946198529
39.4432087189419107	38.7436470182536752	8.8868532771105730
2.9989937576527690	6.8574345507205585	14.5112094870247699
3.8467859267176876	7.7475757079662007	17.5274014784269845
5.0201834523215254	15.7043091169952831	42.8031064678971020
2.5196969928677349	14.4044226323974751	4.4711006225626173
4.6573394282424703	16.0055794138874425	1.7446714707492275
19.5272158726194682	1.0896686122547243	4.8852534523954345
0.1309455767115149	17.7663989556897164	3.8766978834947725
7.1187738509842271	12.4163163896769220	42.7685499790065293
1.2617029554872958	8.8366559187189058	16.7516939418436408
1.9236511257059918	11.6134139213704604	19.0783742197622814
4.9407049404995576	10.8376670589742137	17.3426821399163451
2.2909905507490640	7.9690797641675761	13.1247071138002642
2.9756647373291112	8.8773823071099631	14.5715807310310410
2.5159902680575321	7.8882147671277627	16.1848997157619756
40.6340464269255222	40.9047708785024113	12.3517491380274702
3.3951368196766794	9.9269451318671216	16.1951394036911651
25.1016348921893169	3.9411689643730536	17.3547348413189901
37.9370752209404429	7.6028087501547432	16.2354511261624879
29.1791131066172262	4.1645054455761006	16.5196847851917070
25.7888148139592381	2.1831093727147461	15.8672785056557384
27.1301799093624680	0.7786702434271570	15.5898903481325046
41.2788603635662099	32.8950279216843597	11.5224430780485090
40.0534847823730189	37.9700796226818795	10.0149307800906691
18.7814456850603335	5.5127145004400591	3.8721105098736666
38.8543915467950001	40.4297384589908333	7.6387650608393356
38.1579930700290433	38.3953619149251040	10.9600821966274005
7.3025988165159461	0.5415928424445072	0.9390485474492394
18.2755970558012244	7.3860772403001844	3.2139861477336122
19.5273826429946098	8.4201943944667121	4.3648460993171376
23.1908920917398618	8.9345749139745578	5.6394118943311398
26.5509721939532746	5.2495511910850432	14.1512864881659439
38.5043406839882749	35.0095556095503539	8.5676088432022244
42.2739960610140670	33.3426051758790578	7.8723934626456380
38.3082977265883997	31.1294499716225843	11.2777440771733826
36.9589318008007339	34.7433978302020705	6.8169734653436285
40.9702834413194878	36.2318694657084066	10.7059602590177683
37.4804478100526239	36.1953263874666789	8.1227172334847175
7.5363501673602364	2.0774061673761182	2.5883610116848947
39.8389522545348527	36.6587782320494426	8.7047682686073351
41.1199751570653191	35.1705844640670051	7.4292932043441233
40.4203218585940220	31.8039884242721058	10.7328335550269145
42.8006162215262762	34.1350636305967541	11.8899342415006561
24.0718157007566695	1.6249470859067556	13.0809667206908813
28.1358395538359609	5.0072611726695229	13.8265889017162014
29.9882492524496556	2.1702635734421847	16.7022336560574125
27.3928608195715171	2.9813713216082021	14.4485196999332519
27.9501692446523045	5.3038518924131557	15.5806121384741125
8.2882598834993644	10.9684975864989926	13.8948375503164989
5.1713157015578783	3.4783463640181154	3.0842575398636622
4.4809509687379752	0.6652944932912871	3.0161040356315119
2.2092059236121524	5.9182562563376147	4.2007933396464816
7.2404146848387336	9.7527482141990625	14.1870598827877892
17.0870295892744437	8.4196061582606170	13.6166702732665215
14.0624061510635343	9.0415880715409145	13.3009775459265001
13.9930647778153396	7.4486338222196977	12.3530242906112111
18.9744774145408499	10.8511360923083000	16.0180728080875419
17.4924258702561239	7.9797159524212562	4.5296705798319321
6.3494725482085181	37.7991403481699848	9.4018231580873888
5.4392504527888850	39.3793694435557029	9.0433668377291507
5.0594391265720144	42.6672717340166443	11.0011221215469917
42.6740582244455169	0.7639687100838778	9.3238826330442475
18.7337914174691633	10.0870385807321341	1.4293728407029680
12.8806066561782888	11.4101394242759984	2.7236519764653120
40.1814626211745605	3.3266626871863414	4.8789689496263593
16.2261626765622005	9.5350767233366032	41.9099310140337877
15.0883871638466900	10.9129467580135309	2.8795057673574052
19.6789513293656491	9.4233071542019378	0.3153689368171644
17.8001059157664052	10.1920104887177061	14.4567161591791535
12.8092299098863567	12.0649648633975382	15.1216600207238852
12.1890791431918810	8.3857823591370213	16.9624714073887901
25.8396349988777345	5.2773364396221725	15.7008726383927097
33.7070330356617447	5.6884076430608310	5.3527116909220060
35.1428156583788294	6.1730222558417331	6.2479190656003993
35.5327683142660504	2.8386584733268672	2.5488327216269813
33.4404054386452785	0.4183629605889810	5.9305502587694336
4.7028484138203854	16.4566622081459251	3.2722304831193156
34.7384567921477085	4.5674283902611190	5.8516434808293827
17.9972042620711896	8.8961992154066944	16.0829562785370612
16.7412568687581498	7.2442537588045770	15.8852021469846889
33.0516057737019793	1.0373700275705622	0.7707878159236615
33.4327008396931973	2.4168997075813263	2.6455147987548755
34.4475787017091690	0.7520066480667860	4.7261772585912247
32.6121453398193992	0.8806459407576285	3.7312931313730981
1.9212034604778427	5.8435846250272077	0.4002891663997634
3.9441928320303412	38.0123986065722121	9.6192914060768349
9.8073092191188476	3.5244959578284791	2.6999504266142691
0.8461989733451374	1.7840602070009095	18.0379072454823834
4.6625863027341303	2.5925248271303536	13.3854138649692054
6.4717237603366931	6.2581955756029028	2.8397099437552815
17.9458485061228679	3.5342111755748449	15.4328289511556473
16.5007898505333976	1.5537393807445052	14.4244709973942253
14.8958623319793748	2.2453739321114412	12.3924028350517990
3.3263370510035184	9.4684548158024189	1.9051944146963775
10.8706979763246085	10.0334148202595603	5.6089275850518572
2.3240899006710767	41.4595122978559445	8.0474608213298477
42.8276088154610761	37.4430053362617201	11.5357478565676796
41.5330923441629949	41.7228100072766708	7.5912086897093616
4.0825181054218422	40.2808386919747790	9.0560648441616891
42.8748657819394694	36.9328933061358811	9.9825093332556527
5.5460572869992184	38.1175286225484413	7.1304698783294844
4.8479658820268243	9.0444202137662302	15.9828405099683142
4.2702596686382872	38.2427842826947284	12.8509752540974169
12.3446770252559190	8.7972218591379381	5.1866781338855947
9.5377693556018581	10.0059078192508188	3.1242218359824081
42.6477343366192159	7.9753885557840842	3.6488508867305165
1.9868406537909364	7.9229615801981392	0.9368980261241835
14.0593170811957400	8.8114631595278325	16.7456046452281555
30.2784863264038329	3.6855611967985049	0.5737457368743524
15.0892684948098115	7.5281092065520099	14.1297051935608700
12.9819135781647557	12.1979974689111277	4.8585513001254057
14.3899360274389014	10.4994695618795255	1.4737083064044942
34.0690919833749675	5.7248833959830021	2.0128199430963458
32.3531619160110395	2.8256999339554074	4.6163660395683106
15.7812873983029043	6.7378736923217666	1.4351139897710028
16.3317600256451456	7.5018883349355470	2.9956931544545955
34.0802601911962597	12.2371721100157931	18.8765699821960418
16.2964393622659749	7.7857595460305165	0.3382819843122949
28.3549001948476160	3.7787653236414678	1.0875042820849588
20.6612888656621401	9.4897977773477180	2.3693766386415032
41.6595282146926493	6.4031582198041255	2.5661796510190737
42.0655441322142494	5.0292178258763549	5.6707897332557247
40.3916809886640493	6.2805837934739639	6.5729267749380798
26.6761881318191136	6.5163457873954478	3.5985315929694073
19.0073755898556875	7.1048127699181292	12.7508399422009298
9.5763388380983052	7.1976170573791558	13.4810401680259435
33.0332465299621560	10.5177674710967235	16.7687776818162035
30.5011522777313786	8.2027418139301371	15.3178594233165324
32.2251492011525755	9.5013580942046261	12.5943766781513418
34.1477336267807132	10.2788534935236218	18.9037918478510640
31.5422274160078935	10.7831238734737322	17.9531800080122323
34.0790193191927102	8.4358639424734427	16.6895213358803254
1.1344395600432227	2.1007163071786037	5.7016263099987645
35.8111389204499346	10.6401487709404226	16.8263302764397586
34.7528142994701810	6.8509371307010207	16.7069757977033930
35.7634584051448670	8.5614986589902031	17.9165163729569699
32.6392486543614169	13.8105032511649046	15.0664308828547426
25.4234011203961821	4.8642774774978212	3.7653341934061237
30.3215219662543056	0.4952730560469826	3.8757083050228558
13.1295191720148701	42.5278938761056651	16.1189127384425959
17.5007624076591100	10.3730143706275957	16.7435395806977887
18.4372625261158163	6.5484649671938211	17.2714265961414632
22.9665140738461275	0.8885189076695469	4.8346361691775606
1.1201779708736312	7.8140053602543942	14.5443319602208074
0.3938694388571502	10.2709655674456819	18.0418092193722792
3.7830291343514264	6.0059770515059361	16.2309050293806472
19.4923592766582665	5.3912330311571814	5.7670683382230399
39.1519487878137156	11.0213781489559004	0.0575715881281712
5.1945632666736401	4.8469342077506523	4.0083047975764359
35.2602052932027732	5.3064306596448771	3.8253568897293757
36.9249372191586573	1.9651337009646688	0.9160867345114631
18.8371440227155027	8.2561283992247780	14.4682680112921211
4.3425837270142944	1.7022677745084551	17.3748307996854763
4.5575785485302154	5.1657196670302818	15.0489543048851839
4.8866917377956067	3.7832761276886333	16.5881524404975416
40.0676043896005467	3.6519081049948041	42.7215852108796739
36.9720667866655148	4.0613191528447885	3.4523993993548507
41.5205359199926392	3.2201406921307858	0.8476447830710064
39.1376600127805148	5.4219227098530318	5.2789869298531684
41.1468194990878260	5.2513896669009350	3.7493027736484810
41.5224142148139848	5.5044488449799633	0.8852683830689219
37.1426084795025560	5.8082844915817660	0.7127979076754879
20.6215056482642645	0.5416820320464881	13.6500280786189059
36.0373298399954294	5.9517996238963118	2.5323856499869559
3.9362684278736411	2.1158658391149197	3.1017993081907309
39.1521530343629180	4.7131639708458533	3.7549348298234881
21.7537624579883548	1.8114179053106345	14.6540560264601520
2.0589892390983890	5.7880522757924986	13.0765450917281552
26.9824168123813024	2.1084933463321565	3.7809541887974456
18.0443267477842042	12.8530125660998120	1.3640755240825198
39.9952422871398880	10.1857169531834781	3.1534317008571393
36.0801056468207264	10.0727148795653729	2.6065200162030555
40.1677445814009459	7.2071071039264236	1.6141937401793152
38.0968921864559036	10.2825161354611314	3.5042953968332267
42.1262655250895008	9.8187968363307334	2.6317741444927623
38.7837958686151723	8.4223917884196950	2.6126185162841229
39.1146660211042558	11.1386558181393500	4.8101030144281260
5.0169959239847479	18.8629127111264800	35.2046434265733623
6.7735068334440758	31.0218819777462755	1.5944949413772600
11.5181003786593710	35.8110564998206513	2.3237780376158974
9.3727713778523754	34.3094033908867146	3.6368387580023120
12.8589548745172007	17.9490980809495078	31.7162573704440085
10.2727785019831757	22.1160869255820707	35.9028730858058864
12.9241094205140001	17.8108961392890706	33.9808074642387297
14.8136594135211048	18.3619979895853476	36.5792806161975506
13.4788289694418850	22.4637577724629374	35.3770526152587337
16.5036912220372578	20.2592689145277873	34.3492505134578394
18.5897693837248603	23.6289870954911052	37.3407704499197024
23.3754097876938687	34.7406576543482615	38.1764856217491868
22.1592907153342260	33.3320813108986513	38.7311946884390395
7.9291044396435941	32.4852203497237966	6.3160451182776116
5.7999605135247929	34.4795756816961116	3.1347047056002504
12.5571801805595946	21.8713070609456999	30.5944461145638442
9.7895370744393624	24.2785644754871974	32.1458009970141418
7.7603823496049840	22.3418986607379608	32.7246444232649196
9.9412266735424062	20.1129846389057789	33.1787374548673100
8.0763839151428538	20.0549630512270127	32.5499290479562902
8.6118522755608282	21.3408547254633518	33.9779317310765308
8.4340521357127667	19.2016897133050506	34.1714297189166132
6.8363312412259107	24.7866050187148836	34.8200536490086279
9.6478814229397507	23.1192484224605721	33.9228521806773600
11.1717809151986280	22.9837189599034453	30.9645280520653507
8.6358777793260302	21.4198443675239361	36.9626452863765707
17.1971666237683785	30.5361544616224911	3.3519819439540357
31.5348586746625443	13.6890138663607281	36.2471848386807523
31.6716694126733032	13.1939306432763264	34.1340226714515609
34.4528869246322671	16.5247656859373571	33.3736948935256308
33.9741010754550814	16.5622662450607727	35.6711483890105612
30.3588515058503781	12.6766941840668785	32.4130543621623843
31.9557703017958019	15.6716733391099723	36.5817720902269627
37.0386549051499259	12.0301919535309256	34.8600017129500586
34.5497259713629390	16.9380623436615423	31.1931469891476461
30.0808748686997944	32.1009345272549851	42.5917896931770272
13.2234014072778034	31.1355071110106536	0.6154487105920847
12.1319977950665638	31.7700060343992661	3.8833003646771433
32.7557194652340868	15.3820175033994939	32.7209514980100664
14.9773704212785006	31.9435957209350931	42.4363288960364216
15.2807964687604763	35.3732149308902208	0.1596712560833892
17.0961742067433313	36.7217279224928035	1.8725697462693787
13.7530216382087360	31.6295308363352561	2.6385363335292129
16.9260365070719949	35.0388969650424045	42.4465918830030873
17.6176189366271494	32.6178381474168333	2.5215831402790383
37.9895437804437677	13.0756114319445125	36.0446187168375616
37.3195923023854661	16.1903045931758705	36.6173283088746047
39.8526408137241148	15.4562744802073677	34.8185662090516601
39.8539671443357406	17.5361163301724368	36.0334153584846177
42.0190959644876187	19.6182358791555558	32.3142157395788772
23.0567432555018215	3.8658567101597194	3.7986707378524476
29.4379046504861002	14.5210760225000310	31.4761194264922963
32.9903305683521921	31.2715000733061181	37.6445545246898376
31.0313891145036003	36.9948772430286681	38.8706156329231405
19.4594551024572269	1.0986484593843453	3.6555599438808350
20.3783344563267086	1.3754939430785629	0.0009982268987727
33.7406544120979959	15.9970551232868452	37.3724283295978026
34.8559060698107004	17.6689039067587856	37.4961416907352145
35.2640772630781854	18.2540497690938537	32.3590064591199749
23.1196409182149090	3.3585087337421853	7.6199093882055644
22.9055835419997109	2.0783347218863240	5.1507281763332093
21.3049208453304892	2.7549763730509893	0.7732658777126080
38.6485602635041161	17.7807834618677312	31.7622845356179333
21.7542049819073355	0.6676157562014842	5.0596349134115224
21.0261585227035148	1.0875912607647724	1.9618618569174711
19.1007288854668289	6.5592745137085915	3.2121359054685668
26.1189139860560537	33.5220856986517930	42.0734891030304965
26.5752031330766272	36.4574010718002341	40.2888500771942475
26.7326677685747676	33.2058794589577175	36.3429318460188426
33.2453170826459328	13.1018129494458258	34.9760772786142482
30.2257167770060065	18.9954418323299556	36.2204534130258438
34.0889571598350614	15.0168890226005338	34.3559694758905607
30.1080918555019998	18.1993681140217767	32.6419404284732764
30.8918687957443403	14.6356652747559810	32.6249149425691272
0.9848614251636585	21.9611936379197097	31.7638743102259014
2.7391397211455999	23.0088310569134151	34.9866429588739436
1.6117801162893073	24.8887351478685659	34.0723353782896154
3.7266716353027376	23.0395254553733047	36.6527468604258289
18.5590483773716670	0.4308108650247186	2.0199275476733431
23.3237378476434500	4.1572666542213188	5.5686205039851853
19.7654478701117853	5.6903017328626078	4.6091854740675169
5.8882698237385718	21.4907881946007890	32.7719899047394634
42.7213393756144129	22.7025859913044528	35.5224112751316810
0.0033115236920766	22.3645149679467607	33.7444249770876468
0.3161807529573814	21.3948528535982128	37.0949005545399046
2.5532093603229056	23.5513375690511921	33.2622402322556781
6.0019671244679182	23.2144193643310821	33.3420036710083991
2.5668309677273613	19.2729456679829774	36.7120349829420647
19.7549176678291012	42.8513829313610657	5.1240679121606290
9.4019260340646262	34.8679427281488898	5.8625984862167382
10.0752419834140863	32.2013924752024820	3.3387964109845334
6.4975577243749623	33.7113578846855191	5.0489102352280000
11.3203349211752720	32.0076396900454938	1.8104031479800538
11.3238541177645704	33.4836431963471952	2.9424148209275622
10.7834559234533884	33.8249355727509098	4.6924760052833241
11.5472733283713342	34.3291593034644862	1.3011395369639316
7.6457286279796577	35.4790031778479502	2.7814462877985164
11.7943138162081258	36.5298023596709811	4.4129956481282839
29.1593434824127122	35.6541327224084341	40.8886003425860025
38.7282810622722167	17.2890981780922743	34.0459970601319526
41.2519030704646070	13.6354076323980369	35.2993203092709322
42.9233853218758199	12.8594428390851849	35.4616790589659487
37.3287664192397628	18.1810544886656302	33.3211342657374630
41.9513223270842346	16.9813676307812393	35.2500785217535508
41.5931531010196167	11.7380674883026099	36.5998211176601700
14.2397094984253645	29.7678233291200662	2.0444615317986425
13.6748236979337197	31.8067998147655366	4.8601353890071719
17.4205568012207088	34.7197946637768240	2.3893675111319994
12.4518059942275254	34.7810140638660457	3.5243687323245823
16.8298167881834289	33.6905205659971827	0.7775223338129303
9.3060799105783687	32.1311466451858934	1.3748282650067132
27.1899275714169057	31.0697188084617792	38.8419293212090508
27.5246727469642245	34.6174197873427900	41.3103685275354451
24.2766761791861185	5.2344225951689198	3.8888140953393351
19.4463110010780298	2.0264940735607007	1.6789303534586555
19.6033071280508580	1.9077202676068632	5.7888592159945977
21.9245574268847676	4.8884430634216463	0.9841009646870211
15.2924196588787371	34.6709346603252300	37.2011549869290263
0.3574606516094027	20.6988720859269968	35.1659121077707937
1.0519838458386050	25.2113872499943490	32.3827616484524654
4.3607045187176885	22.4584159514627153	34.3296475689135647
3.0171366399238524	29.6872718571117318	31.8499111212989376
27.0989510913233573	29.3838757820324368	7.7383776094258119
28.3691704298287277	30.1805244821377201	40.6810791301806631
34.3647386618761033	3.1527049017033555	2.5505697202654960
42.5439756249409911	28.1465172859671711	32.0641376471079980
0.5233587503035099	28.9761690297631631	33.5560326964676534
9.9036080817829397	36.2514969222884886	41.5398349625479995
5.2638674598410260	27.8280982817484492	35.7595596384761265
0.1999563173194036	27.8816907396100504	35.3503569561824378
26.5547279578208340	24.2658304012861201	0.8139026439326982
3.7350991310687558	30.4326532553828777	33.8465860251467276
4.1377717569022767	29.5074797883981752	35.7201547789177383
10.9191212447406727	31.3504901011097452	0.0959682538218442
6.4327889458693894	32.5912937315841162	41.7291740185793714
7.4796973510549982	30.6498227872086204	39.5504353757210936
10.4534256252989888	33.4043836114236470	42.4409946140509291
10.5919300966400627	36.0679834883546491	0.2435379939360723
11.7094962507360449	35.0122323380799543	37.2583306629863813
27.3082074111291497	28.9532762720204175	2.9633700822422533
27.6713624389292221	25.6788184830816455	2.2622404300547028
24.2193305305511295	27.6389345930352697	1.0595370601123293
8.0838971759247524	25.8995668129275671	32.0972251865067832
9.0288539006833695	29.9275298247213044	33.8872163074927357
13.5975817751328485	28.8731351068573545	30.7987190207557973
9.0278966775253462	27.6321771197991204	36.3095922375412457
7.0879248946399089	26.3665880620327933	36.2318226234471794
5.9149173827437513	29.3241888393173475	34.5868366829466964
8.2218456934476087	27.9574066505630512	32.9930037045621916
10.1553398866876403	25.1127606107505557	33.9877462244726516
11.0005745154635939	30.2127558928988122	32.9291313382753543
5.5308075511447639	26.7244664684530449	37.2457011735495982
8.4743752897724391	26.1419763624998005	35.0329158239114804
7.9025693597433699	29.8717752901184426	35.5477774349637556
27.4790745823148725	1.1105213565737300	4.1707101146268171
30.7906726939385926	30.2631708815640366	0.7297494665179514
24.1707467607650521	0.2135001287754633	42.7892712394988450
33.1771342465574008	27.7730364514517341	4.1567963848444593
30.9511737655179324	28.0625151298127804	0.9742736761244313
32.9950274750049601	26.3603492347642892	3.0278685637997462
34.8931087573855265	26.7570015095797693	3.6254716705764642
35.3870621060144046	28.4361307440743722	5.1521369035969293
27.3880824487525700	8.4096442704727821	1.2721585052469626
33.2914640640476946	24.8715062051249163	6.5819106837058241
36.2400455909611239	21.7138417144787645	34.8904823245787270
36.8329864837863568	20.9866346598312710	36.8401387026322098
38.4373391468924765	22.6087579635100901	33.7798479975073462
38.1204518155500409	21.6095008353546838	35.2801212683517846
27.5594932402539960	4.0681133518046808	0.1926363313750199
40.9551508674458802	24.7976714569029788	32.3024592528038426
39.8741943273672774	22.9116966707445684	32.0723440625247420
7.4572869258776411	28.1034628223134746	35.4981089111244685
33.6977445295951270	26.5417028043111287	5.4086231626873298
32.0735058831373649	28.1585777619791955	5.7971415871216312
33.6467755564399695	29.8453508524348656	1.8803717077871922
36.4652864105176917	27.1739633418171671	1.9423651413055167
31.6995705795023071	26.0860551548791406	1.3952485932322594
33.5334965978305419	29.5639826128652103	5.9583707472459295
36.4250408449810479	27.9753490546167924	3.7187125452640792
27.9397480967398977	2.1455465694612390	42.1715897781652700
26.5334060737691857	5.3326802385595036	3.6163487603352085
4.4737778726676201	28.8446781459963368	33.1197711962265799
3.7481662894615040	28.0926631677590102	37.1770589382464038
0.6855418583091852	26.9313359088682880	33.5491528310203222
10.8869197262915662	31.4308075113448453	38.4405215787290757
11.3096126157362242	33.2008270326995358	37.1368071365336974
6.3260460793876918	32.4383466355585171	39.6040268880803268
1.8341830119308027	30.7346887702889653	0.4627762850668126
23.3088652705605277	30.1252537331134143	36.9237299402004027
20.3169447192960568	29.0211906845220433	34.8925037427186240
19.2449519052821536	29.9571133857831704	36.3325635115606573
23.6890204976348109	24.6952180404446757	37.8629551357250023
23.9030428546839424	25.9807419808337166	30.8791548265506997
21.6997496208621996	30.4359220193856501	36.0060480825322173
22.2302066055488297	27.7605630190655717	2.2662518322104912
20.2980425804389597	26.0989835984250931	4.0401411823229321
24.9675638383596912	29.5412621862378835	33.3645518395629921
1.1341677666714094	34.5693651832785136	37.5451811538510540
3.3325263721423384	32.0245219107600576	41.2289184877013923
1.2490083834159496	31.0145615533584333	36.4286526446674586
0.2401782736567234	36.5418808823642607	37.9324169209706383
3.4228398929623287	32.7344796762269894	39.5547031371870190
2.3284193743701924	33.5424676533254811	41.4870478733444230
5.0756108330806970	33.6032099497608954	38.3739084838826940
4.3348774392304525	33.0813794414695010	42.5784221856533733
18.6963450460158604	28.1776980735904345	35.3100235766857367
18.4845440870958271	25.4877476716570044	31.4042591618000380
20.5800190820560651	27.3048088524411234	36.0504765816354791
24.3876584719073435	27.7530443334483508	33.2306931665471055
23.6562141726873243	25.8641221360752915	34.1502096017720476
21.9083795823406504	29.3752310518940511	34.0807969947379377
19.5362823895588491	28.6996344525780032	42.2444086458477770
18.7356773925016391	29.0374271058863407	2.7944186262223316
18.9224508862220304	27.5598232877684914	0.6886557586095020
18.8460827337827155	24.7836386436037053	6.0671440151383154
20.8104087761188481	30.0034493732277312	0.0737637208585546
18.1698428659300113	25.7769912180427845	4.1781494852591878
20.5954768792649752	28.4694040574432421	3.4691913546288586
22.1734785489465089	28.4877107509030054	4.3460950549116619
4.6922832046670235	35.8672863441752412	38.2103996227844505
42.6517783947139009	35.8988397970010169	42.8207923626930622
23.9181290565022735	25.2905988633058882	6.2592442924110303
28.5990422739628620	27.4299200208235412	5.5819560046016203
25.0965368522391969	24.8262736331167169	42.9126018705012484
3.3629769670090357	34.2779543782931100	38.1795052913548290
4.4415377076467548	37.9579347329998669	37.1630782475730825
0.9540605186196432	32.5152923457116998	42.4892055076935975
0.1225186372988089	34.0952924831137238	41.8193576432211884
5.4581933907421005	31.7065153680840766	37.6058519434441578
26.9553588316131894	27.0025253450795475	3.2776422887191892
1.4622677272826925	35.8334902121586723	42.7067600974185737
36.2247940934107149	3.1262351260381083	3.4906964870877650
30.0522276220509035	28.8992668836466393	5.4895772782435284
26.8507356074850492	28.3945288279287311	41.2185198062017335
26.8800901847458888	32.7155918246431980	0.7763892998901791
13.6085051406994815	25.4991114211106691	30.9740733896692291
8.8165748550046033	25.2364410792257274	30.5932069229380943
37.0402232986326894	20.2963998442277074	31.3265200253051006
26.5560969469522554	30.8511107405998146	2.1662391730801436
26.1429119221830533	28.5661441802883900	4.6097534048548443
25.7552895671206521	26.2148876988866242	1.5387718652359017
24.5291134024452369	29.5297405063361111	5.9309359912370727
28.5849747693870668	25.7017490023937683	4.1949477722699156
28.1363442454428636	25.3737725749693439	42.6762759935522524
16.0844228943942866	30.2640553140927295	33.8608081482317900
16.8532933881588782	28.9105622399950377	35.5086933707988024
14.5067358825212693	30.1697495624677856	32.5657720443721388
13.7227563906452357	27.5924267008896216	35.5365605645995046
18.3395125467491553	30.1618982808905542	31.4762764056648869
15.1872342895325847	25.4264247168918800	34.4801900100182053
13.9038461987839490	29.8365989701180254	34.6882911076756670
16.7642957942076727	26.8996926525102360	35.2970894775851818
30.3402621192773871	26.0378328486719752	0.1581248685657654
18.2071617977755338	23.9838233346504168	33.2195349816382333
18.9326623900843529	21.7377870028120235	36.9717887952745627
21.4288726834492174	18.7182311614703139	31.2989380162303057
21.4292350242228018	23.2325274716102186	33.9804831546878461
19.4221735638326116	20.5316664334135410	35.4557770250729192
19.7582211288946006	22.5192468344538668	30.9418615250923210
23.2567990596274221	22.7972503220716263	32.9251485269579902
20.5126236256107433	22.1321331508630124	35.4792588492898346
24.6811359755440130	23.0746161282213222	37.7391790844282227
22.4770776512893775	22.1202115271712358	36.1124436880975210
23.0780748670387084	23.7574180045424797	34.8582598720123897
18.6606427889222353	22.7142210022423292	35.2012811279536919
0.7731795203387444	34.1238501590832684	0.4756810591556682
4.6367405668055959	33.2485207749808040	1.6144840809116423
42.8476962883237036	35.7821248136727874	6.0511152223904894
3.7265352021594964	31.4664865624557741	5.1806067949847874
2.3986348930285724	34.7266757267183621	1.2357460067364485
1.2343361866419365	32.2001443452563407	1.5007248544997853
21.9934334339099919	19.3655178309540368	32.8846270555814399
21.3914646057869504	23.7965299741211176	35.9641498981539627
21.9270630581319388	21.9653273155875866	31.4954331810855557
24.2060443040235569	22.2232643750233692	31.4625125178512413
3.1714084435843137	36.3455169593874885	0.8553720138176079
0.7971971901757412	33.9352564785235202	2.3350550751414985
27.8911620093438515	2.6425182191014849	1.2099440076466681
23.7714243009546458	0.0310868876707577	4.9460675031714265
26.1550175720301326	2.8383842533915935	42.9309658849635341
26.0585467918729954	5.1321425803197176	0.1325621393960319
12.6789678201842122	33.6943858706098709	38.7955433012697171
11.7654775753253702	36.7904062943501273	41.0472089797704953
15.2549160173974574	32.6573667373263348	40.3782899710701244
16.9965156209683670	32.6359475012187019	42.0633517924230134
11.7161637123683153	34.9813561368843011	41.7566959044412513
20.1082943853547604	31.1053450247550778	41.1949044676620773
29.4556050384625543	4.2914226960828250	1.1509686488488482
30.0455558220121937	2.8648781401254051	42.7720319136804363
26.8359593851692075	0.0696529994908460	2.3388320473882080
24.3647198298923371	34.0304769254281823	42.3046382631669999
18.2446377844752519	32.0689680814400049	40.8229569659608345
18.3434705155755431	35.6393677660249821	40.8936445483268542
23.3206408310489479	34.2029810219582160	40.1888557080464111
22.1688990203539085	31.6875609515289796	37.2390094532068545
28.0601171274926671	3.4666784192009006	7.5621855304884376
15.9825306222466104	22.4029130995607986	32.4406895988351920
14.2079029652600930	17.3049806100343986	32.7598961612551136
11.5689479515084113	23.0254044312213608	34.9576160641215310
18.7324091922522662	18.0603182923164347	30.9663140121304004
16.0586107184326181	20.4005438162140109	31.2144622844830586
14.6055700629259118	24.1993808088321103	32.6759630436153827
17.6466276803299671	22.2811896586968814	31.4689827442445385
13.4826748930657523	35.3896711596284987	38.1290934808787512
14.6676265087707396	23.4744778275543275	36.3393305561906601
15.2749324070041563	23.5005093114000765	34.2665900516528907
12.2755068824111042	22.6520553383800980	36.8779497333519473
13.5697877823872393	24.1280537418801586	34.5756718810809147
11.5109272537665088	21.5931954175239227	32.5502747603326767
26.1671005588528374	3.3371051096156963	1.6810860711706257
26.9372433365891872	7.5972784905487298	3.2106717746592626
27.8931517402758757	4.3769214341629796	2.1306091751359184
23.2490776181886822	1.0006652979742052	1.2468411305351952
5.1902714330840150	35.3121945587126760	5.5045759032224089
2.6852199124682592	32.8557480283513286	0.3561511905559463
26.1047515024201466	1.7697081842702109	2.9802377607254487
29.8819801093174888	0.1077120430495927	2.8263521550929283
1.4366086686095287	35.7156893476552284	4.7897205787949115
6.1624484913312134	32.7183106868629778	3.0295352312111632
32.0309719550815473	22.8414489310782791	33.9491910624585458
33.7669093110737109	23.1437404789918162	33.1514201963271873
35.5266544823510984	23.3321477637786074	36.2550527647521292
31.4968847805927474	20.8269666640368918	33.9515636772375018
31.8364613360576207	19.6639955443716588	32.1336285766097660
33.7905875140659120	18.5293046495190552	30.5375213938046208
34.3769350472490345	24.0809035004488088	37.4669674915339002
31.0127927210585241	21.0269676705264530	30.9900234973431772
32.9481749574454739	21.4530612292850229	32.9639782776316821
42.9771958148217124	25.8694567680446035	0.6341405893437042
35.7155862778064517	23.5753173179440942	34.2580386124353140
31.9044745552103635	22.7390853997771352	31.8900477258464754
35.2121155885931998	22.0139679679789886	32.9745473114599577
37.2410797695249514	19.7818507782863584	35.4741476235112430
31.2340835075641508	24.1430675022235874	35.5178625163618094
40.5991610140783195	29.9101174930861227	5.1419359284535862
37.5336445719935341	29.3077272533211612	4.8577769269129165
42.2033888007107052	28.9476001951335142	0.8274735816778763
37.0157379303063365	28.7857841193640311	1.1653892188259214
18.3015736179646105	32.7023049436296560	37.9081218156907482
17.4979160582669202	36.4641980637455703	37.8909209264962215
18.3058208721711431	33.9445662070366510	41.9086638389861719
16.7402699242511019	30.8127952780003795	42.1306316385100530
11.6920556297429155	36.8183705731136257	37.6243586918539847
17.5519621521339744	34.4311312042944380	37.8396076469340130
25.1319959855156405	3.7637234541824651	3.3261467152061819
28.2287471904285070	5.8722964959923676	0.6836401541255869
27.0721078698645634	3.2540236346255509	3.3453973084947402
25.3612516450320022	1.3466908419631465	1.2073535543233944
37.2789382353905978	23.4637067932953833	35.2526814839956231
42.0169632083571116	24.2349082505028264	33.9390413686311092
38.6288824069471843	21.5900478132749640	32.0563894075186084
37.1272636593737388	21.1184524295236038	33.2540053147998194
11.8801090431950360	32.6641480549523138	41.6286275238991834
17.2871073499499452	33.8760799558408650	40.2966548747573228
13.9917101383884610	32.0170371542908470	38.5888855689186130
9.3988291517482736	20.1829000854939089	35.4048265010801160
25.6138424766152433	20.8025345905882695	34.7181881615927210
29.6280041178769906	20.8946614323556652	35.4321325182487499
25.4634073393309990	24.4556320570539114	31.4982554927521505
29.6451915154726748	23.2575266960290854	32.0271878190053627
14.5781306402605804	33.7748037738214038	38.7696548321032495
15.3311196904644476	36.7601449422860256	41.9414102477374939
16.4531593608849924	33.2786192729334047	38.8048041721536379
13.5207386776223526	31.6208953752292459	41.4423329283026689
16.2508625677058198	33.1429813246745937	36.9817033245064763
18.7333434290799232	34.2028904717699405	39.2135470409807851
13.3750471257003340	33.7256131914415676	37.1533263033963408
11.7191681799922591	30.8308723822906749	40.5892417943419730
13.6914524891698814	36.0471475579158565	41.5037655124139917
17.5477275515689044	22.2099931968425750	33.6523923605990873
25.1409190104674956	22.5121547588685296	33.6245456889502563
28.6861719184654937	21.1786530919071048	31.9792199042937284
27.0782252461837274	19.9733823629750873	33.1790545408973117
27.4386441081382060	20.2174362816440940	35.1601206782676954
37.1094145795022214	27.4247130724655115	42.6662302438994203
40.8048017231796294	26.4596815152551770	3.1879303075291165
40.2228981958125331	25.1270344139773343	6.6332774931250826
42.7140970404788973	27.5549353610810535	2.0761054388964708
40.2660655822176494	28.1642444173824273	2.1905916374920880
41.1577039541287988	26.9354501536112316	1.0228041394607381
41.6495615165150497	25.8355325600628269	4.9344390502185824
38.9467950545204218	30.6808303503379456	4.9789986479945814
39.5879922023437345	29.0738188099080936	3.9036815720785638
39.2705237940675644	24.6958530936126195	2.9947255083700846
38.1511291746696131	28.4663005150922608	2.9492293939298651
38.5346730527281807	0.1264140936342756	33.6937654235994586
11.8106180031099566	38.1401925541891984	5.7678826045628799
9.9568798974759503	40.2879937243163795	4.4226758546948766
23.1050544119844439	35.4912324505405721	41.4892125183160019
24.9039501694003427	40.3013318031859029	36.7032081947998208
24.2066751957639354	41.4702110977199538	38.3160566617925582
23.8061265847438470	39.0040817335901764	41.3827381468117963
39.8877182044022760	6.2086724540801468	33.8488578391207469
42.0804758671425745	42.9788691836302945	34.3993079915015372
6.4864404151748118	39.7332030200600101	4.9027067925876198
39.2890806765926968	1.6749281407620797	32.1921634590834955
38.7987445789470016	42.9655599012059284	31.8874060738631648
37.1688297414913222	3.3335315410270199	35.6477058604854733
41.9590243462045720	2.9463065099694545	35.3168147971640067
42.4275305456358538	3.7812541928875127	31.8703172603253506
40.7733029416672963	2.7505318133710230	32.0637845917334872
40.7468571214399446	4.6223465353484405	34.2148730265992569
40.0765019995596035	1.1308587548526978	33.7511902561377255
6.4664081035856196	42.6787529662837457	1.0836727027861053
3.0635546083102621	8.1115475083926576	30.5753932562979998
6.5654372241104690	10.3632426416200261	31.6875847642876778
1.0032666351927810	6.7270693727731912	33.8708996432064779
0.3957140494277777	10.2406715645610706	33.6587820243467846
2.5921714821786312	6.9613202814905097	32.3123608475686765
4.2901177495842502	8.1614987559652974	32.2437059622099937
9.3575670631166243	37.9006221697148362	1.1643236484287083
8.3606838315810368	39.5665617361634858	1.7709400120568104
38.7860879226798829	4.8068930365294529	35.0157613614980363
6.5492707482410966	39.2499372834010032	3.1074454041858175
11.9750936504758823	41.4270706663141937	5.0638492266194310
6.7356162109588817	41.3317088567364408	3.3884688001210828
8.9128001203526281	41.1809890655863242	0.0400928535333054
8.4703927998146558	40.7582900732424918	5.8186655966459018
8.1247470259963990	40.0114450198605454	4.1715998619880468
9.7574813342868225	38.4063087978732440	5.4425685991935655
9.5952148484881334	38.8907897605987145	3.2736799932043708
13.2729663925176258	39.8411451993911356	5.4677490376483826
37.4014697535990166	5.4474687444869616	35.9747067199315964
35.6087289363292925	0.0660156678803275	31.7985500027222017
35.5791225023131972	4.7877021528110930	35.8939509893919393
33.3409797970422943	2.5665648523639804	32.3792712961208551
31.4380303915385042	4.7577194790551287	32.9989024584577777
32.1169927338336905	5.6432779063084269	34.9668276453872551
15.4303179039593878	37.7795505192562047	0.7049160763039516
19.0655856955542014	41.1310582029406930	4.1274258140196372
38.0043986960341371	1.4599716856944747	34.8209781522692978
13.8163570809809730	41.2039690007306447	4.0752706540345924
15.5078818420572624	39.6584092965436454	4.2719470025999700
15.6051385880896571	38.0508509053825819	5.8053912924373794
26.3916492828490128	39.8280644170399256	41.7012763766896200
26.3207236274746919	39.1108564376271275	37.6632841557988627
25.8381118698793166	42.1153546823536331	41.6446290726704547
28.1231603117792979	40.8619873825085378	37.4861610665033425
27.4901712479746401	38.9295525413688992	40.5404886915358915
25.7078056263427506	35.5638442647636381	41.6119767230813409
2.8291467231302359	2.6345292422483571	3.5660446065073041
1.1800039454553855	2.0431102183666514	2.9519048966130121
1.4153841920483379	5.8437602053388948	3.3082712048196741
0.5471491256211799	1.1210556525270321	6.2531014612533502
2.1225243295177627	5.2272477796974748	5.1885104919834317
30.3533698116300421	37.3182355978002818	41.5384400279723565
29.1280719224942750	37.8321554398579849	40.2499918968157147
27.5642126715467981	37.8286224193077913	38.7574132687547674
4.1141279922053107	7.2554617932754217	36.1576599797360387
30.2604423736686918	40.9638398602279921	38.1656132916503807
13.5043843222724451	37.7552506745594698	5.1118720371928719
12.8643768249053689	0.0292790805651748	4.0465921784549881
36.7998095755304462	0.2336521101143313	33.1442267724442985
30.7046498046004395	4.5779096047588492	36.0261336174529561
31.3338317538879849	2.6788576248219838	32.3814392297365998
35.3697378241079505	1.8311477642144265	33.1521944598979346
4.8166524113814821	37.4624156129906538	1.6567892493971512
14.9605551799125021	7.2463523655629585	36.5753392918452604
15.3060691485454452	11.0153828103844180	35.3355098924191964
16.5535266128221856	7.7759064505545386	35.9300635505718589
13.5161388431571705	6.6353577837991642	35.2242253440070456
14.9363578284676191	8.9617695541629985	32.3748703642537592
17.5297463777347851	10.9817392473135307	29.1864412503860713
13.2250945578950265	0.0757936630726190	40.4373183597318331
16.6296165666843763	39.0249081648352529	40.1873715063186339
16.6879402688888447	11.2916995364539439	36.4835722424314142
3.0848632165090675	40.4802427280891948	1.0505783434087317
14.9182631801435566	39.6967169635540671	40.2302071020264336
5.1612112154894474	41.2690516564255887	1.8107341983753742
1.5473915738860797	42.3767631260660309	5.0455117861462773
42.8268850011308615	37.8203918567435906	4.9812712211646915
4.1265163015579409	39.6151153274608987	2.3016314368097750
2.1475593329485649	35.7035341023643866	2.7802707384954934
4.8634926580001245	38.8324157268874899	4.1588990325089448
14.5413635046702971	12.3514678801854387	33.8634409549794739
17.1004737661100279	36.8683791474591658	0.0872332821221014
15.2116703872357473	40.8706233175478886	42.1349218774551559
14.3944219071365982	40.7396197647042442	37.9114397899600490
15.3129650530245272	38.8160848686188089	41.8151091129502817
15.4391467088694814	42.4064553656857086	37.8146585456109747
14.1131905284855268	10.3606251331588251	33.6859387402743025
15.2489733150269675	10.0549982192360012	37.4701688922887470
17.3035372854115472	12.3383340938031001	32.7536219294288600
4.7658253095190410	42.7873495991479516	0.3699680031630299
12.8435028393065096	8.0477207710740863	36.4505830902896051
17.5604149263861800	5.4583314423002403	31.3775359025089600
14.5219794643257405	10.5993042913078472	31.7360168791362831
16.4731668088285055	10.7178403845630719	32.4819383798810222
14.0828530650304327	7.2179473161778116	31.3170814507614530
18.5319101497976106	8.1552319310725636	34.9034087691405830
18.5796684910263252	10.7518590350384162	31.1287765637497813
18.0806472314940692	8.6146308691003632	30.9511913115750978
21.9816590621941472	40.0962123460975590	42.2899961224026413
0.5925219941889677	38.8841277493079360	3.6976964869660232
3.3712097538263972	38.4290886959038289	1.0841409313319508
6.1986794688258273	37.7160533117054797	4.8131636208597905
18.5804487900247608	39.0463970094173263	41.1695547037209053
24.3802049917793369	39.4232335211916407	38.3430882887652871
23.0351616584567935	37.3338505629777657	42.5808509280922678
21.9585454832062688	35.3098496610253392	39.4182712811112808
19.0908917253504598	0.0745106386101041	39.3160016080172170
9.1284203498468361	8.3175392138487201	34.0096969376416496
17.9800099753281764	37.5530315868829305	39.8699621362501517
3.5217624958360543	11.2899945524664300	34.6321574256632800
42.0169073963666193	11.1021669702047969	32.3120760718427107
2.5897047036432692	10.3283447803195028	33.4465110055399961
4.3609342764567849	6.3740184609240140	32.3057286834223092
4.5310423225187426	10.7366922888895626	32.6802160494355363
3.2049127442274714	7.1058399810414770	34.0342630551255141
2.6118980982325986	9.5469981006748750	35.4674305965377528
22.6213220951012381	41.7696943614753948	35.4918728851918885
1.7876323619739811	39.2491699710423703	2.0151605330723417
4.3828347588948979	36.9548360788947434	5.4518275398407390
5.2612616237686005	42.8519319369776213	2.6565606835161062
10.0226631308186924	9.7548144086070963	33.2699669715589579
8.1127225534406460	6.7483515824482510	32.5808570067492980
10.0392980357811954	12.3441142977393135	36.4804402010760427
7.7737452266063851	8.6306411796165303	32.6705934137173912
24.8427696682335721	37.5288090432682182	41.1896829769646970
25.5521486935615911	39.1354296504846033	39.8772749364309078
24.7840516545571283	38.2041938849877312	36.7649750313311827
8.5109256314135227	4.5584018146252205	34.4078950888392399
9.8748845884129306	11.9080855789557063	32.2678484339180898
8.4831255418608684	10.3079005962689028	32.5409629134661671
11.9249333914049878	13.2408039224069611	35.9798217200669228
11.1597089342190703	8.4496251389457857	34.8115956219524847
8.0957010011657466	6.8544476068964233	34.5807647777775458
5.8254307719966363	5.0005689417558354	32.3752129929457624
7.2201467369004497	1.0670311414443614	33.3497513059900044
10.9124174537331093	1.3948132897317620	35.6369460071455535
5.8205336772770710	2.6029288075476242	32.5999667558856672
7.3388083852926735	5.7118918866408501	30.9835306521483425
6.2868612936775135	7.2693353341152820	31.7226086610190023
9.8947539890349354	2.8615154821850735	35.1402873545092902
7.6222864857207719	4.7374554812586984	32.6259861701238307
9.0481351300472479	5.0517527103140383	31.3638402615531007
30.4541450961725602	39.8934583312172322	4.4338943102753312
11.3395107242453328	1.5758568775991755	33.7604537024927254
7.8596978965937643	2.7714343575199050	33.4159268964014728
12.3909392769933167	5.8474917674104319	36.7328999405479166
7.6709426841273185	42.5442261263681303	36.9011534398204120
13.5319641488930582	4.8558096869591880	34.9486438104873329
9.7079998800231841	42.2052396533436465	32.8047721966262813
9.5193004610454945	3.7900598840509039	33.1358712225263616
8.8902719778234918	0.6543355781414794	33.9438534135599426
15.7688496053196108	6.9207489142883212	31.9577197553395322
16.0764814463967411	2.3536975280616348	33.5029645236590454
15.0650262459953463	3.5442164627236763	34.4842251384196103
12.9118897503482515	1.0076684304708885	32.0308018238552421
15.0062999643581172	0.5728278313574898	32.6287049798025350
13.3332828684873661	2.7346884497531878	35.0899055622869156
17.2163634335189712	3.2763039990603202	34.6333626721673866
12.9802393424665983	4.5900319243218997	30.3630687511116903
14.0708023586834123	2.1219112957675255	33.3516896529755513
12.9991388748015719	0.7458670520868258	33.9468928416907474
31.7262744299183517	39.1048014282158576	38.4047926508239570
36.8922270184639203	40.4507140460791703	36.6306156944664068
36.2769955244652920	40.5191459489862353	0.2341889779294516
31.8990703131645930	40.9858434535033425	38.9617294389808606
35.3459957373857847	36.8777623391363178	39.8016795973303985
29.6641692229079794	38.1556168260551161	3.6176712175492161
30.8723866827727633	42.7157004950665140	1.3193910287789810
27.9332045331581789	38.2503291404280503	1.5808520257940994
0.8261002657985180	37.7930827347077312	0.3337579016755400
0.3020267648562463	4.7482265704896109	33.5333535060436034
3.6713692998965257	1.9605644010591035	32.0459191707885296
40.6242999531573972	35.9491287861032447	0.3928115245566505
40.2335226054528690	1.1290182368844126	41.5733414963154218
41.9927384395537331	38.5295204367723656	41.1982985202672793
40.2185686833374803	40.0396510713757721	41.4254907736512976
39.6758881192052257	37.0642799460630528	37.9105888995327192
38.0965646107947435	38.8224793168458788	37.6150704862062497
4.0213207552976336	5.6329819378805253	35.3467813348318600
36.3375407744424592	38.4614393512633868	41.0377058037535107
40.5476411358670816	41.2055792927471245	39.6761519000801357
39.6980397358026309	41.9673933396951284	41.4970281184508138
41.5994336874847477	37.3843283000045687	36.7198304329563783
38.4828699542613677	40.6852052224299285	37.5324013637992451
6.7766057939952269	5.5618838606290950	34.2808189961170839
0.5817604593494404	1.4515257045558976	35.1390505873450891
3.3095341835649905	0.1137002271073138	35.8561005137376512
30.0748050004766583	38.3193804561275329	6.0268122147309837
26.2129728494745855	36.2096808533830199	3.6450692106506160
23.8264808563186570	40.8346711194193688	5.5396964655695298
25.4604835192650008	37.9086342186821312	2.8897692837226843
31.2010011742697593	37.7869166051214336	0.4551215335068706
27.0506580893899766	36.4285356683352362	1.1328610805494013
27.4506439230668597	38.4209524571732999	42.8170764411826141
27.4558306386102693	37.9437233355164665	3.8867116225301275
28.1904416014211385	36.5184352119087734	3.0691466809765573
18.2142002384314061	2.9732891240448205	36.6169594061425911
28.6989561135965197	42.2645123415622379	1.2790220996506594
38.2775099284527229	39.1275949832831955	42.0535479237109655
0.5728662438792685	0.2072995171310565	33.3769528849063803
4.2202024771227196	1.8588101788987690	34.6808377169846622
3.9232057621658605	4.7643182812519376	33.3688965090124938
1.6804190940639849	0.7814141556734350	31.8563115592415933
42.9806892893387626	2.0264345705756250	31.5899392020883383
27.5919090523947155	5.1549372536792557	34.0879549934223363
28.5234446393626406	4.8551168644849181	36.1921197230860301
25.7233468659828581	5.7813222641237996	34.0775000991556070
29.8890928117460568	1.3864488800871280	31.2243220422501189
29.0407089496076942	0.8365800931812954	32.8272691757885724
24.4746127163029037	1.9394307020386687	36.4858991712441281
27.2264166059961461	4.6765370924973251	30.5649189319484016
31.5110324301377247	3.6572118610592472	34.4404817857027084
26.5810955741153272	1.5806234173511402	36.1403766112079339
27.5305345392357275	0.3715477308871825	34.3314031953427161
26.5037177483758271	3.0072853652527973	33.3566974450918394
28.1445932159381300	2.6609494587299136	36.5568053346520330
35.8488583903527456	42.1078041905870180	41.7418410393947994
33.3075471312437230	42.6292207983482143	38.9161418550641045
34.3982725479019038	38.3044397528222191	41.3344813692791035
32.3173105117851804	1.1113937864923698	37.6260865987953750
36.4280640930185413	38.1642891891448528	38.4706864818701817
32.4767222905566157	42.0512994857886397	40.7570454382385563
6.3926601802806946	6.1281413350803033	1.6236146925558170
26.4219515328391239	40.9346646174810473	40.2261079923153346
3.3628735203641402	1.0901185084602996	2.7136605600067925
1.9826343335499457	1.3719019023915160	5.1429185370098587
4.7321049042115995	1.5389336144592198	3.8482869908241981
5.6607441682384785	5.1120441411909168	5.2047310164910803
5.6627955129737968	3.5647487211188156	0.8112288413051690
0.5351867617439449	4.2680228307453723	2.6280542765480974
4.2857386088087202	4.1445482030591165	3.6285732005130580
35.0858749779839059	39.9391476648198562	41.9429285993208794
4.6037668193449939	2.7436983245746007	2.3062000988964027
24.7797803048597949	4.0529991817265500	33.6053477137889516
25.4056538773871559	3.2479202870828936	35.3944697310841931
2.6788510732568920	4.3781369715804521	2.4036432824393348
26.3439174380168595	5.1019004694506194	35.8906830876607614
26.5452836223806692	4.7145905263987959	32.6491974718316271
25.4456339177455533	3.7858221766031819	31.5696028833153086
25.8723948745680481	0.7136281791411468	33.4808536142299360
21.1157939996489574	41.6551040134012283	4.9192981951503914
20.2453387437255294	39.3145346233820874	4.7606474649960742
22.2336149700662880	42.5211655971318905	1.1299845407425397
20.9789291202716335	40.7740551751357572	1.1358867985717531
23.3327644805087466	37.3266011411446286	1.5277476094858045
19.8455165545280892	40.1358689490783505	42.8131087406316553
21.3699359790091954	37.5923390048990029	1.2882708425312968
20.4090194741149631	37.8335015284522953	2.8692979674044259
22.4594797251010512	40.2609445691866057	4.1615888778962216
18.9470733968142220	0.3092035625208482	41.6048699850248482
21.3046263742430284	41.4774210060758790	2.8474364055144701
21.0525602517441612	39.5775484269214175	3.0129404004661917
22.5301042083114638	38.3047717684240396	3.0340447330860218
19.1245336460104873	37.0545813767271071	1.2552236858300376
33.2868540249611087	38.8781621640602353	36.9827322708732282
31.4684165427129052	42.7821000735617147	39.1272492711683384
17.9209636741855434	3.6432878575053986	32.7303309866746588
14.2439189814439491	2.6603645317824891	30.6270269744870696
23.7921923156496256	5.0999781912205604	30.9957489073750700
30.1225574789409762	40.9866734829153287	34.3738435047023643
19.4239540910564195	40.6434710876996732	2.1093085851773203
19.9777606997396582	3.4040478042580293	33.8646821556700672
23.0569431109397094	0.7180198103919461	35.2771803812086873
21.8212838615797118	1.9257763723404044	34.1085814338446696
35.3062901834677803	0.2103151132791265	37.8196504939876590
32.8380142787452272	37.2583702402749637	38.8374695925091444
35.0819079799894098	38.9253757810587899	39.6885564258084642
16.3175945226887649	40.8950568099821723	38.9703550133096854
21.3062244513768988	42.8965324122677174	34.4873600959459807
24.8883430638221803	42.4731409440131387	32.2584890460181626
21.7615576666178363	3.6756979596405297	33.7045788105926789
19.6950240865113386	1.6799030044714871	30.3048905322790958
23.3071772121953913	3.3408261668407886	35.0039569969303699
23.2570582801375281	7.1255589028376614	31.7605698135663310
20.1840881162043608	41.9511857583189709	30.9470099345280580
13.6696260692838720	1.4611347472987077	2.8692223915817325
7.0994633286836297	14.5273231819741877	31.6376687493501727
10.0844541753852628	12.5928856665499485	34.4556461365435069
12.1844529546847014	15.8074586431431001	32.7395037146092776
8.8620540117707947	13.7355815041483194	35.9134673553561683
10.5279112127711709	16.2169035809485713	34.0161875115319816
8.5997554456917022	15.8590557332726849	33.9138079264520016
10.9243983076892679	17.6504664550397337	30.6221877563550890
12.4987163077504615	5.1766821688840254	2.2014183577754944
10.2647387758319049	13.4061289675780007	30.6167768484317335
15.7836696783585975	4.3193468451777184	2.9535276837421023
13.7572896040011337	3.7149059019561439	4.1242835040376287
13.2758746941291683	0.9326854949327958	42.3415791424380004
13.4617330502070995	1.8485619388905214	0.9220050076221218
15.1793936180806561	0.4208470095030436	5.5675848157663195
14.8484763832977329	0.0015858155287845	3.5959051099056345
17.9778693048836509	42.7944537568306274	3.9900938381569979
32.1578458228024004	24.7036029488152344	42.9119927205345135
26.2455592134544560	32.5724825013377455	2.5716474770007194
25.2993191414252365	34.5160201892690282	5.2398973266164841
25.1256478794057792	35.9894034953644351	1.8626673612498168
30.8212661256565497	33.7911853330636234	0.6703687875681689
29.8038602649025748	30.9875670483690300	5.1814496446260989
26.3398880071910639	32.1070226958030958	6.6019230160766238
25.6994871980017372	34.7664698535673082	0.4906453940527726
31.3684207890399769	35.0230342379713733	1.9055793947660884
31.0353465350266937	31.9377961224979430	6.5058415787091963
13.0288591828846894	13.6235766726923018	32.5884313266676102
25.8131652627730297	31.6689652335520258	4.3061718173407417
40.4302107882991137	32.5255330379008498	39.1228521199973969
37.9558925095802593	32.9676212001510436	42.7144027176424288
40.2535809765194728	34.8212995791751254	38.2482940961440008
14.2693848440413600	5.3268005822262889	3.0293153485755444
7.9357695813310958	14.3884705586616626	37.3148664631432396
10.0055880438836944	16.5474193894461372	32.1851040037447902
7.0940459467089276	18.1320176620306022	32.8673237809828365
2.7948465376492879	15.2812365800090504	37.4015188528298665
2.8901971861527662	16.2924341977344689	35.6304049937769349
1.5644975751220611	11.7508102227641054	34.3463789386680389
2.9652730286289959	18.8202275721366021	33.0332475940757320
1.8489817244441511	14.7023190834575974	34.9898077780209746
1.8807036385444875	12.1521292750916672	36.0743296888378993
42.8469815883225138	15.0145343125052886	35.0248621482611853
2.6222097096727306	15.8732223346583226	33.7684219290689569
7.2810006864893397	15.2037365412160597	35.6635912280279541
0.9427384837150902	18.5675287931439783	32.8713244694037172
6.2401442248656700	16.1602388353235256	32.3345250231555283
3.7930711506463006	14.6733181187005428	35.5780383998543712
3.8225653151208436	14.8235502644586408	29.3942319820531246
5.8896094048820951	14.2423897956416230	37.3158250340383972
37.1721644626924714	34.3050560642330282	1.4366149795924310
32.9110559659563080	37.5553973279387705	0.9857220305588008
36.0517780963000476	33.5101416124255564	2.8892980077704333
32.6938950391858043	35.0959874917126911	3.7733767838588306
0.8663470589273536	14.8670696019051309	36.8121841951999969
6.5632015028960584	18.1535126113282956	36.6005999844786416
9.2836165290220904	15.7652060620859178	35.8381364196051067
8.6454947844050576	12.6052373479695117	30.4650894454030414
8.1630020169427642	16.6206368638244371	32.0038570539822018
10.6391881682662870	16.0398027439855611	37.7184467536408619
6.9003345619907988	14.8161956639161332	33.7837816925216785
17.6907968595453262	5.0846515448960616	3.4105509516712162
12.1161844344427863	2.4412309516317601	42.1792648235215282
29.0182003643551845	33.4423910181137600	41.4539949135651682
5.6826826929611487	13.9520765074584538	32.7204292680811122
5.0042348947369035	13.5122383666811547	34.3384482440104009
2.1477543626547511	18.0975398681352573	34.7379607720630759
4.0830614779246961	12.7177458670796515	32.3436811184310997
1.0302541149796225	16.3688505252881278	34.7917748036126326
4.0520702750762316	16.1446714823819732	31.9752841620870036
6.8105947216861047	12.4923396821590984	31.5075160869735669
24.2923812055804689	34.0385433214061734	1.6099645540456966
20.7764685686405350	33.4030715442619197	0.8347788755020462
23.6006740580161605	34.8721333024989306	4.2521670976682486
20.4223806720242962	30.1064772738801665	2.2497831971592519
20.6317486469143674	37.4306771440151564	6.5051809583651830
19.0106492546848962	31.5552431513928475	3.0925057465734582
23.7487063328197152	35.6367966991602572	0.4805467072239895
24.0021253492402096	31.5328600272306403	5.0175047039982568
23.9642644904297519	32.3292828909434888	3.1592690098582819
22.5813700934138701	32.9993794525157469	2.1437762522913029
24.0010914909928381	36.6423271992867896	3.2062543461815327
22.1848534898472742	31.4463611774231602	3.7313835919267153
17.8935320283476500	15.5599279371261652	34.2816650914857703
21.2391863931848732	17.6214274973320286	33.0418291464785909
19.8107144434981777	12.6610828258192729	34.6409101862126008
22.5806723622622307	18.4146479502605338	34.3515824026813377
23.1832465477176832	18.0249077307646317	32.3660177708276180
21.0167183788355914	10.5336270851728422	33.3775633377474961
25.6594109808144673	15.9807892944695329	32.2088420792483916
30.5240807179300937	14.9035618079785674	34.4593738070404569
25.3844417436599841	15.0766560981314566	35.5549914565568770
25.9760389213715506	16.1526919935942921	34.1968108443799892
24.9403260596587550	12.9865117897798577	32.3271249491127008
30.9615785014717133	31.7669955824877057	38.4549161196051372
29.2816279384465084	14.4433585003453171	36.0994555747018495
26.6431980633519885	17.7648840688227025	32.8580088280097868
24.6019191841110043	14.7032806126182383	33.4763515968105096
24.2646138201054988	14.5699099588094576	31.4494977706678398
30.0394425585691422	12.4404967935104018	36.6049197071325452
24.9395650474989132	12.7116075642092810	34.1371634777011650
29.2307093825315008	13.9395438006217063	33.3191829822348922
24.8336252370798327	13.0455676512275520	36.1720818029819853
30.2625475394649612	19.1548030004731267	31.0876934455164182
33.9114986637302067	35.6141852057591066	38.5478483573657158
35.3205479563203610	35.0382846412866300	39.9691696730911801
19.1106375479762391	33.8439858163855973	3.1578637753953180
15.0828553755845736	18.4043782730965475	34.4837597248903407
17.5609170417080946	16.3691313007121728	36.1981648752618383
14.3130602860111189	14.2806836911667734	34.6491408978068804
14.1457947088851750	15.1658758531188411	32.2595825072164573
14.0887187097466597	16.9758857981859208	35.0878280268821925
15.2892380878153418	16.4429248287973735	31.4237840893039930
19.0591656355205288	13.6455894920406262	32.8713601876597821
16.9022402406792054	14.6620463641656915	36.0638905991621783
14.9717443163385635	14.1018341966636758	36.6568787048073617
13.8767254121778603	12.8449218092191497	35.6743923237949474
41.6674495458112730	31.2869769773858764	39.7166751913495517
41.4126315330327301	31.0109644673866107	1.1756998755845367
37.1941446979603896	36.5956295092948025	39.8202986112014159
39.5438586457937049	33.0264702949450992	37.6440271209217201
27.0924048902425092	34.1703846669456794	1.8065841769588775
25.5574601009060025	34.4538856844695971	3.1709448289741751
31.4529479539258752	37.2111783775143152	4.7719595753599116
28.9521896777456647	33.1027936736220525	1.0615587053544924
16.1270878753831823	6.3913404144993944	2.5211886450390617
19.8328494692677673	16.5577401100409389	33.5385861357492274
20.3614501297547399	18.7508342546032125	34.2433952835426325
18.2968903987398086	1.3496261699476864	42.9846801173029931
15.9701852664751485	14.6897775181206143	31.1265289321486840
13.1624585843755852	14.5830322938487829	36.2280725419965606
14.4263328413738563	4.9207656485251281	1.0842344084120874
15.3857331001129136	0.7623062839706727	1.7675908099594515
13.9243367690755875	1.8080506037676434	4.8276744463590058
34.5602785681174680	35.3119231780265892	3.4595784024878271
12.5110439404131597	3.1606070274246032	2.5345599615249426
36.9777487210095543	35.0246155068612097	40.6797576502077405
41.6563810870657321	33.2732060555724161	40.7048777008708598
39.0656422497880556	35.5421982162467600	40.6615617446431017
38.7486376528770791	31.5131736083206455	36.7873108666346269
41.2164580807418446	35.1317189030276396	41.5347560522578902
37.7797458760070199	31.4551170071846400	40.9805078048661713
12.4098928419538836	41.7745029162716364	38.9510177713787940
40.1742553289535564	30.9817195745593459	3.2440020824443980
41.1139397102787996	34.7900804147618317	6.2485333474888565
38.1910358163520556	34.2153956631647063	3.1938397495612594
9.0761652303273976	37.7569356120732280	42.2196080839736254
9.8264717785417339	0.3099417151415059	42.5566937685162827
6.3547018254442209	38.4694366888349819	40.1578195289231132
9.1419059564021339	42.3870438288882738	38.1189687484833684
9.1963169693789109	41.2890107772407404	39.5738878269219825
42.2881352514734132	33.0402223693542396	0.7892544304516067
39.8927825246666075	33.0748735567617871	4.0143475155077768
40.7487363518212291	32.3558489615828861	2.1860418058896305
37.2206624820659187	35.5119285327575938	5.8827767246309204
38.2685114361195815	36.1507447925683607	3.8135168014094938
39.1888377839737174	36.0180232913951102	2.2204145841478109
7.7089152983073257	40.9394928257112625	37.8386362997762191
8.9963590384315051	39.8603985694275451	41.0957159293857330
8.4933088364057934	39.4107541461443560	42.7995369919040272
29.8018507755327455	11.6528745531900206	33.8263911712314140
24.8840030611261760	9.9770437408687371	31.8347981722569564
27.0151173428830589	6.3297477546453145	37.1555051641878364
29.4495228495834809	6.0981706714581838	35.0976040153099405
26.8952791092317014	6.8766629978942708	32.8949927273052509
25.8864169465879463	11.1285849870762465	33.2054465709492916
25.7982832745140271	7.6314196551541125	35.8133460916175181
25.7206255044551249	10.8285957918171665	36.6836660482385426
26.9962344375279670	9.2823090168603439	35.7787340765251898
9.7197488701714683	37.5221843279215079	40.2303569913454311
28.7205353910181209	7.0591123446491713	33.7226702606093625
27.3227590175074049	6.8085778832890949	34.9552697250289697
28.3235814819384188	12.3961628361989984	33.0158673608969693
27.1229242066666636	8.5066022522633578	34.1399518067006866
26.6996949949136386	9.6310779950345307	31.8763651719196588
23.9838454883458247	5.9575406961823498	32.9633773837546045
31.1573604704207376	10.7187157002529592	35.8648969640205664
0.4588287137224069	36.7620219689602905	3.2585807432841607
9.3269361877493893	0.5922596217382963	4.4282737018741090
8.0355845649718773	1.9431348021580781	3.6685447993462783
7.7794558322437775	1.5063904905039598	1.5463491697383025
11.6160300109975623	4.2315333106826420	3.7704359602660840
10.7246613398885859	42.1138322903329367	4.0088064713657126
11.1327962786320374	4.1393238628139981	41.9261336476245745
12.4713433462570311	5.2225010266243101	0.2475341962335301
12.1029512413606941	2.8698141311549072	4.8863386922111181
10.5211869981748798	4.4362566973770470	2.3558956249310765
7.6855851090901490	4.4478108558876164	4.3899609003255264
6.0506212357026339	3.9183036853487607	3.8253223532525551
8.8268964665577485	2.2371732935254163	0.0003741671851293
15.6193668380525619	5.5249442342334634	30.7654619688938382
16.9905644713629442	6.0006614118165462	36.7204573353949897
17.4046359127594066	11.1420714358976696	34.5143259288698516
14.7667382813432795	37.7651473302399694	40.2867414278975673
16.4887572550017616	40.9955623853396531	37.1496782700007770
15.9521258543963764	42.0121099448177304	0.4830579910702154
20.9695443679274227	10.1408583058070789	35.7370408930708905
7.4357682278151813	42.7046338732161672	38.7365993748192921
7.7952662510796236	36.6164558571990213	40.4265078072169359
22.4626182715208849	7.7003909767225807	33.2664545888283669
20.0324135761023143	8.4836431997499755	36.4016075449884156
21.5414752808169752	11.7428003055003582	31.8193942665363991
19.0601906198626025	10.0400563795350539	35.4996648876124965
22.0846669559599746	9.3496805301425319	34.2631517512073884
22.7452235681485213	9.8694952107558915	32.2534392607358029
28.0360536577720900	10.5160942765262675	34.2791476260945558
23.1751407635923350	11.2333909722475234	31.1232482829176398
21.0418817856380187	10.0211168280714489	31.4671956912453972
5.7514910657598399	41.5479978451010297	42.1335205106318185
9.2123670028832905	39.2715099196445010	39.0788612831168010
18.6433207636528699	11.8380287244620828	36.0152018633457658
21.9753245819045482	8.1370933822794740	30.9484103459432554
23.7661914957450158	7.9978008566486372	34.7269881492934189
42.7093375005581848	6.2303824765248592	35.0728388359441112
42.8914494012049374	36.3488681665374074	35.8822781070505172
1.8879413940347214	42.1447346861991932	38.0546505495867251
1.4167193516133156	39.5127458640257103	0.0996905448245494
4.5876456322898926	41.9720006281539568	40.7833741332149486
0.4148895325595866	8.9733271638801391	35.3362863512188383
41.6866099116149940	5.6906351959219839	32.6848563832356049
38.8585317466231928	9.0814762315035278	30.8921143193490551
38.2333896427719466	8.1699981324745998	34.0042685686200343
3.2523152478379043	37.5103545147504107	40.8455886901939706
34.2122841403605378	33.5115259130573904	3.2675757323299743
32.7990191771997743	31.9671117865471857	5.2198890472786230
34.2859281817815500	32.0467301685553920	2.1995368364947625
35.1097799043634922	34.6475095278992598	1.6651813496249104
30.9407461427748913	32.1861756315214365	4.4372889555321242
33.2877718317750038	35.6385926485062541	2.0687241758929971
31.2647755183124225	36.0034384729336736	0.1547625235455367
32.5345433294644693	33.6325120046494703	2.2004832629480382
41.2041747426023548	7.0178797269948756	31.5305657218746838
33.0003863095042433	36.9171122141955621	3.7959325809014546
2.3521879841909326	38.4266021380367278	39.3992003580528163
0.4826955195676059	37.7221587255915196	39.7006085043215222
1.4600383938896417	38.1796010727572579	41.4357280619966915
4.2364330957953396	37.4764600790455304	38.9178574272470570
4.6351278609112923	39.3736873379853236	39.0394885415164765
4.7620012816441735	40.0167633907550666	40.7072218787293494
0.8033599789503987	38.6907610443858303	38.0004992010348985
31.3663737020764550	30.4345851917387265	4.4399090027493662
38.6759894292389319	6.9935424398946715	35.3193069746156425
41.9525425503155915	7.4987989977892973	33.6551252000045764
1.2798752012668357	7.5359755633949161	30.6319358035754803
40.1855748622991555	8.0146318666859440	34.6589806032717505
0.1518574831375332	7.0337230727960716	37.0106565764545721
41.7479587127698650	9.4555117496666004	33.9297679670273240
37.9218448449974019	10.5265062091169650	31.5518265215768992
41.2608285677917834	12.5754783698065182	30.7242700660942418
8.7428811941817930	2.0357270653086523	5.4106881105980555
36.4721732872866582	7.4499724978535280	34.9630969500879658
33.4288881926085821	8.6461167056240651	30.4468568752625792
36.5060369684235582	11.3903157854390482	32.6476904639954384
37.1341791964083683	9.1565752157590801	32.4795614735253224
8.9438164933242561	3.2992601766969072	1.8512781150921800
8.7568068225996800	41.7579355843504416	3.8613129728805076
7.4704057510378208	4.3546523718105323	0.8237968048985201
8.3873699462730045	5.5070731389316157	1.8223766292128394
32.2048153063024003	7.7661308301055563	34.8509937114696768
7.0342280190251634	3.1708575301184516	2.4263137482462773
7.9230254001007578	0.4007213769197894	42.8660600971721308
9.9324873163392891	3.0437299751010038	3.8313174127344887
7.4368856767916851	42.9833419596913657	4.6330015236958060
7.5457024173994682	6.3009897801427774	3.4699058724164535
39.6835215119134261	34.6398197854731222	4.8790665855483093
25.5200921911158431	8.0319725883429758	31.4141029834680694
27.5914485713624735	10.4552216959407769	37.4355901026845075
32.4037098282291680	11.2556975035063207	34.0306639279049747
1.7720085526915528	40.2264922687423905	38.1820368737042060
3.2659846873751905	41.1144610952895135	39.4716281180859170
6.1019898076833119	36.5205434133382170	39.6814318391087468
35.8750316175625414	7.4697472453159346	32.9249496639206782
34.6236875449018129	9.7865817906902137	31.2038515434021448
32.5210882663512493	6.9069748149990575	33.2661677932375000
37.1286160336166233	9.0172729972747838	30.3428242016763896
30.5071324409948232	7.5302979284644040	33.7498155845943018
29.6410479376081035	16.0492043411957930	32.8853351370150406
34.0456427377067214	8.0923967848041674	32.4462386757999681
33.2369812772896864	9.7420806345571425	32.6425626837389160
32.7653887666407968	9.7799811674531583	35.4563188368364024
30.1458762681938488	6.3828221545162194	32.1671692834583425
31.3714646152550465	10.8060045650247805	32.4387004772280605
37.5903639496619917	10.3696091492593148	33.7405708044842427
35.2908330878625662	8.9798343051335134	33.6450265491461877
42.3863438181497258	2.5476291009718710	1.3683242137994758
37.8712191372032407	4.4707996087325865	40.8602451879686086
37.8759744202969131	41.6723007601938278	42.5462536416438795
40.8126363749303209	2.7520731335378184	42.9630729046346431
40.7884418545708982	4.0115224155510587	36.1950330275704957
0.7536606336575614	3.3088627660674916	38.1165452248406496
39.3275613216262627	4.0553283452923923	41.8952637655069395
41.8861424987225845	2.6432386142351905	37.4998865807682904
40.1101713409062555	41.8722677666784193	37.7549838031609468
38.2639530925621401	0.2104385568514185	41.5618126784950945
42.0734630243133054	1.2645083092570368	42.7041892325028698
36.6309455050544699	1.4800250132735007	36.3622555863730454
40.6259373678082838	4.9615648866478601	38.4413994468725946
41.4505761685091443	5.8508616637678239	36.7928692891244822
40.9161245827049314	3.2959262994802625	39.1174227112011579
42.5599851233019422	1.8264481540398492	38.9822612667424337
24.7797384090653239	12.2428060799733114	2.9145659582443564
29.9128394620594555	7.3115386325111302	6.6825988807695955
25.1303650734291359	11.0801609866076252	1.0556419737814284
33.8274000290608612	16.9361286104624007	1.5317618352567959
34.0442906426017160	15.4462755574283541	2.6133710912097565
33.4938379096313454	13.6463061470943821	2.8021180099587983
32.1052007694793105	15.7764016032960050	2.7312688613824108
32.9300688958252081	17.3372923193003601	3.1445464139204300
30.7288521788001745	17.7572692497447875	42.7004116006110763
32.4257672598136324	12.8549285984273780	4.5779922501962362
35.0275520792072257	14.7545538747525136	3.9393983800782282
35.3460920987844318	16.7979523999613463	2.9522854963826193
31.0859858039376284	16.6505628789917850	1.0989673070508377
23.1124288528165458	10.8471600608212864	3.5513289965506094
32.0345528464561085	11.3179726915752461	3.1693509558256525
34.4038353029867565	17.3091994249683232	6.6510135034666433
36.2568830915769240	13.6238468448660104	5.3775077187403628
35.2530953237859066	13.6998571575926320	2.0438979038382290
19.8802862258714264	24.1541626629370647	40.8375418130226251
19.0556506945873068	22.6627575055274200	42.2727466389453639
38.9805573127842919	3.9704263323467970	39.5216949116536398
42.4508609248903213	4.9336774941266537	38.5442726019459627
26.6976596457410302	23.8944609668426082	42.0165932701929847
32.8404280796169061	6.5739549415165923	41.2852074602382828
26.4968915739460051	22.8386385501110745	40.5544941985156839
29.4097367753610079	23.9033344984152549	41.2391576687073069
25.3284522875101636	19.2119265355170015	38.6417567056024396
25.7287651532110466	22.5105493626429300	42.7696678740750400
26.6876092505691318	21.3265346088070089	41.7860536773846150
25.4453743772068179	21.1086856023101213	37.5855995050981662
26.2794807292864192	24.9663290652827747	40.1246989426499141
29.8833338911798236	21.8384463118987640	41.8282379369688329
29.8894597664467874	0.8401192654097173	39.8568597941486189
30.3374246071026654	21.2424853669237912	37.4739570715627934
35.9139937110144487	16.4929064705511799	1.0688373542178498
27.3392208961456582	2.0481509070957200	38.3026445908278532
26.2975615076920484	5.6506910292427248	40.3316158113251078
26.9298568234407014	1.4700489655700466	40.3592668380461674
26.2807448099976178	42.5859272465781018	39.2955362316256185
25.4905343794761983	1.5228806077598767	38.8827568479344166
26.1475787104729065	40.9287827361081042	38.1055833673941393
30.8508968517685602	42.7209526165031761	42.0221503476045442
18.6560590093778700	10.0597495788988294	0.2255036323417542
22.4980345586282482	8.9717396850198323	4.6340781838130951
31.9863580525720437	5.6226789710561471	39.3675060050250138
36.0649859505443331	2.2538159004141041	1.6360315763810789
33.4682584398202323	2.6893903429036183	40.9834896923294494
31.8682825235729190	0.8508111495203873	40.8280477223103802
37.8193165103426381	5.2955672945820469	42.9192103565848484
32.3151932167370646	0.6252327757673719	42.8740494730817616
32.8221436190690596	15.2832863050575387	1.1482929388372189
37.0401711518992869	4.8795164307628083	38.9143044548176391
30.7330879455382799	2.1053233508610845	38.2837108237215418
31.4940849767141842	3.0053029136743339	36.6484801194793945
31.9773510589140244	5.0907890491702679	37.2319409489145130
34.0407922107517749	0.4826566561993382	41.0452613087647151
20.5041721139077708	7.8039868479106156	3.9951044307195791
23.2507971881535305	12.7588357342901482	4.1843631970767428
32.4941367282571392	4.7665419454300713	41.3260333323117379
15.0305688908828632	9.6432286313185180	41.6050799633061175
13.7830082711793072	24.0073505086772307	42.3235120292606339
17.8486661771616859	21.9073201580821006	38.6222411521488027
15.6537049427906254	11.0568337794853484	40.4394655054431169
13.3390360594423711	9.3045546416134268	38.0703565742788754
16.3712721139887911	8.4342262333043099	37.7971416481638514
16.5464654236483391	8.5608979787845048	42.5091277633613203
13.8171975143897221	6.3707246429723536	39.8561783806631524
18.2183214611733675	8.6729518433437338	38.7274777272812543
15.0829143408562345	9.5657368545877404	39.2648848537905479
18.9118594542583978	17.8331265439814359	42.6489040219240820
27.6766293266766219	7.7535705362663849	5.0600327229100195
7.9100636451322801	11.0553692986051981	38.5018685786542889
12.6410866344285306	7.3052087650938740	38.3787061301345318
5.5582886627582582	7.4989643328066311	41.9164896182924380
6.9469180119189637	11.3865237876610781	42.1472999701362383
6.2148388360235627	9.1404476424812557	42.4144126437412083
5.9642319364884671	10.1725452355335584	37.5520200032971161
11.2223508558824729	5.9637151510906836	38.3964841201552147
17.0995961878741127	10.3595950899126734	41.7100637373631642
27.5128475699636290	15.9836518032825357	3.1794926309828893
31.2056591445343052	17.1647109263789410	4.3511786648855830
18.5063188445231432	21.7551139001528888	40.6415160936885300
29.2132592556533943	17.8462866347438549	1.2234466519183771
27.3872954455017812	14.7575995682942480	1.3879133254415998
29.6026778796224406	18.1705179100379866	3.2697493150882018
28.2130269254731374	17.4591688282268969	4.2962609154729279
26.0594638016361309	15.9841990143918924	1.5082550742446204
8.0780396424351526	6.6785396289453542	40.2773199352642663
17.6584811699673239	10.6032061586937179	39.8654690131310971
12.8001240370240286	23.2879527214677502	38.8582721641482891
15.1555528531570900	21.0075717010100611	38.8943611088533316
14.5262135308679170	22.8870745040204504	39.2413075854837032
17.4860611912148656	21.6655861864113639	42.5329874021722887
13.6163102870667920	24.7519563237767244	40.1793369571279655
14.1001567887247159	21.9705329399206022	37.6769895210520360
16.1007619770217580	20.7257589023228093	40.9865328665832891
19.4266845378744506	25.0326773906723474	38.7984492334935140
5.9427056577987569	6.1481765831788113	36.0880288536303127
0.8122245506909030	8.4051961312591938	37.9766268326197647
3.9359145999112473	8.8789526960788248	37.8214202937848185
29.7012390941832471	10.3675204272871859	3.3152348322541316
25.8527466291988048	9.1374612756528535	1.9137592190631878
24.6433937969181400	21.8844160842561344	35.8711514197839705
20.3669771429382109	22.2716816880244544	40.6525694259216479
19.3434016651623999	20.0225050413574728	37.7075615106099491
19.7264267714839292	18.2661018306522678	39.0496171914289008
4.5618971904214343	5.0518863483294005	37.1284967284435083
19.0837246827258902	20.5265203341463369	42.3311424863525900
20.7897758219476252	20.9646065552488778	37.0264098328577802
23.7197719650819430	20.3095338447993257	35.7037781743831033
22.6289227558665544	22.2978405204152317	40.1795957640959216
19.7032136653648209	21.3499810047499281	38.9200261550315645
23.5762109941097009	24.6840340675639531	41.4726135435559371
22.5840620011794329	19.3552450969389049	41.7361149168075585
4.1834180226071664	10.6987210545304805	38.2373992678849106
7.5205529452683866	7.2504039864131835	41.8634622788556214
11.5952107409497138	11.5695412982162722	37.0002081978241861
11.5803103904566740	6.7895988225305581	40.2333438334337643
28.3612797911162566	9.0718500504928237	3.4254227702168323
30.5571462490168351	12.0842225729983550	4.2108002195483758
23.4828548347389514	9.8478768718181939	6.3958817400896972
29.3153775119913824	9.0073434454031300	1.4674821607491590
11.9450734952479554	12.4862892045648035	38.7507634789045809
8.0926001674748829	7.6992193279794208	38.3775867751765603
25.7692702983050417	4.9617259624269332	38.6210526801402168
10.0915157587965041	11.7115983189954065	38.5421872995494326
9.6076085372881863	6.4847717167767422	38.9577823748129219
8.5158750339025691	8.1041188158746795	36.1851022901965536
9.7699821569877567	7.2690380833902060	41.2770160649702760
7.0958168028498365	11.4486736957370656	36.9332206957642697
34.4775876893441122	13.1080686112067593	5.0358349555109259
0.5284342504412985	11.6125187063122635	37.6133484057867591
2.3817422127523229	9.3366151134142985	38.7344294030798935
13.1078904251232498	9.6896501487011033	5.3872644805664525
1.8717719159846156	21.1384635824629150	4.1597408672268772
3.6183540216724253	23.6734183717710174	3.9047010812201113
3.1842955366201768	24.2252058096986609	6.0582929774053236
0.1106288177801969	24.0338910298699417	4.5247719605861105
5.8791107289078202	21.5689216654436002	2.2236511866672468
3.4530420679328264	25.4661056482928743	2.8869100582642195
6.0927544299820724	20.6181318449877260	4.3437923585315232
1.8453624564180562	24.2541129859101865	3.3806087313130675
1.1181240514128516	19.1687261618202598	4.6180198359918379
16.1247389490931567	5.6514857900979321	40.2706969766162359
18.1326198876416846	10.2057498191985658	2.4531994389151284
15.9549739250749596	11.5503264709786446	3.3749575069601012
42.3305298431715613	25.3480595502024997	39.6300841176092504
39.4452483187113714	22.7204405822266615	36.3749301890942007
39.4269407336898254	19.8047916867886400	42.3763067947858261
10.1967083457951269	2.0868481272823760	41.6505227130042428
8.4232522106972443	1.3872401483910708	39.2564995750711958
10.1110659603602180	0.4287722036070833	39.4238212737245135
16.7298201048063113	8.6455476773507076	2.8931468916665781
15.2244983103419322	0.5772917951198719	42.7924772303488368
16.7251139297618430	2.0548822554285300	42.0285025646115145
15.3595712777686995	1.1919608874408214	37.4396710567738111
13.0306982753957996	1.8880372180705587	40.4872156576529960
31.1157309770871571	23.0211479250670052	42.4562791854689365
32.0870929428459135	20.4734620063269830	38.4523864044331702
15.7571562765305355	7.9568177102200881	1.4270153685202143
18.2493021339098718	11.4853843837240230	4.0187270340373091
6.4741331542420282	5.1348417824818062	38.0816744606265090
17.5569536803471351	12.3404124406960012	2.3158050015464169
13.7825679138880961	10.0089601396520926	0.5535784568495730
12.7386324010627181	6.9717162606403269	3.0031610310431911
14.8591708324527705	5.1422791960834173	41.8693107975651841
17.9040385879668271	3.5239679093758252	42.2224236877725119
15.5301139747933252	3.6314915271576553	42.7600598044931886
16.5429325849032764	6.5922590003268429	0.5038868082057879
14.6888973673024470	4.6131643032932912	39.9536551169942129
11.6609720883861829	21.9531044686664671	0.2242489412802960
11.4537069060305399	22.3547274774706111	5.5527895453691469
7.0804830487189001	23.2035691230022465	2.5047057827612846
7.6556460261566102	22.8500964828905175	4.2173852989778471
10.5811508835190100	20.7646108296928134	3.0988753693004476
9.5717226831102398	22.2797744144288501	0.4674081251682740
9.7053580347172588	24.2234706648453013	42.4361354746805048
9.3673348913463848	22.7073898010043607	5.6063512214849966
8.8011657497130003	24.0178028807737078	3.2381348153732459
10.8820667788031038	20.6292207951617179	1.2240752157491086
12.3851840202843615	19.5673743014049180	2.6268787418096111
8.8071303571894966	22.0278213698079028	2.4712874143920236
37.9038315085930861	22.1254207504137277	41.9350025920385576
38.8758832864341883	24.5542060126704556	40.2260161780932251
3.0861085581911523	0.1912317926153334	40.2170272318311390
3.2283159989045820	1.9258196131624308	39.6409239113166620
4.4485937816077596	1.2421762616332790	41.4991586213223584
5.0426768223482048	5.8700022550129205	42.9730589673843468
3.0245473550541040	5.3303957116023906	0.2501532078824008
38.8290641595130950	21.0380689143647466	37.2507263946279252
11.3107860514821486	6.2285868823238868	42.2572116188767950
7.5971206528209345	0.8650493287993918	40.8038129450326963
8.3112150953242825	2.8687709355453914	41.0683093999519500
11.6104785093700293	1.5127427988198816	39.1167802815453953
6.0197617378135959	0.3525204725895446	42.1501842361907393
7.2930474910749075	4.9981343830210694	41.2821666250907384
38.0685164881533353	21.2448511075435533	38.9216012275698091
37.4988467925771687	24.0077893542994225	41.5301825839523886
17.1450593432517984	5.4875441603332504	41.8207365400858819
37.2675791160820040	20.5575513347759724	40.4632013585711192
10.0710055377399605	1.6075148697806918	37.6875398498296548
41.2490228607402614	24.3228306206556688	41.2934995292149694
38.0962868961449246	18.5580531034686196	0.6877659581106174
41.5950168394043232	19.2992450156147619	42.0446182927384839
37.5238984856069067	19.5784586313044429	37.7758862142752321
38.7500054337642155	20.5865235694058910	0.9675399336735109
6.5250967518923382	19.6190942671038648	5.7922835260624206
19.8569134082729946	9.5559611849141763	1.5148409657235844
42.2968186686098164	15.9764750070475596	1.8772650947768890
42.3354834272322123	18.3557245966912177	4.5918182911280825
36.8273532099959127	17.9366970289900820	2.3025256917345773
38.2602363218962864	17.5641906327240704	3.4894074140221245
40.8649779888578379	12.6496077692903643	2.7752299179669144
28.4403206661868779	25.2985692694014617	39.6844704711733911
23.6508344112686579	19.4388527403204101	40.1531284355364519
21.4465255874253309	9.4256903005729917	3.2298568456510708
21.0233092354896023	10.6025653054147604	42.1709742945656956
0.0296245040013980	18.2391578441732420	2.7861266103881515
24.8292982366999020	3.9432418153262954	37.0847948780619703
20.7533816772174085	4.5367216561629791	37.5634111535387660
23.7196902088432680	2.5672814152219261	38.1909721862892155
18.6554953285330960	1.0101177801452070	37.2995044345125422
23.4458697582909679	7.3833319362634171	40.5365140432159592
23.9771887047580456	5.5700056866788330	0.2048694007860585
23.3602968705575336	0.9519823711939804	40.9641102723831665
24.0685512773608288	0.4114248827722384	38.8697048718000175
42.1277311036915663	13.4763989282789449	42.7601605743930548
27.6033772240227968	3.9084098284453397	39.3579704864995605
24.0643707569318366	0.0486787186123049	36.9145569628542489
27.3286493973559459	4.4065907765005656	37.4179913390258108
25.1483142238486970	2.4397529403103397	41.0175465867948574
25.1208033240903923	0.3755250589458651	40.3933718086686255
25.9941610417154081	1.1016711381811224	41.9546468468565195
28.8723435596306572	2.2647624780672269	39.5153093098743255
29.6596566338887406	5.6888004147366624	39.6454328400658866
21.6881286864259977	2.1077203603942420	40.5825840810388030
38.9594800638583791	14.5933555521715750	0.8674026333786437
38.0629266740240908	16.6577520196530067	1.5010378472426755
40.3979015333975440	13.1341101529372342	0.6799485892454329
40.1653039752725007	16.0335528821320423	6.6773888543843922
30.0916681741599277	24.2062624185906934	39.4068007913310865
25.4080160347830670	25.2507433271543569	38.2653021786800451
23.7258761469471793	21.1500240262090102	41.6169395081308053
26.7444217163258458	20.6929063308448065	39.8802614719338067
34.2043354219305655	19.4939210748717002	38.3815719464615697
2.2521920931856854	22.4051061646120822	2.5582242456666124
13.1343715560928764	3.9895421956511727	41.1174351095180839
16.7547749368710512	0.0808702478520073	41.9300254593246393
15.3412610366560553	10.0213624883485561	2.0447825951468612
18.4287957818621528	8.4641607270365782	3.7777198691012162
36.7608436278514574	22.3463206304594237	40.3570871444696806
36.1291547646382014	21.2879350328677468	38.6893426254213466
35.4593093939834176	23.3808561026477335	38.8931339332953740
36.0949335901395898	24.3822934016785808	40.4348129622183876
2.8945208275306689	22.8779141351345778	42.7093072924849579
30.5973160696747755	21.1701877867125710	0.4058141913821781
34.8603548994261914	21.9916863296364795	37.5853179531416686
31.0278351902341463	22.0681831501241028	39.2864732261432010
16.4129022170660370	3.9966018895792716	41.0318774337468142
11.4734656221627400	0.6155149473345457	41.0839360762050703
14.1958454824987097	1.1043266037432715	38.8425014220307929
11.6473647272316132	3.1325723701730035	40.4856552598283841
14.5330179063376175	3.0949180022464491	38.4837857112623283
19.0920675422212902	5.2517417270637052	37.2423351260649156
22.2734318526679864	3.2235133034186751	36.9837194807630425
23.8112305705455896	4.8766703147827304	38.7505181765873772
24.2845211815239459	2.0428524334705522	42.6709929944283246
21.2656704673656627	3.8440807353569215	35.5875750746840751
18.1568341096152217	4.8732944264596521	40.4209363529805330
19.9978224953856092	2.9602225345185209	37.1158993427473476
23.2431183703276822	3.5063617347533342	40.4659546024615722
22.1271875933821107	3.6428554460607527	39.0146480519301093
26.1380987617210714	15.5202580343785392	5.0188013329082191
20.2684289731227416	4.4508465676510554	39.5164970600755225
22.3559690020593429	1.3093921450928849	42.4179287633380255
18.2901800905491889	10.3144096438842077	5.8719300763465858
12.6849968990674409	12.0355704498078051	3.7259548261255437
12.8124385908028842	11.7325892310906124	5.9725776825605426
17.2277233158273084	7.0670854682287514	3.7704331923242722
14.0385414698931168	11.2371575468989420	2.3558184214667390
1.9304889545893840	20.0637072729290473	2.6845623310548072
13.0337881301273644	16.4245840231054387	0.3831143265053414
38.3454362658017516	17.7392511378417232	37.6532024329864115
42.4217501253216227	13.2948880901265998	37.6978710854538974
40.4206008280400937	17.7283069693688233	42.8493423814995182
40.7592964299613385	13.1256071367173970	41.6115754516338399
38.7576450094999885	19.1928316592124411	39.2894466798139916
42.6501028478630815	7.0832622506484579	2.8119216702988963
40.9677355034091448	6.4481066584920361	3.5981860791769682
41.7718356684264691	12.4523271100112609	4.3498532656268631
42.5390802442726894	7.6632412970720019	0.5379792871569888
39.7836970757006725	14.9393813643902611	39.4267132048251554
12.4284858345046025	14.4800358410094692	37.9348048356093059
13.5288453076436141	15.7362907672379393	40.8315369419110255
9.6542261418222299	18.8892028359956576	6.9411461746915499
9.4618228367115123	16.4082809764901434	4.0975475315684875
7.2178473174677613	13.1476298030468719	4.8278846070050783
6.2034345341375499	15.4803364477720038	42.8937230247363672
10.3358770779360025	14.8791881552668830	4.7592419308882388
11.1858461575587018	15.8025456916371478	0.5907625479603781
9.1952237992324459	13.7817069468064410	1.3641619002616985
38.7625679875320373	13.7754163929823168	42.1850957127427222
40.4494148482652562	14.8350053869844185	42.5991336977141160
39.0584035191911241	15.3159566855053999	41.0368178347885859
40.6340931834346577	16.3478101123728337	41.2963630802956416
39.2936176006660602	12.9458393779060508	38.4519980201883911
39.2450647684098044	13.3211747013377764	40.3344045281409436
39.0146846543487058	16.4680689532782161	42.9499531978454883
35.6080929000631841	16.8818978583738222	41.2357193920440253
8.2252765276341044	18.4148226016321175	3.9719886114878502
8.7251643434925672	13.6101230860298781	3.3204541841084474
7.3647501588231234	12.5451803507963238	0.9182584160789957
13.1813482010605192	13.9549921003304114	39.5301931283685519
17.8069693120042665	16.8392491361195127	38.9222194820755334
16.5884162049288086	15.3099643886588659	37.7645841373797992
18.7003420443338833	17.9411341972744296	37.5723819418004297
13.2372921149809866	12.8876951600340686	37.5073766319378521
18.5607696730656464	15.2982972878245196	37.4684757083243269
42.1598379667934751	14.9394351266830547	41.6382516243813328
16.0285544376685891	16.8109312573855512	4.4468908393362430
8.2626638696772794	13.8121727688810640	40.4573492460580226
6.4554632020772846	12.5483537005429984	40.4535986729096351
12.0261043873851481	15.8666783739529755	39.4766045215413115
9.6045809177535588	13.9790407563429717	41.6818090894280928
7.3407502031360075	17.0589324822129491	42.0788346133602502
39.0721387512748208	10.9517784384895762	5.9744828402286583
38.9733606369712220	9.5327876216662446	3.1069903480408128
39.5159303488136189	7.4635894223627304	2.6093771208318488
42.7434213028738199	9.1558526872606283	3.4681122632615926
10.4326355834634459	12.7627998140991803	40.3242288234654680
15.5599270794348890	15.7671435551405228	41.8881070404346119
18.1938246754367441	17.0811969326053408	1.3868691465957379
17.5717009942543463	16.1523075372468519	42.6977581283531720
13.5060186946743350	13.2883381296017298	5.1011697397464273
0.7347359901576467	17.1783473481054116	0.6786677098267297
1.1792924352821781	15.8225536475227795	42.1485748971855472
4.9128998289830950	12.7562354442825381	38.8341484442611105
5.1707139793544750	12.1162738754747910	37.1363467282723363
37.5263228107597655	12.2532131953959382	5.9380052823896534
10.1744482618268801	15.0773938718478089	2.5845717941982125
8.0375095401138896	15.1686141344621657	42.2934465582228327
11.4504366797548158	13.3297924089637689	6.0893957081695298
5.8506502666785041	17.9090997180278997	7.0252616165294492
8.4066605116740227	15.6522767543584980	40.6024512096201704
37.0014539711097470	9.7872485206513335	3.3571017605062043
40.9972443461652247	10.1815028655181052	2.5036244747453176
40.4522944368243316	8.1503968019359014	0.9251675077845127
38.4408655663906202	12.3068580904557265	0.2342236248614619
12.3814962070460890	12.9495117048629034	41.2752324152051671
7.0536004930504372	13.4675019726705845	42.1316903663078008
11.0458246908567244	13.0609041366921304	42.4955315382489474
7.0663631368332620	14.6276111276969338	39.0348348215874950
11.7649965775327736	16.4665008191132571	41.6013106271044109
12.6037796698714821	16.3882503865850495	37.6083985970103925
6.6721961409786852	12.8396557022146300	38.3715726312670071
8.4786882699947697	12.7932224116443312	38.0819933967554363
29.7568358228455345	17.3806880904922849	40.7783323062408698
42.1707601117543405	14.3186255514211176	3.5445058737270521
2.8302392645869578	14.2232549447626582	1.4976159677465446
2.4463850573831665	14.3147826304711394	3.2900240034767618
26.2862435145075679	12.7666521186669026	40.8481255721459959
28.0207712794012203	16.2876227776973401	36.7638440307591736
28.0153944400726900	18.3280470499529677	35.8460203649066571
31.0222065137363465	17.4102212880368015	37.5135942309397450
27.0170854148261697	18.7451997323845134	37.5893502563320894
28.5318021488065021	19.9198289074430512	36.6547042304824515
4.4578633779440953	19.0030836953730464	1.1462086462062930
27.5312768578265903	18.8209415622126883	0.6467707966702809
28.9212237422934280	15.1800432678217696	37.9237605907314048
25.5724406476468644	13.6654556626123043	1.6885525405616730
26.7853312536990380	15.6894589144090872	38.3827762848989948
24.2547663247153586	13.3956634558049288	41.7858015160778038
28.0819236235604954	13.6123969339645363	42.5386408217494889
28.9951418190019510	18.2167882942874009	37.3560237158916166
39.8852369760245793	10.4554855998753435	0.8442258204168480
33.8239884775000590	10.9147120306269301	40.3926549243853827
37.6566894091028672	14.1459523580263582	40.1916002581170630
32.7649362211693145	18.4952166417505204	37.8817985010570126
32.5480991414167207	13.5884173823178234	39.5247985059573281
36.4854021598471547	14.0184533620078842	38.8394854986777673
32.7088888562536440	14.8769685956235271	41.4034976003142532
34.2423771584400924	15.8694011647507018	42.6418255286623520
35.7299527048747763	14.5966288491287219	37.0155392229620333
35.5540312821415583	18.2479176321443539	39.3246168177576578
37.9863151688336202	11.1760231700640826	4.3091196631421189
34.4351774814567122	14.2913460730726420	38.6103251115330295
32.7620865077805234	14.1848951044977412	37.7909300098032759
36.6329870036335734	16.7663554013420573	38.4033947516067116
32.5918807919181148	16.6169772617173948	42.7422433892952895
37.9621387902729808	12.3067552925987247	41.4294552056414389
31.3396916427277858	17.8965407709726136	39.3617749982510787
4.0310092646076976	15.6181499057093021	2.7579875805340190
2.1731758211118235	15.4307087764095492	5.0735888989729920
20.8366853062005646	17.7984798717786532	0.5058019014212456
36.0093685555802523	8.4376301725005938	4.0199987165029185
41.6661629519156307	11.6712233956998830	1.2660556977033905
20.2952179201444949	14.1427418338704101	42.8958869691933984
21.8170608140678830	12.5292355946033940	38.1321911145360417
20.2133270437556156	14.1728572865968250	38.3295474199511474
19.5497045452641203	13.5729755027384034	36.6251298702727439
22.4720041394280052	17.2964729553717866	36.2569905753931465
21.7578272869407314	18.2382658038439587	40.2946406038829608
22.7779351797394796	12.0427888559180829	42.4119229249646423
24.3509637433059645	12.0012329456740634	40.6314676255723342
23.6239843639337970	17.9722901413826861	39.0948786241609980
24.3585072025333034	15.4280362328280702	41.3733010739148028
24.2465325288545905	14.3077529215670989	37.3514712062612162
23.5876746761268414	14.1794064404589655	40.2745021309964102
22.4763171380943234	13.9718036080963728	42.1555091955576913
24.7555349135413252	15.5329707184596089	39.1148576631203255
25.3673591988620544	17.2426524683325262	38.3195250478584626
42.2423947904243420	16.6272961811126727	42.7718997083015111
0.9731435298585098	17.1335204298935047	4.5312059760986543
39.9882966964406918	11.0831792879075142	3.9719625715192417
41.5415101127754696	9.6016581652678070	0.7864198796740943
28.1955942356406872	13.1239788542057028	40.3242251486262688
24.7520738051087150	16.7948375330977981	0.0385689978566646
30.8668191565666206	14.0382175648527650	37.9584466656158668
28.4381936646131308	17.2302154496597453	42.3893493359639209
30.0271196808610803	16.0907159909483255	36.3003763256879353
27.2376218319355665	19.4550175002453365	41.7197559420594501
1.8530525322816309	11.7786233938533282	0.0644288743344532
5.2406117568398702	16.8830530054486694	2.3210293713865418
2.0721855301521743	12.3115224245246875	4.8204816658381988
3.7814759674149032	17.5003014439993798	6.1893233592859289
4.2759231671146187	15.4952958689945355	0.7390428162837809
0.2125883827788505	15.1761500980618997	5.1285460696388148
3.0634660237119560	13.8728313838602801	5.4354526436751778
22.6315084298454501	17.5312528074733081	42.3614657038140052
23.5175618732445066	16.2472733842446608	37.8597556541998301
25.9693055165504241	7.9256712170136190	37.8445520588156015
6.5482249768929304	23.2238293007026293	41.6362751126133688
28.3866815996759705	8.5570716287236710	40.5647078197379898
30.9614342093770851	5.9620156730278886	40.9122354733332614
27.3699689609367951	11.7810694572184271	39.3682558673827145
26.9826916488404258	9.0646300822731494	39.4692169111391848
23.8887597095240132	11.9800487606646442	37.5693544303330782
25.5363810015498061	11.5576396684130316	42.0257478087623255
25.8347254453847377	9.5294873750542823	42.9685860021292854
24.7931246989599003	6.5961072159042642	38.8922414964622050
8.5116039355576234	22.8783376839240162	41.7477702086704880
29.7800592068631076	10.3358411752229120	37.0545222551230111
25.0136315337252597	8.3392103998521527	41.1754485948537692
27.8254836993457673	11.7492467549887216	41.3962330209301470
27.5177797816403000	5.6511382527988703	38.7638096701207218
29.4830550009763215	6.2712153636582837	41.9521472942271529
28.5918340641709463	7.8023739392104234	42.7621849227633248
30.9116478227643263	9.0062616987501123	42.9759884054090833
27.7674000550507607	7.7121379329274120	38.6057970793735521
20.6018289533760424	18.0131228114689605	2.5317137217557253
35.8921480270072664	9.2406702808216288	1.7359718788271574
36.0949139205080911	6.9263430174032576	38.6900406883707220
35.8935235157610464	8.8757881713768043	39.8701178358675605
21.7644197578519112	16.4331538612142189	2.7859996277226728
24.2075398519091465	17.5835273347868259	4.9812876708977161
19.5736388399445786	16.1433114338550148	42.6605729275939609
23.2289457086108726	12.9360307850915639	6.0614218961375768
21.8769235844485728	14.6103739346749109	4.1750021878146244
25.2043334432004222	6.4158992790528675	41.7642279086063084
22.8582371583469985	16.1990418391857034	4.4851307923436678
24.0793924973888771	14.5588163446788066	5.2714421619737220
19.5360307864947593	16.3184914376864363	2.6020609604323921
27.4014489669508663	6.1401010163757617	42.0486985517055345
34.1410413567814146	8.3081508140279396	4.5993435645233518
30.9230383999755567	10.1790083885841227	1.6782059849301356
32.8433775265888812	7.8279331490044726	3.3784611554352573
32.1391333018546419	7.6309213447820312	1.2027980334870003
19.3472407991936102	8.2836442417477176	40.3742645902002693
24.2679447982054484	8.4416490466120919	39.0958273877749036
22.1522700575036424	8.2769656015267614	39.5008962455908872
11.9478216427086874	20.5496248410650608	42.1223590127486887
35.8048180504638438	9.6049124943795441	5.4092760758204399
37.5941316843827522	8.2378129730771583	2.3754524288269883
19.3030030192171225	10.1152370625132111	39.3422975725772588
18.1989808122880206	6.9861940806264737	37.9782158842667101
20.7115828449953376	12.4026633370384101	42.3247142141544828
22.9533269681085095	6.9429217349241359	38.3245461225388624
20.8762754946459772	6.6910189204263144	37.4779195173401689
19.0901419897923681	10.9198768408764302	41.4431107694625780
21.8033044269003042	8.8880468104789614	41.1713285099068926
35.8930674658558857	11.7320853185498475	4.8776852992809330
35.3072691702186532	10.4186870254999313	3.4667330298064818
34.2370374704308134	12.0784890062039931	1.5054393695242578
33.1056639086122289	9.9570850186331015	4.3072256489115199
33.9278236720777002	11.8829499553990630	3.6077506912995916
25.7916152093258830	18.1738179683795238	1.2481868952089945
7.8048751757551669	21.7064687288110427	0.5406547953649561
28.5270459867712525	10.2260008658636679	38.9526647142802247
20.6922852869954994	15.7762402654416682	5.3983611919662522
25.2999062141749569	13.5262725716659151	4.4671730697484238
18.8871860658719193	12.6671901830377145	0.5736703273351581
8.5677814081066153	22.8988749033806975	38.3909769425031513
8.1003925002147188	24.7450826829700077	39.2406575704549780
13.1465435027913475	21.1271928184505562	39.0302302583439698
13.7468973359172786	19.6050093553419877	38.1745427725544957
33.9862717123977447	6.5569779601442706	6.2451317254041836
6.9329211305745266	23.0600915836604123	39.6261745844337696
11.1657117962001333	18.5052885161476972	41.3352992915915323
20.0687931913085507	8.2108050285926861	38.5275355492133116
20.1217336593922163	8.8256126654940115	42.3849639223990735
20.2031049054768772	10.1774701216244097	37.3964665866317318
21.1629003116853056	9.7778562943905012	39.1601830870949854
24.4134935974359486	10.0957945868732271	41.9793492914790889
21.5754155423740244	8.4239533865560023	37.4756427574641862
18.0958052461432537	15.3121362012362354	3.2303575582175550
2.3507528368337218	18.7472791235429561	0.8044418045506326
5.1551580638145840	17.8918460319804744	40.7443093502450111
4.5942673212642360	15.9347914976883089	41.6957347811608869
2.3971844228397297	17.1959837665005075	38.6638270146511260
1.0729921663069737	13.7934179730819704	42.2583522373293974
12.9203634370702716	14.2031050258988110	42.8455064188417865
16.2353467376009171	15.4979980091672900	0.8667501396573457
15.7615400550025644	18.0856427792202759	2.8177683423955182
14.5912913803372550	16.8169899213229641	1.6739430989339223
2.9474694702717170	14.8945491621462143	42.3626524624398897
17.6813881397260708	17.1740920793746525	3.4532875096869602
12.7005369860712314	17.2670390869369861	2.9904099339734325
13.6364831733433007	18.3881982467395169	1.7324512158168524
13.0199597623843051	15.0933844854964434	3.7605258171701248
0.0536574662993440	19.9968683594139662	40.3032924921547320
5.3645571243779484	19.7429959014907084	39.3373139602647726
3.6814921368973335	19.4785120955278970	40.1412562268809125
2.3877647672030569	24.0858550428136873	37.3006744618707273
3.3724537755438471	19.9337209230188250	38.2226212601325557
1.4857358119402146	13.3943448218526733	37.6337729807845207
6.4570634852479172	15.9818358115163868	37.3986886690320119
1.7792993787510840	18.7633687144596948	40.1671680182968771
4.3580946862660399	19.0708567922213668	42.4273767152752939
1.5887511009732098	17.7299338079869777	42.0759556916977644
5.3821478197149224	17.2516986884981840	42.7710148741816809
2.7457962438449406	16.3638239930215867	40.9026005734937783
1.8326717394381011	22.2801231018455397	41.3867375212416491
41.2134797747233534	10.0595080076837657	39.2447995582825513
5.6645751083872264	21.7367178047618914	39.9245094660771258
0.4153159701112118	23.3810871385731538	37.4319517530174437
5.8456291522443244	20.3349788111156968	0.3562255818745487
6.7543073718844715	21.2746307096237288	38.3902557031624383
1.8765730486375076	22.2066670216264050	37.8553213593694338
4.7400176621478751	18.8501406189350149	37.1978960432714061
1.1974936642832272	22.4527922282795274	0.6820780593083933
4.8334045971823523	23.3678756304045372	42.9109307965332363
33.7216978640673517	8.7818868050297070	1.9823530993449201
4.7258834841313124	20.5660506867020203	41.4161708738850081
3.5155080633677462	21.9673184851351806	40.6417100248022720
2.6585418871752253	19.5278182015041111	41.6482822442173983
1.7722890146078996	20.6639751993455043	40.1454043439506094
22.7499217517695165	17.8677571015645036	1.3202621187147285
18.7521426251904373	15.1494928831704829	1.1781473403478273
32.2270622846772667	10.0503674389179665	41.3446712561308942
31.6915426860558114	9.0375279075726720	36.6667982937294994
32.6129854055044106	10.8633302085456229	37.4312088401943441
4.2681860310438928	25.0824251024158578	37.5583363592639827
37.2215203961201482	10.4238369343881967	40.6149572638326219
31.7991261403549359	12.4342251953478016	37.8611403911116327
31.6512046022228759	6.1164158231388681	42.8380089603147667
33.9667886873336542	8.5967414489245879	41.0916288326732868
33.6586648538551856	12.3200853508347787	38.4816159402345335
32.3115474529199460	11.2158252372428340	39.4312699889048588
32.4898249490076125	8.4443727899664207	42.1944360575888524
1.2534827436518334	20.0185712439411674	38.4029773376704000
41.8311704824348780	8.6100721244073437	38.2400861745352785
38.3130813859377852	9.4250063846089809	37.4945139484231191
39.4764147012147006	5.7950350358397067	36.6231289659605608
37.1170943445752997	10.3410732831030501	38.7906717261375888
40.4157357305122673	9.8661514095614944	37.3533221884396198
37.8384772466554153	12.2007358131509687	39.2259842345307845
41.9892029289978552	11.7537775762299965	38.6804634535534788
40.9884000983667107	13.3166858678834785	39.4438270217651805
37.9054174447317394	8.7743926618064290	39.5886925185059297
2.5390325861773015	7.6348363484098511	37.4823082581936404
39.6826263038043692	11.4953675878263262	42.0356739693740167
39.6010639034439080	7.9652532650398129	36.8444185250985470
38.0991791725330700	10.5601797509960917	42.5391277028293118
39.5831185929597495	8.8772166423211782	38.7850336255490049
37.8374751098740560	11.5088769290384967	37.2349385800706969
40.0986292134082731	11.6826382143234504	39.9934148145293449
0.2698952831542337	10.0257418969017671	38.9937714102798196
39.1412387682697229	9.9885903767210227	40.7495176984881766
16.5758541592581601	36.5688924201909487	31.5003795346056776
12.8391812829966891	30.9679863524801142	33.2499795890290457
18.9303299200514488	31.4369013063937714	34.9219979228964164
15.9870951700826556	31.8907849990731158	32.7027457233196301
16.9856295712969860	34.9677503981144255	35.9605556104373463
15.1024265909492676	33.7764678655164019	31.6077907604560835
16.6727995331310375	34.7620171518959538	30.3750056521459442
12.8104338603834016	31.7100763980613074	31.1026775909795852
16.7649332285012953	33.6034046618107851	32.3296930336410568
13.0438930514532689	37.0370127019842670	30.9251300872296930
13.1904628173851783	33.0836508292490308	32.3062142554613203
29.8661671999404206	31.6856601676868586	40.5528575213095408
29.8624461081650985	28.3763606640880042	38.4630992526500748
28.4847455975427266	30.1676256259657940	37.6476208803863628
14.5338376258831268	36.8697827854164046	31.9410061252580491
13.0919837835196819	34.0215094256449788	30.7238807079612748
10.9400322757459314	28.6783406684250011	2.3928867795724615
12.0644506294795235	28.0573700406763749	3.9765758870273094
11.6187159207524928	27.9397903488510870	0.5163888531348355
26.6483836785172095	29.7396382076423365	39.9589988559531903
2.4466008689000387	27.8539196703526564	5.2834058696611530
3.6782305554106909	25.9908790514947476	6.5934360503885765
6.4102940738624410	26.9622624425912321	3.7560404576457569
3.1948773953708192	27.1258665497294515	1.2402906421214006
6.5490143876804305	23.2650121031777459	0.7774596166212355
42.0437034985447440	4.7614772209305150	4.4600645167286599
42.7119259691285009	5.6304214201481573	0.8392804923345725
41.3491294857913161	6.0900379161627667	5.8420816593322202
24.8652131059143500	31.8068268321817271	41.9680538282115876
7.0522174779315332	24.7862357842426277	3.7909595590310028
30.8638035803963753	27.6748013841379468	37.1192018085465705
25.1047091144945398	30.3689221050382585	38.7328189220429309
27.9898981757406240	26.7026471785017492	38.0706257285325194
23.9095392608631769	26.4597758842681010	42.4355842099523599
24.3000954530503961	28.6485046448118865	38.0794600367272835
24.3897855653560214	26.7972713078283533	38.0023522197906374
26.7870761806663573	29.4048664470102175	37.8193771253508686
25.2623121212314068	28.3910705494945255	39.6306044085075726
26.0760375545551391	27.4767780287319070	38.0072968481328957
10.7165324534563187	31.1674550582830641	34.4398509390381165
6.6151843010466429	34.5395001666252455	39.7021890926754040
11.6283833033809074	32.2385716241127085	32.8028944483133316
11.4503476948208398	31.7943559197451506	29.7764463699983608
8.7477249105361334	25.6419900619375554	6.5460550163481326
7.5794240960169406	29.2729232023363934	0.7220321035269331
8.6248356901716008	23.6183295501079229	1.3123965885634374
8.3148008406506921	26.0264925844636466	4.3775513722532766
9.9874440035617162	30.5912815983361668	1.9908981293585304
9.1048006218301563	35.3304393264459407	30.3423369043780937
25.3786445568541126	29.2950519470949970	36.6248512126806318
29.9303100829741027	26.1638711638984951	38.4602768843368779
28.6017713219595180	28.3590307976599867	37.1569685911641301
28.5708853097651279	28.1339012583655261	40.6367661502421527
27.1947561559401549	26.8125629718905536	39.8130192551075410
39.4588101749695426	4.2608138845213270	5.0157417637823487
36.3544807230188027	5.1232162365524010	3.3509415862702432
36.5295667084663265	42.1331095929846313	3.1137650748049657
7.2752855168209125	33.4140052545739010	35.2354557625710285
10.2922853628077622	24.4308693152350038	1.4919745995273257
9.0704874734837251	28.5418859998637231	1.4327481667719428
6.3458517215095229	25.9021357695854810	5.2241139101856175
9.0680960485983455	30.5971576219373631	0.1778828944571858
8.8348746635365405	31.6946742289843044	35.0287512643318735
5.9007724290932435	35.2692940969155728	35.6409383764378092
10.2001216673706736	31.9824665794402172	31.1378456993608523
5.9030148354921916	30.1379917789935625	32.6115435996475185
1.2248736883033837	30.3090326298167660	2.5127937247298946
10.2281403162379441	31.4672273108636951	36.5969468354292289
10.2035005268092931	36.5085242335245397	36.3780687425878000
11.4924936685003871	33.2986879406472482	31.1613198991762417
10.8263928474412392	34.8141211137540765	35.4744992247288380
8.2053515567500419	32.5844493413586420	31.3069564469895276
10.5146077457583775	36.0169909987613153	34.1691930273536144
11.6681832532365473	34.2187482847139677	33.5144708139614025
11.0940212866458605	30.0061672355212252	30.7785292992898043
25.4229795951208004	36.6852818814047836	35.4224858153346034
39.2582244772743465	19.7382595534319094	2.9424313415113881
40.9297542264261196	25.0327296140134266	0.1229456496062782
40.0691049454095065	22.8740196921943770	3.5372515679545629
40.4498931827466421	19.2787064515910522	4.7208958060922699
37.0731382864499821	21.6245835034162752	0.7836028136609776
0.6108011226192034	20.9961854470562521	6.8193509944995849
39.7861684530681288	25.9273248359184336	1.7345591442076360
30.2708671748119507	33.3365139348850690	37.0273814024976460
26.7004788762453238	31.1428142106277512	36.7724730177318193
38.0969092190400005	23.1230378638868537	3.7616897469219497
29.1516347385506585	32.7654637667172182	35.1811450607055392
25.1411203222145545	38.1565285725064740	31.7477103527351829
27.6630878288381901	32.1228986458241508	33.7941727576206219
29.5162042005720053	32.5220052414462728	33.1109594877308595
25.8858248083771549	31.9098194674815687	34.9572652942254578
28.7748689047521715	34.2643059100275309	36.6153785978743116
25.2462242600731415	32.7816940967202939	33.1253725007272877
29.3436848826887804	31.9103667827692519	31.3967640915641333
34.9118519267057863	31.3857357712127865	35.4236068521916607
40.3500204707548562	21.0109111100529020	4.2396324842526614
39.1135489740848143	22.3687418289865008	0.3509162937533646
39.5988555616644362	17.8170610903339863	1.8598758905813826
37.3441003975928325	19.8414563187571709	2.1162730176605815
41.5949967601959898	18.3449287809294326	1.0831503482196019
33.8527657007274811	33.3533982913375269	37.9378306431353565
32.3221778743437582	31.4524480585655795	32.5570618797008038
33.3290680697069845	36.0464485121748694	35.1478788820130816
30.4376336057278642	35.5293580980261723	37.4420666731505278
31.9171047914493933	35.8143704604082771	33.3902539670938694
31.9970118955731166	32.1523158469443118	34.6124410077506823
35.8304114181518401	36.0527300084674280	30.6252690841255841
35.9275777205199844	32.4267708045333620	34.2965458021673939
33.6703594855801782	32.4317302154708500	34.0294070178736376
33.7064785321589042	32.0987293105330522	30.8898282123620511
35.4035032860346135	36.5243892514575705	35.9038624648436056
32.4574394621274891	34.2224509232099621	34.1487788333465758
19.8030111488843623	33.1920130149292874	34.8168502596321048
22.4855678163233854	36.0549578056742988	37.2651602933664279
21.7338656606370115	32.3330922504841638	35.3898009359169166
19.5167863460103774	33.7572621647285303	37.0596450161871331
23.7429536986288987	32.5149017399794005	34.1840790500127554
21.7529018860817800	33.0743665536080869	33.7308824973659966
19.8783193732270824	35.8432934671017662	33.2907593180129240
23.8420871297707215	32.2884656858305590	31.8789354902493542
17.8221643063498973	34.9519399573235106	33.7395737819534816
21.1861910830890423	36.0601868337805485	34.7948199549346668
4.5321419875331719	26.9800215833575372	5.1158343960170489
22.2189888694474860	36.3305896343545669	33.3376816451104432
23.1207260699076613	35.6170603704676410	31.7412225259895777
17.9550363378241862	32.8373131472258351	33.6119401049252602
20.0516758712734031	31.9171543363442289	36.5736138114520060
23.2606208669163443	36.0520430575988584	35.3040460846018078
21.6198780981614327	34.0892528088449609	31.6219534570163709
19.9526240666713690	34.4417270462889462	30.2378244686699347
41.7808459252083892	27.9514035052522587	4.0832900169421311
22.1817027500241259	26.0564338706543879	40.2988612306589786
22.4744467264359180	27.4988485492331343	37.2399459107159885
24.1161520862469025	25.7748464276904237	39.6597089956644382
21.5455823350278450	25.8425392353640646	36.4761373834424916
18.5317147249202918	26.8274846523847756	41.8057873917295666
20.0117195203304377	26.3623877222244332	40.2494297352448385
23.7424799160282269	32.2714203699007811	38.5254505155576012
20.9314140478667738	26.7700659726001824	38.7364775883229129
19.9049657691857398	25.1528532760487735	36.8467392822349922
38.1605395406044181	4.1164982030224726	3.4970945076300466
21.3758588227076203	29.4072439181296872	37.9069667700690403
24.2408045127522520	23.9571222249088791	39.5904067007315135
0.8649227136513398	28.4496008006050722	3.2126533073427481
2.0138362096542686	30.2584904005727502	4.1534138253288546
4.5502161868403643	24.9943272293549050	4.7855646621756547
0.9370405308376180	32.1126632772362015	3.5251410918597790
1.9567353696600156	26.4651777539830846	3.6371426680123555
1.2670196569065817	27.6891810333751778	1.0717249289061634
34.7487540734584783	28.4105369458784054	33.3499025186521862
39.1415334154896613	27.1807971906414423	39.3679332507503048
32.4068459116135230	27.1389798800471382	35.9130414708924945
34.3451794465708105	29.9847158206384634	36.9437500038643662
30.4449347759929445	30.6256035529639163	33.0113857283146146
34.0682534288119712	26.6413432393896379	37.6269982960583249
33.4947721437024057	28.6939626735210922	34.8519666154268677
35.4515895816909818	29.4670771711095583	35.1166332763860396
37.6389830100034075	29.4114881919600109	35.2517131428214157
33.1315946262260184	27.4237750050730718	33.6803185376969196
41.9604736065891970	27.1472520687642280	36.7737320632400824
39.2993257575696191	25.3473369474792598	38.6482614358468481
40.4290400861548633	28.2627672218347890	40.3576465676758218
37.5681629976472991	29.7672243316127236	42.2144679104357365
37.4447501484315879	28.3555152536542359	38.9939830420176747
37.9544533811839031	25.0031006620740577	37.0203203461004264
30.6035622198321988	24.0691695030970898	37.7265944076738862
28.9947103752255764	29.9449082979376300	34.6293259537962541
30.1540717796525009	29.4580049141143938	36.5970969853992969
30.6671627029452480	30.5230868732708061	35.1713110084132126
30.9888080779013642	0.5909688365732121	6.7571847857217531
33.0916392651140185	6.5191506245968629	4.6737902178433206
39.9058504904057614	26.4609620192754704	37.2518452846168486
40.1182734288127634	31.0317793554756314	37.9609782589560325
37.4131447209227872	30.0154323463189812	39.6966464264268879
17.1143925975490170	28.6098927463688035	3.3775603521499380
38.5630479735793301	27.8241968197814877	41.3807661674693321
42.3193696729563271	27.4963023564615199	39.9278138852250493
28.2995027422226038	26.1693906165811896	34.1746210507016599
31.2263019926122531	31.4401690480093130	36.6514186583656851
32.7029013659887227	25.3982985376944477	31.2796488475632053
36.4644413522131714	29.4086623900196216	33.4093111910189648
34.4895592970906719	26.6545846243598135	32.1155402384009747
32.0373041001279191	29.6946391527120142	37.0491974978708569
32.2333340507346051	29.4980145378748873	33.2681168767056263
35.6170128610488348	29.2863606890305697	31.5003473086374228
41.0565672725298398	26.8617194003707809	38.7329316581144099
21.6270434316130675	26.5885000313055819	0.5723636274681656
25.3226511260919658	28.7579270111572818	31.6263614839728966
28.0468789761836774	26.7275604666831832	35.8988632214289325
33.0986389872052911	42.9639226072155083	2.9760980697942157
34.8313654207354659	5.4344088319978088	4.9380524436685258
23.8763553568192499	26.7885717006888164	2.6397446701492187
20.8821411677901452	28.5146254601077302	1.0886626626241440
22.5432841546059031	26.0516928860339902	4.4292384746228386
18.8659495876625769	25.7574659209135852	0.9088571025197715
18.6315587074202575	26.8593998619680789	2.6632487153607629
26.8780024405408717	30.2477711576417576	34.1896855984105130
31.1249134375765095	41.7970567814029224	5.5304602557767764
33.5451497090627555	4.6725045232370164	6.0211377627952629
31.4191363091903035	0.7421997047625100	3.4859188393233445
36.4119183019054589	6.3257279267128856	1.4713410903537287
33.5682071284647776	42.8908118586119542	0.9703056814315878
31.5763082584980666	7.5158776358679411	5.1830733488595602
33.3293136870317923	1.5132874058892312	1.8247166883971742
35.4764327883182631	0.5586213443197772	4.1369961871772132
32.1032348068006215	3.4096384786211780	5.5956690180576638
26.7390651573192528	25.3380112916357270	33.1752494324712544
27.1794037429034248	29.6522305986632340	31.7960775976971135
28.4046448827425877	25.8097336052189270	32.0187508456268333
26.5003937409617372	28.4327919439348520	33.1246766400260455
28.2704115443844337	27.9318321823104938	31.8421939567274066
37.7953881792925586	26.4161680889571606	38.1483611365557493
37.2505149797364510	24.7965000951141654	38.9475028337537736
38.3640510082650366	31.5819557298117779	38.7826045770560413
15.5210181194723074	29.4243922618660676	4.2740195659119991
32.7689567520683980	2.2764478613104466	3.6498324379131017
32.0238002812765288	6.6011208064941664	6.7155170452292055
33.1709666206516260	5.9235486193186970	1.2975239721686076
34.8024593301058900	42.5501823598737872	2.2697844095826132
33.2575740073989650	0.7137157126662819	4.7724822465507666
30.8270164371994539	24.4113979316145340	31.3061969943581779
30.1190548508680784	26.8553541876510593	35.5126414919123334
27.3727020838663968	29.5259973034838090	35.9529216421328854
41.0795083921805926	4.3517042970722013	1.0294934322585321
1.7186792924831031	34.9746447127998081	35.7626318805427772
3.6281069082190527	34.1108872123678353	33.1072869321796617
0.0224554099169110	30.9941799877763096	32.9523576197796544
2.1318045982725509	33.3270987585285496	31.7222438000781963
39.1593386512733730	5.9201868747461184	4.2023023869425771
41.0487122655206349	0.3601392068074759	1.5726941511017001
36.6215971179502091	0.8412774412510107	6.0868084037066641
40.2581685285647666	4.5850007168522486	3.2166356408719396
1.3308855178930636	3.1213925985180411	5.0212719631369991
2.8546795587453970	31.2750164881692818	35.2195212240903786
34.8428900849487349	25.3214492996955869	39.1465298225094571
33.9387784807080877	25.7622452575439169	41.8588668612681545
34.2452271581148793	28.6254748951337632	38.6559200983061544
30.1497187743864963	30.2231354965934038	41.8858515476978610
35.8803911141648300	26.0314774688472568	41.1630849792524316
30.7378770429845360	28.4130837960945861	41.0469452842000919
35.8814311209872443	30.6140487058133104	41.2302553492839223
32.6649714672322347	27.8062655549543614	37.7689509888634802
4.2189006973471930	35.9914109672468996	32.2025870836889041
42.9190698508039716	0.8890240547503492	1.8078448126859752
41.9029734738984843	5.1599389005011380	2.6629643895118891
8.3250576900508548	24.3768694360026892	5.3007818007430680
12.7516567020162750	27.9432741617695726	2.0097246003919005
9.8334181741489388	27.5464979066164659	3.3465205694086873
37.6578075616338950	1.4586679189962488	0.1591606318209944
40.8229715360380254	6.1799802435883757	1.6210656821051774
41.7157398020658619	42.2182289816483944	2.8572874533995010
34.7256151152677361	30.2665240540244120	39.2776606307478957
3.2465894786988136	33.7073270592412229	35.2052256648371227
5.5590137757287934	33.6595255512595486	36.4561585553577387
3.4900076264115492	37.1669126915833559	33.5237316100671379
1.4287817937061327	32.8322302673814335	36.3133651708923466
0.1929426392712259	32.8288548439895607	34.0806779665344948
3.9891295535500451	35.3148613408563747	35.8742330512831558
4.7730003710346818	35.6725670540206963	33.9503252402165998
2.9797022295137578	32.4485088194866265	33.4547163333128523
11.7098737253671334	29.8324485482450186	1.1360809749558856
40.2287689547021685	26.8960147692032869	32.2428198444486185
42.5512501347918786	26.0023339045177266	34.9899094210531914
40.8690353205329586	25.7381355876964300	35.5526494400890627
17.3300092684081122	26.3822662304281366	0.1653822275221251
16.6963303568722417	26.7481036979099152	3.2609876148302286
16.3723599331572700	24.9605881889982406	3.8991419397205118
17.2255001342298399	28.0294856297062260	1.6243466582802306
15.7021870868007483	26.9277279432837915	1.4020819996234604
11.5202654621865062	26.1583759141154246	1.0703094389300265
38.2255476397891982	26.6142861972431426	33.4631703751073601
14.6017846717552544	25.2897076790880249	2.0890225248087062
13.8915421544251725	28.6763336395361996	3.7466999075588738
14.4693380093194364	25.7435549214268917	0.1775436411890877
17.2803456812634941	25.2300515218040253	2.0585179593455574
17.2704495565431593	29.5593879110618190	4.9415979686387317
14.0241052826782937	23.7069179402793111	1.1240600153828246
17.2990389996160303	25.7461730492741090	7.0050067707177996
15.4421818409893579	28.4807892534686111	2.4353820807588162
36.7224540421173273	26.7353661517585302	31.7830785313515669
34.2932153730794838	29.3517227611989924	40.8304747372078580
35.0970690358033437	27.6097316630580991	41.9693515953335989
38.7597471955732331	25.9508926790253831	35.5042379022721946
37.1505191166632542	25.3329545075048443	34.8566504150132133
41.6044727825499763	29.5508895721653282	33.2212352275541605
42.5884747653367270	29.8543755287338826	31.4885174977843150
39.5681898329095034	29.3180336995024113	34.0229455095919064
39.1832986445537585	29.7172209977319781	36.1917866846157281
42.2268821846925135	20.2403850034593304	5.3263885269892963
0.8282418001126147	26.9297378733943233	31.2622386659869100
37.2999673200905093	31.3812944018417141	33.0974232660445296
38.6089999265615234	27.7260953190455091	32.0816433501310172
37.7362007575780893	30.0162370212860168	37.5421742495459014
36.7485336078602955	28.4315804213790635	41.0403112053790480
35.8860662694214341	25.2982650073620974	37.5111570064165605
42.1807282029112471	26.1692955406732395	31.6529146628340463
40.3213443400024687	29.7486486731052935	31.9605604478367944
25.6507107114726018	40.7448040072810969	31.5669727582526463
6.4570158532071540	9.9928075042537916	3.0053011177750402
9.4310071119653163	11.4915735763290296	3.8235108702940708
12.2466793272855252	10.6273343744383997	2.0270909943459361
26.9958051036879354	38.9196613309467949	31.0726839003753170
26.5312110784441231	37.5792792407873861	36.5720373378319934
27.0903256631979836	37.8597125862170003	34.5022503325355601
25.8543951554912610	39.1960190798417116	35.4101120171656589
29.3419254753581491	41.9678728803705638	36.4994269881328535
28.5913220913993626	40.6820912163366444	35.3764360230238708
10.4253825276666241	9.5464161517788906	2.5292796451100030
27.7262320341413542	39.0394489884482709	36.3981445926341038
28.8783716854820511	39.6158550042776980	29.9983677560243258
26.5351315153327683	41.5909136639183430	33.2963148957002630
27.3640248600431519	39.6799825161667030	34.3536309085740399
26.8438426295758283	40.7317029619334079	36.1425631974240247
29.3084637779591262	42.8162948259445457	34.8535168115952843
22.6751981828235252	20.7557801375776947	2.0475977038064821
19.0070363478003124	22.3946266474082130	2.8042871184733404
11.6553315335337473	7.9456840519385032	4.6218692137061490
12.9073552431448242	20.5881977074508598	4.6477323920571481
18.2429526573868657	23.6824735401988740	4.4832620283040781
42.9369325202621752	29.5155070526649297	40.5416617933275703
2.5842785198589611	28.6035682322574480	42.7093044314106791
3.5456715084614707	27.8867593630947752	40.6676347961906615
11.4899971244063472	9.0838658919920690	6.0809240432453278
10.9118636266601214	11.2287698608009983	5.6129517019203492
12.1156821210964676	6.8676380055439292	1.2450789358552625
11.0528029077109071	6.2960594345539738	3.1271297866656873
19.8378847910728346	22.9107491461156627	5.9082366724687967
10.1934357058192475	12.9165683108431182	4.6351435388153348
9.2802500434764781	5.5053358577583875	3.6962031211149751
12.4189158378229205	8.8475776655886964	1.8079768060694228
8.4809373943619377	9.8509042765755339	3.7177974879450111
8.4013737372958968	9.3921970586946077	5.7724548283442525
7.8714843697541150	11.2167330293679370	5.1925291939197766
10.1217245944894483	9.4249270875346856	4.8649677168321572
8.1425866892913419	6.4657296235797421	5.2891238631045487
10.6863788229779235	29.7386873092104587	39.0714410654958257
23.9551470807021119	39.8053465913428397	32.2238335461259666
20.0348361652289029	39.4067638864222332	33.1972814859318035
20.0247804581318292	39.5850479943743210	35.5725440385453027
23.3682662839980217	37.6652211913950410	31.8960528621883519
22.0713405599666146	40.0747877011316760	33.2639351616002088
20.2636624989923817	41.2901375939292379	33.1990337965528965
6.4254909043859776	10.0417169920315583	6.1436688914959223
7.4353327474883297	8.2529893009079274	3.9843069498321491
9.4159445081916271	25.9641536620845876	39.0731333820879598
20.3801502764935307	41.5125849128735851	35.2528669121618421
21.2193782294811157	37.5491782346890375	36.0331440438463346
18.6774222167448158	40.0780836301380745	34.2197957819301379
24.0058018036092875	41.3927298424379160	30.6856074747865399
10.7686248217891247	29.6021287684825261	42.1487914316944767
9.9086436308445229	27.9949720483893714	38.3603644536280797
8.9850999480106370	29.3173009465173529	36.9635189001894844
9.6046526405008184	24.2595268377716486	40.5669592608717480
9.3927892039246768	26.1707296491726318	41.2056828673114524
19.1477854071234397	21.8464605723776231	4.5986327421699009
19.3562327654630231	18.9658880002294410	1.0387681054482873
23.0452991767922875	22.8306168578304245	1.8512969030110071
23.1096891972446485	22.8248495172491523	42.1215919270477528
25.1721626896921045	23.0393137986404213	1.8648616684096755
19.2153114840665147	18.1629634685192087	4.2386987256237330
20.2314574344609959	23.2368135597102814	3.8292203887827982
23.9841679642692611	21.5162730195532852	0.7681918988012346
21.6994259560758422	24.7257856280991639	42.2088890986507934
15.7648965390285518	22.3195945549630679	6.5828021579984259
23.2294962924682942	17.8691032432511960	3.0897800155023916
22.2661926096999743	24.6813255621249006	5.8100709666194650
21.2654841081360466	22.5765108763418461	2.1938515407090708
19.8887294053689381	37.9575238092577081	34.8002871041184179
17.7847428519409441	42.4112194766831863	37.8088446443632051
24.3271482727833721	42.5172355470348080	34.2805102750628308
20.5111251399678842	38.0347286302740599	31.4477584518895554
26.4474480188591627	39.4708207106622169	32.7573808724284277
41.3442812677807723	0.1062542598285567	32.6891372438068331
41.8346887920988380	37.0124363020977469	34.4972884841357228
42.7992630538991250	42.9492592763451029	31.4148197151681003
39.9363049824227545	38.7656727217975785	37.3429057560190998
39.5606700972275362	38.2268622043598540	33.0556572673933076
39.4750591810406064	36.6195247113308682	34.5268532305178013
39.1636170857227981	41.4919271431447072	35.9030638866655210
38.0905526531313114	39.5263343735172157	32.3134892664577791
39.9594550951308563	38.9321195853756805	34.6520244417489849
38.2366506568750850	38.0036551457498959	34.7339014765331271
39.8128115816458532	23.3799793326480376	38.4834610966647475
42.7955823311898769	38.0367564782426584	32.6961759376010761
41.3727409544246854	41.7750647332570324	36.2371216711216917
38.8609825730077176	40.6471948937655867	34.0971281058350968
41.5549076383450355	39.3714775580403753	33.4250476911141305
42.3023125024048881	40.9580279389543804	34.9454105467462313
37.2263486675645296	41.7184069849949566	32.1238376154814134
40.4192293724873863	42.2017598984255642	34.4900588616244121
38.4382762971869525	39.6246491140406505	35.8996805298261350
40.0169227816580175	20.5822560639446124	38.5602617874689670
4.3034067449920235	5.6587899243918516	41.3214466005725427
1.4914423673531649	5.0693065377802364	1.2430995462979875
2.8089201066127663	1.1705329472067341	37.7314338656538624
0.4636150337138402	1.2011729528131683	40.8268744675887447
37.8815017528799416	25.8097026138384926	41.5005072346236972
40.7436898801095211	20.8273862062513508	0.2692448003608591
0.5333282262798452	21.8071364507534149	39.1084274785326613
39.7443117335227498	19.0371969902670948	37.5845342424009132
13.5950461536854128	21.8774133217764373	42.9309909888289738
39.2686475970968090	24.0088500577733548	42.1751148361211037
1.0696241565241864	3.2072754385461022	34.9100819706425156
4.7429266925116247	4.9265020968390125	39.2403657247759270
1.4253895732922930	0.9021492047288739	39.1037896738548341
3.4099216661078087	4.0244207866175863	40.3678290345737523
5.6077837859567401	3.2046740088458638	41.8036271564717126
4.8436963376933164	1.8980365013441227	0.1925669293907665
3.7363504079722505	3.2858641769209807	38.4193735360663382
31.7475865811594673	37.4316434366964046	37.2146377770101253
4.1415171690384458	26.9063125900981959	38.7292978404648807
15.7923960273974302	20.6718005217016092	5.5481357960643853
37.0311510305009080	37.8792866262784429	36.3242816668103004
34.2401818882065143	38.6196426881663157	31.5739558243760037
36.1702930715203408	39.3462477906725709	31.1427295405390083
29.2144508043491271	38.9113749742633601	34.2403499859277360
33.9809298405620481	41.3184981806266620	34.1552477466962756
34.8445889611116684	39.9748377347240194	35.7340084919973933
30.9900581589226221	42.9500633542589156	32.4970370308753687
0.5102616009325912	28.8920687354544441	36.9767153834583482
33.9751205590989329	39.5807694631218894	33.7381758291257086
33.6733301522488588	36.9383728200419554	36.8978925895388912
30.9832121885140062	37.8478988758017181	33.1607448420235897
35.2476480494613824	39.5056063830782946	37.4759562838604481
33.0286089013951241	42.6120934798413202	32.5499620349663132
32.2057652673035264	41.2089338005188779	33.7200989669297684
32.6823165269514462	39.0867908057885245	32.3353919420715172
12.1717449404775540	24.8114347170764233	2.4864581031101549
13.4701806210241077	22.5572017994371095	5.0897904273619048
16.1200520072669633	23.4014519962340799	3.0317203493125509
15.9794806336221420	24.2033536856084233	7.1124973143535186
12.2996797520195855	24.0367835645530299	4.5143750696529166
15.9852393520246086	19.5724433327840757	4.1308568616522559
15.1752608136180687	23.6738717089752981	5.0556386113427791
17.6061982324220025	19.0970868824631133	3.0748182744248971
12.8132307803219714	20.2417677726835699	0.8007255021698836
13.9137861716234905	23.9280341683437392	3.4314617608700111
5.8478966536593520	30.3243913930862092	38.7313559324253163
15.5660788843308904	21.2896162394591499	3.3447043915802710
17.2965250085616482	21.9835680976440813	3.9038908595032167
14.1537156332577521	19.6920561685941315	3.4276350784237266
14.3585171040315522	20.4897211196418176	1.6813266480855535
14.9826068264149352	18.4691096762690457	5.2307604541079389
4.7850817954088480	28.7208016834502722	39.3151906305649845
4.1692305122812341	29.9714047044286431	37.8053565422167281
4.1656310875058677	30.8618112916028871	39.4064780598789639
0.4580131354500151	39.6706655455707846	31.9093258702148077
3.3815159980444891	40.8273923298130512	35.4230002822507402
2.6322043951540359	40.0141271752992651	31.4381876519931609
6.1957827588522987	37.9340884928281525	31.5648878757457005
1.8726314923385314	41.7506397642416829	32.6302789511937874
4.5831966527873176	39.2590560866011344	32.1310135884289494
0.2834561443589973	40.8035040188657163	36.9872714654716432
5.1539327865960942	36.9904419501188571	35.5406833972962417
4.0842868209773879	39.8139743303166611	30.1751560683943438
0.2666612461570835	38.2479864069085167	34.7259288481637398
1.9145719534172128	41.5923458750116524	36.1413907030925330
4.0536008833030168	38.6332044412997675	35.0927091036015923
2.1498418287990173	39.4804133214697330	35.1814586075308213
14.9464803623844240	27.1631436196349085	39.4601235275171476
17.4046595767689176	29.1753531861708737	39.2820452713434065
15.8245319311831931	29.2015231788828800	37.5337202160621715
38.8903161131294937	31.5257257440170520	31.8986947451503653
42.9555073516096328	35.0494318926881263	34.5905167336784203
36.9519363883064429	32.0225530446222990	36.0433795157044088
13.2389327909273842	25.8885074639931787	41.6716594236147060
32.7837822993337937	19.7435649692883892	3.3340262947410224
2.7401636653932768	12.0288367199610118	6.7369650846944342
3.1645616204925737	10.5857407376689583	1.5402584446680723
5.1734146677546997	37.7823274326443652	33.3523773565978559
2.5153277970929993	6.9790219989906319	4.6795971375567591
2.9854708692978522	8.4138662047276025	1.3434315364346725
1.6059572739694061	12.5591322118304980	2.7271463607385158
5.5497997400661934	5.9663499943446068	3.5980108445484138
41.5859127738057879	33.5818522321395889	34.4013144247142506
14.0785368716804893	27.6913586218325705	42.4119745384113500
13.9505117426244443	28.0252685979187994	37.8094088564897888
17.7325847016206986	28.8486479280144330	42.1621871410799685
12.4730476247114286	29.1143217781855448	41.8734687608564400
18.5115753041325455	23.3917349603613758	39.4511768809797587
18.8723776470093014	28.1260768660407763	40.3061093810666833
14.0628518740008666	29.2205776985059948	36.4014035511011613
17.5777612847549101	29.5832571204465111	37.3416512468808719
3.9363199159580216	11.5313592428391178	0.2174350075156522
4.3495139434495300	10.3944845059886646	6.1515035719671332
38.5853431628021823	24.2835093619313369	1.1192524871857907
37.6707652330078417	19.9076604180474170	4.2232972148292767
38.4508254213861136	23.9439178491650502	5.9225490534645191
40.3085893138802760	21.2267734640065271	2.1645660429942795
0.3946943047296952	23.0793130327507292	2.6114926021247737
1.7089315350430923	8.6911870154402564	4.8165079416359760
1.2810734221928453	10.7413719048212162	4.1560800881647504
5.3210019530611827	10.9416550719546635	41.6102900578716870
1.4525370628059062	6.9263727141121345	0.5984318634077842
5.1964988112404447	10.8763803003075470	1.9751902844267466
6.1872863520751995	12.0756144784581441	3.4539785390742126
19.2330275373930242	28.9395595940169841	38.3241836913618172
25.0938252629792657	29.5887352199978260	41.3003101775281749
22.9171989102619875	27.3411406492968041	39.0337441977714263
41.1570196992449695	24.1008681643717857	5.0176424638760988
41.0315833386031770	18.6308562237300208	2.9619604612270560
38.2578446434632866	21.3231773741502799	2.6583414743265235
40.6562289943353150	35.2218792717703906	33.1690026883580344
40.9158156949080194	35.4139813233799146	34.9346603219018732
37.4705265002490293	36.1590426217541463	35.3773807323859586
42.4617169924134430	32.1229515001389530	35.8594358121953434
38.1380452110270411	32.8854885269997865	33.7019857746006153
16.5343134660007500	26.6275223965815790	41.0710655426617279
42.0345371148413562	35.2971315928076166	37.3005643878476647
38.9141894143868541	34.6743085769610389	34.9477969481924262
41.6740508908440646	36.4813028888292976	31.9992162159079001
30.0171379798072984	18.8012350573249485	4.9734706900462431
38.9463103267192423	32.7853920493196043	35.4862071005908959
41.2650714260286477	34.7772067718333631	31.0387277077729458
39.9267095114844111	35.5870771046083760	36.6221132727615952
12.9543568568725220	26.8446521387502415	39.2841387258193819
16.1914029274449369	24.7991924862171587	35.8404118793839501
0.1537783191793327	7.2048334595887873	4.5582501737141774
0.3226357042584889	11.7423968996984200	5.7598167791235859
42.9592071089406602	10.7073433352578729	2.5216748660238317
14.2902784230387017	38.6577508197374442	34.4850751253199519
16.2125831997933005	0.3645130726101738	34.2473785572290055
14.6457840569138860	41.5902773321196051	32.3456986911376632
16.8368339606648121	0.0259290447523455	36.2220632631105914
13.6539146656708059	40.3096947658450162	35.9451232206989602
18.4400255578604764	40.8913610133549952	36.0159383289780521
13.2072067696023350	41.5763246992369702	34.0901177686789651
12.9187379380478919	37.9119795658655576	32.8938387153830050
18.9161305934897150	40.7130119318711579	32.1068958127023834
16.9903712408503189	41.4633011812236703	35.0896490985464098
18.8730085143569255	38.7611995240378562	31.4835273181446915
32.6938472285650121	22.7823671074089553	0.8385122673318233
7.0085238281900208	28.6604281663347038	38.9960399282194388
11.8528411721016482	25.8968896228668406	40.3524909991947780
7.3417941920692895	30.2902267508209064	37.5688202771834909
11.1966272569241312	26.7065943679759528	41.9531619752380678
32.2587196743239204	20.7417274552335265	1.3186862344770447
34.8200932486029728	22.5866011218237261	3.6882362469109267
34.9761340635089724	22.5373582854417656	1.4543072479204389
24.7747649141243365	22.9186699971636330	7.6130058845566966
7.4274833670464684	26.6712938233877779	38.2840342985381739
10.7415091581345745	27.4592288284126980	39.9001339495938296
8.0340999721143920	24.9164384433978476	41.4844325418693032
7.8138544976083804	26.7212838232120973	40.0419375767785226
28.7980282413559401	23.9536359106088277	5.3895514709991383
26.2510420062210024	17.2208810880917937	4.0465301968757119
26.8718640452638908	20.5452630379506473	4.1289981968022111
29.6323354496220723	23.9080319305738698	3.5553542454775426
33.3187562818843617	18.8406113711304037	7.0741071674940308
27.6503245282273795	18.1270271314441871	2.5323318760665323
28.2218944482659957	22.1744823327304772	3.2050269193956731
24.1727713649323412	19.4096133940802922	1.5006463710890467
25.9392959863745567	20.0957125530395260	0.3117557060025223
15.3043731408219585	37.1377021017195545	30.1462640407092977
16.4468654104187273	42.6471661608601167	31.5850498843673471
12.6201340260260402	41.3950532749032192	37.1932270513111050
12.7140944364669330	39.5149815064282848	34.3360285968683243
9.7256868796649432	39.7487616872009539	35.0175032882607056
7.9934182200435595	42.0026053495998610	34.1526508085075804
11.7414249757527731	41.0053602610376089	35.2767450526052997
9.7511972674186733	37.3908392742796423	31.0230443878807627
7.1039759567419152	37.1699588246588917	36.2434780008676043
9.5632285984242920	37.8411614065102739	38.0029017658900088
9.9754187993331609	41.9545028794953083	34.8586411930716409
11.9763966816597520	42.9060042040081342	35.4088731990992329
13.0933774527467062	40.6882160153204850	31.0865732681110565
0.1081015426145010	5.7042087059685214	5.9419777921383679
9.2068406418573385	40.7294738650625447	36.4674565790989931
30.4912229135005255	24.8046815253325228	5.0193133836855290
34.3794883678255161	18.5730697771602316	3.0245796946596850
36.1299807677586031	18.5321985153368409	4.0729561450549241
33.9729990118024645	18.6403403975462112	4.9970169994233666
29.7096013376506995	20.5853067632120066	6.4165776635024550
35.6168973645301108	19.9770322657537847	5.2064300905043899
34.3096323787104964	20.7474742591955774	6.8366650026529303
31.7731872997539746	20.9871765921289786	42.0504416591096657
10.1473113695645090	38.5634888674902143	36.3023226556788927
36.5118246581507933	22.2962124098947427	2.4889829187365424
5.0403843488865343	7.7045088595038038	0.8138125974707969
1.4250931158285611	7.0517364591349869	6.1792690021562322
4.4296493194414177	9.0816144048392804	2.2550818159742252
35.4247252453414490	22.0278487213806358	5.8193201336044291
32.7424056414360720	18.7470989417750182	1.6225565041376115
31.4964552329695024	24.8378885161947096	3.0438852272792989
9.6539041842854267	42.4612205314048694	30.8013269008663677
34.8244290086505188	5.9978215251402469	2.8840669361611981
8.3265916282422978	39.0527884341514664	36.9135179258438129
7.4531555418934330	40.8045801024287584	35.9477048522686573
11.5184469287358606	42.0762090249035268	31.7414269622831284
11.0044485336150792	40.7792957444462587	30.5840385342632644
11.4924248995595111	42.5911614707413264	33.7779201334115839
7.1769082868948955	39.9011663616875438	31.1376515148680042
8.1588483367137510	41.3500762789593708	31.5815510091252101
11.5702205298164742	0.2679803660068742	37.4518763021606063
5.5656566823617402	11.6075780536437261	20.2300476928532404
11.7427453987138186	6.7584923850245344	20.3848963634494211
10.3433668370434599	9.5334649166119938	19.0621228312273203
6.8161244810002355	5.8550624822171136	23.4974486354108407
6.9787086153579176	10.4488565269944846	19.9728032619198430
28.7818168438938820	34.3102408145539997	11.1846985667257943
28.4624835760676120	35.4460004820348686	6.9797700428796121
27.4229617711789544	32.5446062662286906	8.0168338456562243
28.2171474232315376	33.7654899473851415	9.2941567948493180
0.2125990257012634	6.3427799213440847	21.1338012061574929
0.7386872375842385	9.0761782141893104	17.9165866212772897
0.1968466916216343	9.1402132601757629	20.5042379666901908
9.1096241700926406	7.8158042774505665	24.0962705265742940
5.2230251260754983	7.9587735897346388	22.6354714581734520
1.4428471330716302	7.5984596831108835	16.6887749626663293
1.2974591315710626	8.4878464521865116	23.7560260578906295
4.8019810988606011	7.4455057353463152	18.1249218843764623
2.0959704734866529	10.3432837623196789	21.0040211908657639
5.5527310934902872	11.0415912368113425	18.3324951571253223
6.2240002308842657	11.0772335880069193	22.0162239350598803
6.0803770706799538	7.3599033945217309	24.6790397108550685
2.1342718155270100	9.1198120602036390	19.7027134646567070
4.5698605674569182	8.5970443390501519	24.4104547449905667
24.8059117127292481	35.9601007926346696	11.4126158265350686
19.2786151395561767	29.1828907895790408	6.8498255849591478
21.5556997623496649	32.8887028875840883	8.8396819720184840
25.9755397422649672	33.4313801965001005	8.5938388972924891
19.1395176528439137	35.1098087538432040	12.4241231325894201
17.8359780813200999	30.9856356497169863	7.5948444374524255
23.5488196754216759	33.3879655823760046	9.5502567323777470
23.2605930762830582	31.6471066068988520	8.9382694547630557
23.2045848206761107	35.8705908907084208	8.1715889227533545
18.9600251958209434	33.1893694337431100	11.8180447489848586
24.8783463984582696	36.2163746625210266	4.9313825229346433
2.9117820666030081	9.8038904176734967	24.3227988983382950
8.3243819102397065	6.5202111084734149	22.0904416644575008
11.1147353971779648	7.6217786813242068	22.0605442846634823
9.7732513767565461	10.9498077990353817	23.9811136633148436
10.1906808831467721	9.1148445946210597	23.3462483117530688
9.6924916703470370	6.9783242725152546	20.3765394665063049
6.5165641624257029	6.0666658646192362	17.9674387319245881
11.9152547712319059	10.2709026696944825	20.2889524527542591
7.7343524872066141	12.6618838545851489	22.3702771729561043
11.0015330624337739	10.7978309547360229	22.2687196122144968
8.3034526824924537	9.6601205744097172	23.7643548862953224
31.2542035312504716	31.2923926714224088	8.1845168535610942
42.7696597023243896	2.7008806898581876	23.3082768903657715
40.8432277214731059	3.3684037239947640	24.5856076962696655
38.2176277831796440	2.4677542813223252	22.4089359155810435
41.5132543758320907	0.9309248972799602	19.7385729322128540
0.1079201946894895	3.0367873309028655	21.5365884547917332
42.5626807787179260	2.9405493148443740	19.5320034300971912
39.8042304428075226	5.5230181770525970	21.4327339080064441
37.7933142684634973	1.0204765192979053	23.5909407826872695
37.0204917405698168	2.6428791006481296	20.2952585408591588
39.2520931107829156	3.9623735610607724	22.8827768123382498
38.3680695483463481	2.7630026249035486	24.4519533223530274
39.0957996503376251	7.2947706111543997	21.2374796305661526
37.9321271907591679	32.2250959579190237	11.0741318479095465
36.7999824544812171	35.1440206982565755	10.4204552137677329
35.9756476395040252	34.1330513733958938	7.1473021466816560
35.1239602248211042	6.1431449124883235	24.6205928660229603
32.0205204478781340	0.6299953666286674	18.2449640605098118
34.3905881899809174	2.3377350844447813	17.6911360079165370
34.8112135964181917	1.5119325536314878	20.9536171574380035
33.8761659004066402	1.7557417127080486	22.8502947059678689
36.3068480778199287	5.1223661116048094	21.8457285468695019
36.2449627484464116	1.9597242537392450	22.6322692875451636
29.5920717175700076	32.7703217001351064	8.0941761671989347
3.9233334383384197	9.1359181580432374	21.1185823728622886
2.6749426533330900	12.0398701794834047	19.9858589825172714
4.5289533246004092	9.7916220644538043	22.8525582311359017
26.6864723835705568	35.6069645510385300	10.5522174878954154
25.0694472696914694	34.2284625264485030	10.4526745033959934
28.2725449718795829	31.0755412822784756	7.4049828771276180
27.2973456062687632	36.3505241524905003	5.1836565538137060
30.7292088458375510	34.4450987208042818	11.1851232104550338
29.9591782765164396	36.0541252856281957	10.5588817104766299
27.8211720560011102	31.2616470349204967	11.2941106391174948
21.2459607151085557	29.7657092067657096	6.8558507642042921
26.5480636546669473	31.2499660231985494	9.9587940674485012
26.9132475384226346	33.2354976240174338	10.4906255432194229
29.9345228453760654	34.6844962501295413	9.3043266920855281
26.8377245399232791	36.2051317139593181	8.2610822857105024
36.4661799483762508	2.3493569256027249	24.5145177196823347
38.1316962687696446	5.5950882815503808	22.3729974839156966
37.3536829255607969	0.3445645643318460	21.9611075309938499
38.7722276215531991	3.8065255651239118	20.8316401869108496
37.9864745210661710	5.6233219876714413	20.5117881945925120
38.1287975359324136	3.4184717824377882	18.9013027054389759
15.5204148734581011	30.9358483156120450	10.8756905485357560
28.7840000971406198	8.5472738856425234	21.8850759012329945
30.0397524200270283	14.1732940069835998	20.2414184325536652
29.2548556632536929	7.4227007117096875	23.7888284769619496
25.5307797735561692	8.0860353997713919	18.9345938262388813
24.4722826053846312	8.2063932722667037	24.3652845064951293
27.6552161605044589	8.6230395938593798	19.8436235744601177
29.1033371086875157	9.6286107894153439	18.8005998209782454
26.1984186289461185	7.1494206398689375	24.3848879188399117
14.9316281487881870	31.3896586254108243	8.9354950449878761
17.2327690507029700	34.5663947858793037	10.0093846887294546
16.4098661489490389	36.4780374273324028	6.7670442935869985
25.4546068837524331	5.4107684478173992	20.4101093054257845
15.8355257377049341	33.1315853802747071	9.5620297268179542
12.9963080285826624	31.3328217976321000	8.8312774976466972
17.5778958176268141	32.6489010089923326	10.5390035000724129
15.7694569553884207	35.6074344668371907	14.9417944562540406
14.2786731706170578	32.5854324931200239	10.5175273328083172
16.2173995865753682	32.0839300351074783	7.7015625335689082
12.8738854943718835	35.4640766131616871	11.0577684981837034
18.9989638875520583	7.7227774556362192	22.1734810464205232
19.2069977860581176	12.7196291635260508	24.5943022545963288
21.6313377641848348	6.2596797224422769	19.0181463715146108
13.9838105077940131	35.2030916236273654	9.2303275992453671
31.7466054476338151	9.6007975515964308	22.3025986072582540
35.2253060880841034	10.2067993030137725	19.5452632254469130
33.3818761994865696	9.3823107569532294	18.8914839965937524
30.9018971617027667	11.0870645079715668	23.6835343646823873
35.5516971319984805	10.6119215049332638	21.5290504890703609
35.0017978784726367	7.4950127405626032	22.7507093460421039
36.9725669915162101	6.9730695426414711	21.3041451473027657
17.8430234570539490	32.9358530739071611	8.5900119606090790
11.9863239728511424	31.3411029844814202	10.9459912100757428
14.1977166556730978	31.6146082046580368	7.1317813521562181
23.1033482668883678	8.8087444593222823	23.2610824072804441
13.8624359923619966	33.2291465023349488	8.6092710722998813
16.8737896620177530	31.3261808851896646	9.3115381611036980
16.0180276332793881	36.0506488667427547	8.8123116211651951
14.6377274414217275	33.5725806098464830	12.3928329987009267
16.7513262820005231	33.8494035236938302	11.6447291198473764
13.8200273357032710	30.6681666647684601	10.2977305005839774
23.6067670330663653	11.1319437883912169	19.6173551573676690
28.2466637555534135	6.0528392289533306	24.5519141041840037
24.9359847032872999	11.5075069911189445	21.4549582852926477
24.4532805647732197	10.3163891650976272	23.4089745643492044
17.3580603011830128	9.7388621844704293	20.5068788055615450
15.7661572250531474	11.6716355223860884	19.1852653723601421
15.6340956794264727	6.8203111793960938	20.2294504767242813
14.2678078313689500	8.5390838670004907	22.8144570880192710
15.7151510470413101	10.8876954859511095	20.8056740278025458
13.2450755687750945	7.0499288024464493	21.8169585522192158
15.8963491757138424	9.1850036622843074	21.9717108067989315
16.8825129086214716	7.5976025900937589	21.3323620218195913
15.3791304262510877	6.9692084218743737	22.3235614939642986
14.0448740742157998	10.1489396889366343	19.6362120846354422
18.0589991929535074	8.3180952684361724	25.0867137662913535
12.3676453411328353	8.3073470214672582	23.2380503429907996
17.3655333721625738	10.7119005844822652	18.6030461370193301
16.9313705621215291	8.4335339676954835	19.2417079866790779
17.0812281737120628	12.6765757754432276	20.6540998237213955
17.4520498549051801	35.0898609040933636	8.2447989370299979
21.1473254742851289	35.2015606168607746	11.4221832349576360
25.8206712283997781	36.3013846475698116	6.4801690074549150
25.8893163986410926	34.6998816718380851	12.2444380554412451
22.8350667593952608	30.3491710439413716	12.2618123780526584
22.7599807239550529	30.2920067609693895	5.4371823906320316
21.7046971001915239	35.4936502459473857	7.0228742409114853
18.4949512153790643	9.2772163175885058	19.0059980878717134
24.0891711875102352	6.8208467080740913	19.9973666317740459
20.2578961031244624	7.3824608437730239	19.2333908774379339
23.7886268210333469	12.2078159288145240	24.4933860935210213
25.0388678221344385	6.0665641950236688	18.5385223077882877
22.6718510880616897	7.6063525694693777	21.7375476641759384
21.3297131592018872	11.7109080066055746	20.6865970402107422
22.3989553844571283	6.1265129475221753	20.7393786954404469
20.5047491505075641	6.7911896193940660	21.1671725022930701
18.4207558930953752	7.3935765861321263	18.1604145908638976
22.0280161861061750	9.6848258136464711	21.6378719685320817
32.9345191562919908	42.0646050098333006	25.1225832814363059
18.7177913812220709	7.8601723890203345	20.2768696416022500
23.1178957539924674	35.3391759724758359	10.2628141118262057
20.2541869371448939	33.9711417915362404	7.8267411721598217
23.8323351178903842	35.0684388321685674	6.3170866032039559
20.1841912699416994	33.2258776415133212	10.0022790024558468
20.1201167300642894	31.6065172560081251	11.5699287139180846
25.0262110459489620	32.4195800217308800	10.1704079530360385
21.6005023888250420	34.8005462136229369	8.9805259621350260
17.8069527505578158	32.5733882191681730	6.5230477272173806
12.4266831456620217	8.6745065489431035	19.5966717938882411
6.3059337771629851	3.8208375887994004	24.0997920149201050
5.2323360445095677	40.6040547799963392	9.1837407232664390
4.5622323639123694	37.9363300631189375	11.7359602552190161
4.9264503462973259	41.8511718164584252	7.1549034726201564
5.5824456295174167	42.9575465420819924	19.1505744018290578
1.4379791301962608	1.5963153827519376	22.5102755526531695
0.0869334911295176	1.0627138027371839	20.7863222166230699
1.4992752747070450	5.0071987446565087	22.1280108957757768
2.0263544093750228	5.7502596935506380	20.3614488940488485
0.3331318778111159	4.6819420226131898	20.4181005129815176
5.5386427663322335	1.4910203640646469	20.4258207270659966
4.8639917906431780	1.7504920059281497	18.4687037501256555
4.2091415340412395	39.0869920825288659	9.2208870402248717
7.1370963855324971	40.9957803623653732	9.4487950929775781
8.2120103253119368	39.7565312255730277	11.4219256469643522
11.0577600128827260	37.6556512270840997	11.7029676762594956
9.0877137463291788	40.6907373797913579	9.4135848929818859
10.4175772671137015	41.3666800801566055	6.0618592079616374
42.4141925118298673	42.2897122561862062	13.4701324168171119
42.3823787821742783	41.1029259070531481	18.5357235438961574
39.3145458033125905	38.8642116810788494	13.7144324291660862
0.5441241905032241	36.4618433260477630	16.3686081645086112
0.5574168023648529	37.6634899266490706	12.4794104411507849
7.2048793425703304	2.1317613206987329	21.4924169563458030
14.7578646781277723	1.2591747652948979	24.0991130142413823
11.5337437702394503	4.7157516920041234	19.5374366450335941
42.5393175159800805	32.5545291381778199	7.0075754022938597
37.2140102441660687	36.0051367728678997	12.3539547236995944
42.7980711813185266	32.8216811152913905	8.8524320081313821
6.3536040037410810	38.9617933359001611	9.7640495497417028
12.2220132029870356	6.0987755914795230	22.9916284333288523
10.5992797753175179	1.6130525214926168	20.1003904896520638
8.4221890287018990	6.4872618536300486	18.7375878672506140
6.2344510118291616	3.0411184337887094	19.7908091803557795
39.5647930295954922	40.2871366690921988	15.6424059544208287
8.3710678863309056	5.4062486971414367	20.3950573023659807
9.8703605210190091	4.0525943325555733	23.2896806208716178
8.4738058445948425	0.7112152508495875	22.3427494700840015
9.2735549548301037	1.3346316298265015	24.3882572287119395
2.6904779700131809	41.7345004211138786	6.9396173525057634
5.8542728350752551	38.9191465497482270	7.9559712276346710
6.8386803316673284	39.4288994076253587	13.1701798141093178
3.8311133130590496	36.9468470573470853	9.1071225145751580
5.1958929890026733	38.7107002025955325	6.1330241753577281
3.3339511333107645	41.0183787126270261	8.4732039912494415
11.8356241162429630	39.8229357958238879	11.2589961028693093
35.7326294293693181	38.3291597899927154	17.2935797738389496
32.4003949613205577	41.2735239779950760	14.9435530009534361
37.4615150346778805	38.7053649762464502	15.1143285999827608
36.4600238868982203	37.9602141777156419	13.0494119603475109
32.0293711070639091	37.2988754380138232	18.1279152496854010
31.6584767814889076	39.6403699940300527	14.5517623768204789
33.0949677796821078	38.6196101852166578	11.5188084207337518
32.5841992138514982	40.0925493836529299	16.4560976438121287
13.0196435220506022	41.7404284479588981	8.6508544503658449
17.5621951170324166	39.9159648050101836	10.5732996343951626
14.6585736508241382	40.8144515762430160	9.2046068588203980
33.7056756304799592	41.7013835927197007	16.4184503353521620
13.3140842892962290	40.7164716997288281	12.3657583637540718
18.1585769851483327	39.4618457018884499	8.7997182488068386
17.4669913905620895	35.9903263499979786	11.6327128687101720
25.9713478016984816	38.0587466671085224	17.0173847744564419
28.0052251892357305	39.0468777242144611	17.5462660459799764
30.6198656944865490	40.7336438027928125	15.7968797916298112
28.9541923594951918	40.7729771825249543	18.4612019090562072
30.6750838745848213	41.2738024639656871	13.7068261800293438
27.5927206477131719	39.1585503981170504	13.8981333643236873
28.5417879984352183	41.0591096656259396	14.9071815347609373
6.1216059996406003	37.1232555258681316	6.6553441468201298
40.4305885728340471	41.9638460374567330	12.9481462085152241
42.8192324447716857	38.1967562913061940	17.2019680957323366
40.4852523977783747	40.9188414366558746	17.6620533176231191
39.3870637614482817	39.3090812173851063	17.2522379799852530
1.2890449768329424	37.3894283717258773	14.6491236814720462
41.7441057755144556	40.5305448522359981	12.4351744249078813
36.5995535616070669	40.0012858532012956	16.0825851152415176
41.0479697863073270	38.9571233609258059	16.2691914910030775
37.9833903236111752	37.4432095472662354	13.8523539360924701
0.0426318022967825	39.9988221767851257	16.6451510906997058
12.6866070987751502	3.2357905850960695	20.4886014689505913
7.0223558206048171	37.3453169682642852	8.4796631883949516
11.0201032304834854	41.4120591322937983	9.7360283669312295
6.9769674350059008	41.8469276927195253	6.5582397564759587
9.9475726104966693	37.4441535727501389	6.9835363803221293
10.0642411666275802	40.7765725758276147	11.1509167457560103
7.0701749007047061	39.7838905182441920	6.6286367678262392
7.8700830986935388	37.7297660773622852	6.4162620792724425
8.6341290589467565	40.9390520285909858	7.6417982236908797
10.0568934951388052	38.8567368383399270	10.7983008704380925
7.8404844647760132	39.4989320673124027	8.5460069976526789
27.1094544569254907	1.7206966162510071	22.4467797240290174
33.8488057692704842	35.5655147238547613	9.5176184545725366
34.0977841531355423	34.5121410212148092	7.5857534786312693
24.3154341105941718	4.1535863606099941	21.5493204153025104
25.8997200066597095	0.4801340080580279	20.9090618496123710
24.8765343961464112	2.2877713908932193	20.7619822983499631
26.4666048433894971	3.3544713112727580	23.5060650148040793
28.9672526938228465	5.8580850475102633	22.4375659101414584
24.8589441357821457	2.0983574514741812	24.0876181069069446
26.3510759295663490	4.6586743445477756	21.7979555305030246
30.7403975349292544	2.2946351755754599	21.3452053544986740
26.4643742555383028	5.4648019753945647	25.3377283661505004
36.8390914873978872	33.9003198283138119	11.7953720235639228
25.4751934529768889	3.9413215278134994	25.1175070793856996
25.7074655711542661	5.2892068950473563	23.5353945923368109
30.6709451831486994	5.0680817117898895	21.0953262080546544
29.7180128706080993	4.3370917682624270	24.0817088173972884
25.6110870967600768	0.0599099802930138	23.1079471265110428
32.6363652946519878	34.9503682278465675	12.1996045791871257
36.7204962611240973	33.4029410869144812	9.2188059340893265
21.4829619210804417	4.0654545043983372	23.9361998200377286
21.5411075455703909	42.9278127921759136	20.4134778044371501
23.5022654789339605	4.9582775157500842	19.7334498252371731
35.8602099367846918	42.6936002780594848	20.8791561904105869
34.9448723169059505	6.4018175607429777	21.2899622152871721
30.9164873663859616	1.7812444592380789	19.6110633745406169
33.8888528118587473	3.1678687806641861	21.3640259013375591
32.7622555043490351	1.5962596511524845	20.9921167111307732
36.1300013950832266	3.8363646696158087	17.8810052208551902
33.6713532722698545	1.3637682030315676	19.1822207699773912
34.6493375541150925	3.0007129752069845	19.3900039154822856
34.6142196237137014	5.5382676608901402	23.0002535775702768
32.0405903358838842	5.0461445878078575	19.4556385708988557
37.4926586436155347	0.6273397911068207	20.0373101437126984
22.5269494906913863	0.1414993591653809	22.3422951473687625
35.0911779198846645	0.3815543889178197	22.6974281736376042
31.8382893005734253	35.6045142530357595	10.2771872473750552
34.3715692612282524	30.2990708204053227	7.7182688096202359
32.8629051298890786	34.0989370182372582	10.4459517090191856
35.5539808615739972	34.8808894964589484	9.1166381749562806
36.6492829801191391	36.7078091659307688	8.8277894143478299
32.6681885439221915	31.1283085135839173	7.0841374811409397
35.0076171698892367	34.2302505751819837	10.8747973676719294
34.3788735756733317	33.4261913984367567	5.7868325298374890
33.9792261965889821	32.4267470752718978	10.7530143112264742
15.0715881865269576	4.7953943040601459	18.8171628995877391
42.3032155652730779	33.0817670111248745	12.1017879163396689
37.3872938134089594	34.9462336120314561	8.0014502388236668
40.6049300844648258	35.6734264402683507	8.3915312094715819
38.9690206562539743	33.9217405599761079	11.6243243439583264
41.2857006993442539	32.5696574287880765	10.3589094107238626
14.4097925501382811	1.9572884401759869	22.2674635106174286
16.0687637817022875	5.2943678926299382	21.8917004572081026
14.6982243892158806	4.1518666076729769	20.6969595714836743
13.6159514244456314	7.2638468670455190	19.4359214693613289
16.6994370202659930	4.4549678271480309	20.2877200940754392
40.5691687231639548	35.0752909851450312	10.6730676458282137
15.6777470288125205	42.6934539819149492	19.3239436072246100
16.3788374025473402	2.4316973650258595	21.5883269075247171
12.9170214089524826	5.2146874482267247	20.9295089149463358
16.4157642398598895	5.2050063232621477	24.0087455711346500
16.7597399722729605	1.8976888278662090	23.5260287078116050
17.1291712353926684	3.3355248913887730	24.8892366920544212
17.5200229864660173	7.5759963259228682	23.2722190553726804
14.5036505596407483	4.0305103705891883	22.6654605097144319
12.9194394312470688	3.9990908146569870	18.3347169010399895
14.3997398211167624	42.9120928346903199	22.2955815251690410
19.5710067710354565	4.0184667514943904	23.2641910602624087
19.4111521134185274	42.9071734111909677	20.1970813722262612
21.8779956486461273	3.7894057678139146	22.1771129151164139
18.6192321788677546	3.8681778284576742	20.0829637673011092
19.7428407043856389	3.2869152291609676	21.4089960631315037
20.7298073286856379	2.6064884350605415	22.9266385635941710
18.2010633537983466	4.7668189747977365	21.9079416548359234
24.6395810699628868	1.0442222544463080	19.2243955700689177
22.6323100502336132	2.1921649681204061	24.4649083400295098
22.7738123802430756	0.8747225559951249	19.2569712509016604
19.3122281732967345	6.0799724570016576	22.9996899030793962
35.8151092041399153	8.3508421295715500	20.9214998143288895
18.1867789265496391	2.7431580158636573	22.8347552508425657
20.4936163709760919	42.7928097518864803	22.0597836519839419
21.3982219087176837	5.8744750030508062	22.5640074738258072
18.8160989794807278	1.8707791331890657	19.7935779847236724
39.2017528037273735	34.7061373915354210	9.4984895682206201
42.1951646753372458	34.5590768419751839	7.7375574607226065
0.9119085737851985	34.4731036887618387	8.9271445475150522
38.1261177290464417	31.7124081707756886	8.7161534609186457
38.7151649841652556	36.1713324293970544	8.1774221699451513
40.2233931646630865	36.7440718120811169	9.8894862765461689
29.2678207509382808	23.3486291381557045	19.3225526913398618
24.8182554344223654	18.9137903961243303	24.3707514497338131
29.5269678268708660	22.4696936407378907	23.1463301599961646
23.6545959105376333	19.1438357052453654	22.5227268074770670
26.1813270943113601	20.9139754141975018	18.8980748360260407
27.8915498305722487	21.2034143394467129	17.8966867041139075
27.5283593924547141	21.5643361404245191	22.5426390119076601
28.7710181314213216	17.3842831365531580	22.2254109484538951
29.7132845909332310	24.5608548347909910	22.2457861681166946
26.9548207782585969	16.7527212617185484	22.6643816127752942
26.8392838942998999	25.8583101882545812	24.8295121660547053
29.1719785476011850	22.5547607130760532	21.4433331587584100
29.7432403656083792	22.3280426189084515	17.5825906868022095
23.0379907924555241	29.2305537865953227	10.8080354662400744
24.7098811083451828	30.4141350262763765	10.7858983537482906
19.0735927879451488	27.5463421876116783	11.6853749754754581
21.2641086069860776	29.8828023981546202	10.8628739727997718
22.8378325842298615	29.5696701136005906	9.0562787633095336
21.3047959924342400	22.1361525649712405	20.2489168188023498
21.4691571472571887	22.7389083643265018	18.3271465739453632
20.0098580358180058	21.2096614642440819	23.4933633889934832
20.6215344842343704	20.0445323792530061	20.8488256089192880
21.1524069910436765	18.0543431242188035	20.0599409420952632
24.1858085133787029	27.8234679933907465	9.4341734663435357
32.1972016006023978	24.8225428757550119	23.7641418285879737
32.4392508928073440	20.1853754523528650	20.9940345077898591
36.8283234207827874	25.7032884823824830	22.1061339936348595
35.0461918277413744	19.0057757128728504	23.2425215592773284
32.5055505864730705	23.0591698177660476	19.7862651553769524
37.1143839850042383	18.7581742811751333	24.6049224689141504
31.6812866421575592	19.7363404616088118	19.0953117395445737
30.3699197726992942	22.0468247993244653	25.3412246329730699
34.5918101287968938	25.9695578207774460	21.5150256331170766
20.5057054989832359	27.9507413619608549	10.4655870842721441
19.5793332265389104	23.2661779991368967	19.5687232432690870
20.6628708383577795	28.1755296698948712	5.7723505021461143
21.4241267000190803	25.1553581197848395	12.2405454140501391
21.5250775631952749	28.6365414531189337	12.2369168562321029
20.6446039677322162	24.4709264676998295	7.0347625900434414
23.7235189657908201	25.9286581254989521	8.2698587977154485
18.6031801943918254	27.5093816602576027	6.7772309868114329
23.3315669976055950	30.2913163286672820	7.2383728313825575
22.7420410906501118	28.6837726320684894	6.3133913813084934
27.7885194321327376	22.3633223412995221	19.5524591579991203
28.1996496152935485	19.5802062746653469	26.5843207402372137
7.4554905155511904	21.2236085814845978	22.6005275967070460
27.5761019948684201	27.1069271872363977	7.3444143466744167
28.8735748504629406	28.4375626035399094	10.7759815856485872
28.6828570626433468	28.8709024061513624	6.9948216925616968
26.5263936352235348	29.9572486663535180	11.3123723469579058
30.7127057503009908	25.1616983962812810	11.4264315041389217
25.8854675935051617	26.8825327941377772	8.7776946933100533
12.1763562506791700	23.4666461231248675	20.6482820724027825
7.3774004626042453	22.6425747460610935	23.7919431663708494
8.1996188469524789	26.1436247495467811	20.2089807394703485
8.5674930580710313	22.9194089722596743	21.9457696580901214
8.9733277800951345	20.6933552664346401	19.4638378138300219
16.5748596059772488	21.1831927139752878	22.5706967046378040
7.8725850586869424	17.4109740662615700	20.7116656305855820
6.0607367974232025	17.8516053255743401	20.9087477582887011
11.9048269180897552	23.4469864353582551	24.3615334994982220
8.0150658790491178	19.6938580715089415	20.9344708971506002
10.2100043942101717	23.9700848691058148	21.4127575499008920
10.1743356031884016	22.4257773842991526	20.4165532600452657
6.9520199240249489	21.1380069941051616	20.6149166896314178
36.6529381324689822	25.6593875297039133	7.7916781363958538
5.3860479530225378	18.9738728369224532	22.2281133154587316
42.0560062891591500	19.2746282828879458	20.1261690888938176
12.3848040957265795	18.2577931970411456	19.5463644930712448
22.3063892521752756	23.4843569111415249	21.5666284264987205
23.2834607916307839	19.7758201639021394	20.3066607470457576
17.9991626993109399	23.8417276705959438	24.4742079599278135
22.0662811477654301	18.8757273995250152	21.6836480370574378
20.4676136364835983	24.5642592043685752	18.4267847157070648
21.6538809578836116	24.0051217738969314	19.6288699421466966
25.8564652086949565	28.9650569999357188	9.5540629642870361
27.5867756611729398	28.0404268977180529	8.8997298890913203
27.7889679750473100	29.6923942523945072	9.6397142126046305
29.0661807046478593	25.7854547154224818	6.1689562836442553
34.5473661901192912	21.1376652102272153	23.8900482578405402
17.6769164152989084	25.3113908459115464	22.7200518837264589
14.0981117181276794	19.0883368759101764	20.1481608494826361
12.9994461676546909	25.0791330116606339	21.6631549149956761
11.3327511804592316	18.6705207683216834	23.1784765767209748
12.5720347682834319	19.2046516923291151	21.4089820580729224
13.1259662636067773	21.4212649971427496	21.0905330795124151
16.0526597904410373	21.1645718267041154	20.3027034054377076
16.2658593169825174	22.8251561041540150	24.1101887278696907
13.2753688774982130	24.7835201974636199	19.5180598397688243
18.2868549116535668	19.9667766773773927	23.5613092616653965
6.9233550524217353	27.0270356621766084	19.2053938431045523
12.3502664150951720	25.1016213979394465	23.6664255051467691
8.9055821449008601	27.4652905013517667	9.5390947319239867
12.5870882063695468	29.0842718099050508	7.5167740182437033
8.2034794385145791	29.6183910704938143	10.0409112919447097
9.2575662975632618	30.9809632284557885	7.4870847973869701
5.4908627448895029	24.2412611607763573	6.3630878230835233
4.7058511617749419	31.5644316158544846	6.9997236362277855
10.7878003949627601	24.2693869411555454	9.0287798115469489
8.0074668717472282	26.2241227662978957	8.3087489687259932
12.3216081071354040	27.9017633042174893	11.1020322275109073
11.9792015483512344	26.9388444700882879	24.7629217478021246
11.7721873933500838	30.3694781167816146	20.1617010731178574
6.2124322999588806	27.5013939633955964	24.7945474124600693
7.4289694504963659	27.8185140515686093	21.0784410273856153
11.3362309471308862	30.8248013440419228	18.2383998908228229
9.0421248797664333	28.4749052334024952	22.9281917128585064
12.2403501635954886	28.3651216233855656	19.1186397588038588
9.5233462804973783	29.6551288289245818	18.7397008354225605
8.6072516932136001	29.2109022371146700	21.2854865598330534
10.9386560457513689	27.9838240526933149	25.8533703897909284
7.9133616552448736	28.8881109897711390	19.3694554641406889
10.0706719308728498	26.8501340087919544	23.9485581756700405
10.6201096346367052	29.6157759020374343	8.7965334573085201
19.8271657807038508	30.2397984655733225	23.4645268180376370
8.1212879220028000	26.9545260461930702	12.3270977278186802
7.4414634991964217	28.4076715875168659	8.9438489996676989
10.0312074259813802	26.1757309547847115	8.2892623072813993
8.8833203999306836	29.0854502391585150	11.9094494775052695
13.5565078508414221	28.8350990365643192	5.5963148519363548
12.8268517247756257	30.6144725525848003	5.9057871903365937
10.2888051989817804	25.7213146458483486	10.0330648379171166
6.6650821180983773	26.8156201699111314	9.3974216838329347
10.7180972482204346	29.0835549654372265	10.9993714461147576
7.6950894400811860	25.6873952647378836	18.0291142702587628
14.4967987094753727	29.7798307874228492	21.5263749508013831
13.2012487319769285	26.7612211255295378	23.1172911617478363
16.5413387625292465	28.4895349586523565	24.4265152271079202
17.2910899904276896	31.1671971896499578	19.3998510083621447
12.9938552213184160	28.4374618693352623	24.7430083618906984
17.5257234275312150	27.3819694479192393	22.6395902510426552
15.2403424498615152	25.6625676226557964	19.5955982711242456
14.9099367021784168	29.0393541964257089	25.7998324313306959
16.7401047590751482	26.1230698561806172	21.1694565608925878
16.8285697015192177	30.0932193115938951	21.0958241420405059
39.9839697512993268	19.2820544992217897	19.8870529595115002
15.8378334213469110	30.1949002395335135	7.6566207876566033
41.2659044515207825	25.5494314217635008	20.3218419012376152
39.1093273851434873	20.9805166465019894	20.4524364396017404
38.2836655339229708	20.1516997780993279	24.4624486352505741
42.9528897404858441	22.2732681944873399	18.0906593647295892
37.4474482846823520	16.8212534595450514	21.4290511823772327
40.9684497559840395	21.0908335805851976	19.3427792009619246
1.3323001485504147	23.4184632574532579	19.2554241983408794
0.1487243296139338	23.9335046489242558	20.7010064003477439
41.9416903707591615	20.5384385941935541	23.7053042624263313
16.3406016470788593	29.6096887645369904	9.2728621476946032
18.9861256108704062	25.7078080611577988	7.9556067267254997
37.5499246638486781	24.0982335762211655	20.8646959313297664
32.8058935379312473	25.5128528283135836	25.3399993049365051
30.8276751494007897	21.0546287796356708	21.9529095798311396
33.3725740692434414	24.9021026120547830	19.8510888028083201
31.6762697160109461	25.0675703693484415	19.1464722525679889
33.8001398883294044	21.1263416399451209	19.8067864566976155
33.9665254755027632	19.2823713170855626	19.7799204698343054
37.5747846511953441	23.4261331118798317	18.6922708501066488
32.7521010325734352	21.1993058691067944	22.8061416505260084
4.9656665171270378	27.0741535200020493	23.4335880016651892
10.2009016327671773	24.7873755120045942	23.4996519013215703
9.5362222636689147	27.4534005885778392	19.5608644257673774
6.7184933673174223	24.8014899999984770	19.2531109420578481
9.2091245422229466	27.1143935790487980	21.7446713037178725
14.2022130656184533	29.4052701981975133	8.6451208549978666
18.8926147065449221	26.3810072367104596	10.0261880236246164
12.1768564451268801	28.9106990931572909	9.3998257150401443
17.7767379406964672	24.9545703914887653	9.7224196718008304
13.9280079366196983	25.7353742874450155	7.8961890453097521
13.1998418021342765	27.4638919123950345	8.9651328974880791
2.4485051340378559	22.4433873992246404	21.3116390444273058
3.2788275208677953	26.5201270766339370	19.7795237212053294
4.1868046306292088	30.7303766738876440	24.2253009222139823
3.3905170696974376	24.7125433648121771	18.7092430142583481
1.6546448025108704	25.4041870289204965	19.6622654075552035
4.0623343408127974	28.5159355039952693	24.4271768972363859
2.3601954024410747	30.0254127502293038	20.5502299908938184
3.4484017451542468	28.2933969644225769	20.1410587106098937
1.9263217765257084	28.3923887478737491	19.1400859773992025
14.2426122270805724	24.6076461383249452	12.6809169740245586
12.2312726476449782	25.4110330876357438	8.6187420584038410
5.6869508043981840	16.7874323059129722	24.9694813341001911
13.8126152356691208	17.2469980953638782	20.4133242906879495
17.6173583660425805	12.9270787711222397	23.0087256474091575
2.4333611909371315	35.4683967820047386	8.8422588334273922
0.4414295722822325	34.0773248334569629	6.1395218681594761
1.2860118294515184	32.3106136988624755	7.3821058380317330
9.0480981557288871	12.8407228808841651	23.6528301335929996
12.5174829662930467	15.9559061526247650	20.4366728653685570
10.4162212136912959	13.4985260925473689	18.9163726249245094
12.1012401897539803	15.1605901252070847	23.9854717935704720
7.3372860077035682	11.4414407580729893	23.7364438305174090
9.6799786053709305	15.9021171487810129	21.1816603245610153
15.8481046651372477	17.8988902832329053	20.6070061199393244
8.2657434184183156	13.5012629282633192	18.3787916391866304
7.5125809037406190	18.1109174660001848	22.4499568895166526
9.3839108408125895	18.0103544358070202	21.4092125841551706
8.9003965753717473	13.8215491186444446	21.5277995466334922
6.2033466395952992	15.8478060241361423	20.6650292005945175
7.2207048636199778	13.1224852981967590	20.2687226143950028
7.7807218901566682	35.9166705300462681	7.2357170571726765
7.7717148337776267	33.5877403967435626	12.6146898389745008
12.0170954327212129	32.2796131033495399	12.8082565166925519
5.7598918940830686	34.9023710153848370	10.8142792731951438
5.2863845359314068	35.2994329450639626	8.8926186309098689
42.0895525260686441	29.1980265661271545	10.0355949841342955
38.7719558072132955	27.4714191431817625	10.1923185859429868
23.2653583808129341	13.0538097784005895	20.0228384324258073
21.2679276735262874	13.9755642262072275	20.1029049844243204
21.8214415202375172	12.6384710014665558	19.0013758991494299
22.3486964083017341	13.6786864982985730	21.9033858149770850
24.6383184985093635	17.4224710273949519	23.1118221075880221
20.9991768768611173	16.2260339593996115	20.0453179885040882
24.5236187284779916	13.6698164731710694	18.3440670997811743
0.1915311394319331	36.1295721188665908	9.1487771214453648
9.7622261694347685	35.5656974337967497	7.4850857726377562
0.4348925580118114	30.6834629769034493	8.1685487649380040
5.5309460482779391	37.0725528430535718	9.9896437012267825
4.5303237884594605	36.1130324265545397	11.7191270593679313
3.1441894157968910	36.6790868968665862	7.2098295130712486
4.6987569307752093	33.2742108391588189	5.8518055303074954
2.1203841907324796	33.0738564891506286	8.8623683826428312
12.8746835489192808	16.2884980049426815	18.3625665738940853
15.1270452208764841	16.2840598987421963	23.6651293394468212
16.6937959495786714	16.9004621708017311	22.4603695984927541
17.2138981813627510	14.3096688114613517	18.9782231367939254
40.0791595312568987	11.7014497290379751	21.4164140895766835
6.4998183355871388	34.3212056738081372	7.5156447098463692
42.4700553546149777	10.3690141137629457	18.8809275260719112
42.5169701205537507	7.5041481972766144	22.6939499182464601
41.4883572876416764	12.0757178797956790	17.4827502686110705
40.8137898780819057	6.7942334652773955	24.1154383071433891
39.1615239284983545	9.1433326473404133	22.2287535475732092
39.8889188451394858	10.3614333493681610	24.1103175300184560
37.3232185684396782	10.3929023638264155	18.8295384449504937
41.7573681734916278	13.0449099982426997	20.9276307417505549
42.1645527042794370	8.3115171822460692	19.0281867714949833
8.9991149719392318	36.8892093132041197	8.8648588430280508
41.3030501971983242	7.1264078841972509	20.8991160309331114
36.6089665415246088	9.5532077201830337	23.3988393385128468
12.2570445356322999	34.6599199049215230	9.1016739893495551
16.9766969345484071	34.6479261883027974	5.9075826024485130
33.3199668388612267	7.8934342917500899	22.1048426936463436
36.1687561854391575	8.7527037644675332	19.0454122650847104
31.6515189650650441	11.7925934937717365	22.1982896021834826
35.0692994826725268	10.4449069028612058	23.8656946307958613
37.9146662890343009	8.8060862493396677	20.4865089499109096
33.5219072020898707	9.2685282123328463	23.2840054843955322
2.9631820197896417	15.7810480725067368	22.1804264592240195
8.8644723526873932	32.2813426004717741	11.9087528142886310
8.0293972779651508	35.7546680242956256	13.3246543515738249
9.7703548908841160	30.6937395601369971	11.2555626965980533
42.5347087801434114	18.9956184398746935	22.1188075516360705
4.5039541824009746	15.4045803437840014	19.5498085220619799
5.1933506141569072	13.2593591451688333	20.9262758397591035
1.5913417690473128	18.5298772580362758	21.4289445975552120
2.3928559796549282	18.2966585994538633	19.3850550716876668
3.6757781272552190	17.0455842411566110	18.4635968427948747
0.8881730430083813	12.0888247718970891	20.8163262486357752
39.2640887729812604	25.6997920288824524	10.3783458874237340
3.9724526223703376	15.9363165739121371	23.8892441018519897
4.6374658515032587	12.9062166242430099	22.8730234794985741
4.7567769001459412	14.9271893245269887	21.9388685714489604
1.7638360174983529	13.4144062169204439	24.6984525689313834
3.3784199749004049	13.7676771520506378	18.6083245476440453
5.2625228305713314	17.5628716984873243	19.0502121273627729
1.9300834077223088	12.6658468707080623	18.4333641080491724
0.6730639174579296	15.6930043430332873	22.2868727357405731
6.1376756962032495	12.9483724759001682	18.7906645531326930
7.2167746122894521	35.5268680153034424	9.1343210933763537
38.9403585726121619	14.7453024929062018	23.2920137093213349
42.8902302479813358	16.4597026878222010	19.3735634245664023
39.6566273012611958	15.5796562650865678	18.7004800525053483
39.8811075116190352	13.3866932812451758	22.0089449663216534
38.8237243281710107	17.8076150117412269	20.7376304141595575
41.4780353671244910	16.1258730606823413	18.2843683545274978
38.6371926254105489	16.6301583066252370	22.8399186689223193
40.7689100440048264	14.0334279658233321	23.8015235323782974
36.8170770190990382	15.4435474973413545	23.1286940726417924
39.9648342753805821	17.5757220138719852	19.0702403642887859
40.9842218701629548	17.8790342072940298	20.9026865400055328
38.8448454131003160	14.5700142845213083	19.9696740305273757
34.9701221888541625	27.4528387900935478	9.5757037150220228
41.9809923728542955	13.4586037848043674	18.9570823087057718
42.1031765631800212	15.6501902269289506	23.9264820386565411
41.1512855620296563	14.9780254697585793	19.9777757637501665
32.0478105259811628	17.6132013446175328	22.8255310699975595
33.3633589217394828	13.2561825267600213	18.8250912793556680
33.0127171969578015	12.9446364806616021	20.7832244314618109
36.5020780553088997	17.7850917304893308	20.2325203089994758
37.7761727266516374	17.2556653811468479	18.9850240483944432
33.8057523398349034	17.0879088726861710	19.3827230335284497
33.5482869288409304	17.0852401181558768	21.9788234689601190
31.7690945606941639	26.6539039887238083	11.4347076044704909
0.9006759513701142	21.9944649251531388	20.2008613710055123
4.3208360343087477	23.4282458125038602	17.8276134703174769
3.6892229008584438	18.9187614818197964	18.2116583716872498
0.6863905679950640	22.9947135023462614	22.1632784886031153
4.7494602304690261	21.9677416685818692	20.9174591044903799
3.5500374849466660	18.9710173557183452	22.2840168600894124
3.2091064437040000	22.7797698053556914	19.7006205358136128
1.5172626984787878	19.5610044457709584	22.9515091300936795
4.3120816400948341	18.8579678110314397	20.2628325473295305
35.1145233384073663	29.4742004583547121	9.1418148509670161
36.1103149712777522	17.2753575018704915	22.6016242513315859
34.9772815472934440	25.3899123944601293	7.1064666303278692
29.4923740181559140	28.8601579953579517	12.8020541981007128
31.4004601092353290	29.8341272078834692	6.2925015467369789
33.5831120372967078	27.2348951465726650	10.7168641831264413
33.2357522234445781	30.9210695322661877	9.2104152515507760
36.8526711130273270	28.1937847539295561	9.0225770249353516
33.4017564292312201	26.2799723214089376	8.6559513823948979
36.5450440650643245	29.7309562271346195	7.6310414524009742
32.3987277612756586	25.1460892652999917	9.9563028660881798
35.5060795720102007	26.3408369238923150	11.2711509454958865
24.3243947248424952	13.5286577305584323	21.6990648539373971
40.4592786872446553	30.6227401933265142	10.6360332883834463
27.2840996885093894	12.3906825193226773	20.6548421813093483
29.3050135494765094	12.5821303910941129	20.5855865010672332
24.9503155372927310	15.3121646382457879	22.0660286738475584
28.7001546465845614	16.0408742951669865	24.0945229522666295
27.6726118135473982	16.4777505736604013	20.6578343330204319
27.9485361191767510	14.2635515239603059	21.0772370148472241
25.0874384812280162	12.1756396464571051	23.1293426876012376
24.9311961108515661	14.0653983474338045	23.7562911478173078
25.4496263978222323	15.9984234033095305	23.8835020141867354
40.4915123840956497	28.7280371477897631	11.1580294337913113
24.5493928241265955	14.5325254089286613	19.9688531550359620
30.0373507895956031	17.3058935042117490	23.5542688557233397
26.1153133276618767	13.5311288034088406	21.9548217260633578
25.1560840948641626	12.4087991594633085	19.7979957269228990
30.0463114438317831	15.3409407817865908	18.6513805713422123
23.9071979467327900	15.7307946519689779	18.3291303059778805
28.0657814139713793	16.4271519885454502	18.3929965160130777
39.9753188460894222	26.2697519258286150	8.5264784076220632
37.9530153522636979	26.4896100523883078	8.8328597832621476
42.1268393847688785	30.9573052744511976	9.5430565827793856
32.4560766596628838	18.2599759481513466	20.5796395814582773
34.4192757826575644	15.6105584154990034	18.4820787730808291
34.1312126317141349	17.0232680484729606	23.7193512733785994
34.4021416091072680	14.2269598746154937	20.0556172083931195
35.2564365412536702	15.7170959739820848	24.6546853753167312
36.2722024401143841	18.4570584146900138	18.1160540978942919
35.8641830030531210	16.7345680233176743	18.4486845311917982
37.9941099780846301	15.4579144839890184	17.9370113243645157
35.4343232444568415	17.7759756345112052	25.0721505937287574
34.6079901038975564	12.0694229335671821	19.9984170378950914
30.6801724200598436	13.2569825377284953	23.5195661325652701
24.3545314076003017	35.6678224371820676	13.5209829394218168
32.7625409238837264	14.9766131527151760	18.8864765784642508
38.1323982199307281	12.8882663339768513	21.3854345944046287
34.5549479304665255	15.2662090112424718	23.0964829306377482
31.4992311371136964	13.5823368480686089	19.2337150226840201
41.4152212094817997	24.9121746918677403	8.2524739490324759
42.8812242407397619	28.6592723922248318	11.5761168792247666
37.2168558842682415	27.7070920406776331	7.2091288467153465
38.9298693749742100	30.2794884212801421	11.8488915939658526
41.1701460441751550	24.5026343922057954	10.4154930422045719
39.1116185676291934	30.6432806806420608	6.8792559467200904
15.7425283044642619	21.7225158235026647	16.7866377285968547
18.6549639339524056	22.1315716607949291	14.2456329906624077
22.1683550372239324	18.4787786378830674	11.8254736513949776
18.5811775168777764	23.7939836155010056	13.2318512846574077
19.7216552765631512	23.9566336337547909	14.8698021235700626
22.5362416065180859	22.2004888435009704	14.5160208251177636
24.2168216387007895	20.2191106244255003	18.8093018681887578
41.4345055175802202	0.7365699156110712	14.0323912818663938
37.8242552787776916	1.9609551177594993	11.5672346580886085
41.2786885268021493	2.8195315140992618	13.9721038541574032
41.7963256031023249	4.5717148465183666	13.6582699912874812
14.7027629996157820	20.4366707230241609	18.5945088322213046
19.9070775285840078	17.8827016676898687	13.7547465408805163
11.8512126733056871	19.0415654135746415	12.0510181463982402
13.9385638241351089	21.2096399447148478	16.7630801181097446
12.9295555689256947	23.5314071970260841	14.9330136486484548
19.2126553384886449	18.7441546740451592	11.9831302599651295
14.9286928521905544	21.1741380913157116	15.0292983634079551
16.4805832561822285	22.4508358412833182	14.8300274560044762
17.4804313073371951	22.2501234449877749	12.9085364025391680
14.7659941533078545	23.0365367549241000	13.9494384479441091
11.9435751874524456	21.8072121628966649	15.6650516043255941
13.0988578655364876	19.6419660748908278	18.2454771455523179
38.1152384533721431	1.1475636932596820	15.2050653105725626
29.3373771500790212	19.1231176424143996	13.2232488753563615
31.3024077880894787	18.9765931279803084	12.8125935200862937
30.6568667179881551	20.6341341305970403	13.8806904968324201
39.9090654059161167	1.5292725302547248	15.1393453002922893
36.9602834059974370	4.3774409014668763	13.9488428396304283
41.3474722983184790	4.4469392907971095	18.1855662369032842
38.7830189594736510	3.3791424246154915	15.2836317112326761
36.7977568715178975	4.3158051182723600	15.9691838785307247
36.6464181329987539	0.1032470059724144	11.5219012213952485
37.8371113940088293	2.4402966991110451	16.5067616650076836
14.7957689319101888	22.9692560797334018	15.9164527832896230
39.3452471726833224	1.4851742522969233	19.2542281359294591
19.7550333853958762	19.4486620547590228	16.5248680514608175
22.6664982319336836	21.1083661734889745	19.1992155262266735
21.2959468834371037	22.8056388363593463	16.0129479626588669
24.1567070601192029	21.2643102319311765	14.4322273050887215
21.3721010506924927	20.7251917428661621	15.5502122076417439
21.1520074865488041	18.7802591795641014	15.2688480914968050
22.6805605621714150	19.6837111725829566	13.7062699060021362
22.5345928709120571	23.8614593134763666	17.3403537978161957
18.7568649308342827	20.4106790907851448	12.8053012842363767
2.4152793807449782	19.6397502100007557	16.6892480161029511
1.1025128495150729	7.8109826638166400	13.3310091655668312
4.5322204153365613	9.8700518527239502	16.8109805270193533
5.7906578374129953	8.2799052519550411	15.9894987778105566
6.6244893136910123	6.7746827673961869	14.5793532329555084
2.3551852045232109	7.8401758092976976	14.9171928263569935
3.4367052953644990	7.1328257418473653	16.5969003514238693
42.6876891364700128	10.7600723431946577	17.1126169131654891
2.6534972213468317	6.7885534554652915	13.3511223209487397
4.8596887269876250	11.9721404547608508	14.7541464218601597
4.6545574878076721	21.3299815692702666	15.1371132679129730
5.0152827556158837	19.9863287525239137	13.4207507720073291
2.7852993262894388	9.0354448893232053	13.4028364327980380
6.3215847220605772	19.9471592638322015	14.6675546187161636
3.7642493170617173	24.0704818357162758	13.7726983619824175
1.4708040051223314	21.8606890017373274	16.4711893363136319
3.8165976774091428	24.9520832163681874	16.4995186919727921
4.0373339923376239	20.7442880767243629	16.9764230934660532
2.6374568899215576	23.4721718407694944	15.3777275152067219
7.1217021918713632	10.9774589093847244	14.3180493349542104
7.6301952711077998	7.7481263841053236	17.3487102782557265
8.6480601956815644	7.7113979142386677	14.1004867005196495
9.8601095436603412	7.6809814067227657	18.1987027477989329
11.7956425424583031	18.0342492000445240	17.6891193902969341
1.4577794034356193	10.6490614553999041	18.5526537390277149
3.8866150959994425	9.1553484770604001	15.2741995753068078
3.2220305073531148	11.1340821865701294	13.5192876400718891
0.3539272121433904	9.1737346232779231	15.9587962716038358
3.3942662995731023	11.2190642148261777	16.0048975018597339
0.1825735884992594	7.4075054318933269	15.1800200764809645
2.4823680088720139	9.1261235508898384	16.5602226246406339
11.1119584424899056	23.5639462010409702	14.4785948132494777
9.8767090190652915	22.3482151588394657	15.3849294953134699
10.3782101409315004	23.2048845217152220	12.3974501492423599
28.4344837790036209	18.3483922137515165	14.6829179978947995
8.3303283456965431	23.9322377158125335	17.7259613111571070
5.6461482534384153	22.2762976880098833	16.6217938793288660
11.8620284005965111	24.8387276536268899	17.8543383278831307
10.3719264237161166	20.5928339292031310	16.4609645936527187
7.8682487053670176	22.2987250619028146	16.3206677970298557
6.7757096878517524	23.4717383085769633	15.4010094625641170
6.2267647855171449	24.1443712962686057	17.2393742028504207
8.7230328859814676	23.7232950323889682	14.9602694076497347
6.9673264389784197	19.6718405077189082	12.5584123002937318
12.2229785129470852	24.0463714934022725	13.0819013898696763
5.0419898496270932	26.4497933086728381	15.3906547976085726
29.1281201622524755	42.5898005678842466	18.5401021564378574
28.1690216782982468	0.3171944030837570	15.2405205517773865
27.3147763027885233	4.1661714671378771	14.1709839366529557
30.7740168534881633	2.0295525654027911	15.7982493036886780
5.4635482598546368	25.3277047451339463	13.8644390301310310
3.0947706988583241	25.4377471163413560	14.8952308981673927
0.8628857623777393	28.7245111072350738	17.3208716753238541
4.5009132057793559	28.5631211110532419	14.6283469203496299
1.0566559000373079	28.2589293452782648	13.4973523537991245
3.2506822664520296	28.8674218028698348	12.9212377791164084
1.8583155332448378	24.7677123079100348	13.1622032589091891
28.1200427360982772	2.0529774123785867	14.0741074145841445
1.0859980199513888	27.1848449943516144	15.5476922706444665
0.4093318284204819	25.6677600033623143	17.0581600299282776
42.6273147480617212	25.5006572382333161	15.4861282498521859
39.1512344382082560	23.9090794494916103	17.1421365885820087
37.3456668330968640	21.7180575308527111	13.6192155896905369
39.0693568899067145	20.8840445023620838	13.1064966939925451
40.5532990944114218	20.1339077017729871	13.8335562275616208
0.7115118869282889	23.5719331911359475	16.3712313719726090
0.0838680835912328	20.8972157144572002	12.7924232713132326
39.7268539315379741	23.2866075518938302	15.5382933293741736
29.8883595481014552	5.1314061582036024	16.3779314637496327
10.5295672315602413	28.9806302928419690	14.6202361567347925
7.9355803276262717	29.7108616902013623	17.5387560060421492
9.1497454607192150	24.9663986137859268	12.4689004911822963
8.0903777928172875	28.9356544540586285	15.8763960814510696
6.9021700379081947	25.2677403164151571	15.3660113983234083
7.7685883110415253	30.5882227484089029	13.1724200697050584
10.9688311491249646	28.8977930809087979	12.8192121260746301
27.9967438712720735	4.3840766217609151	16.3353697073304396
29.8186972788060451	1.3370046885233584	14.0618078999262242
30.1526338868755488	1.5091745239038847	17.7464497714322285
37.1605773511942132	20.3457199184674664	18.0135992430464853
29.0317173035201677	2.9186700695596457	16.5292418409869377
28.7502620867519063	1.0814688768117937	12.1488496112211379
25.3512758808192835	5.4044550084384131	14.5689811692172508
26.9327806489300272	2.7092191502810197	15.5729190611638462
31.6873056458511186	4.2985076223816980	11.8471620853813491
28.8204215995948303	5.4171332619049695	14.7350722267575076
26.1392185374141768	1.0662145360891138	16.1054163699945470
26.8931924824411652	5.8007150821675779	15.3192352561265892
25.0453977204137530	2.9089503810045545	17.9270086311264301
30.6122018087067538	41.7812630782424748	11.9744967315079460
36.3904121808761545	2.4870692344095615	15.0968260344839216
32.8125911220785866	24.8761833118802187	17.5962342274922854
38.3663287498655592	21.9073571744413407	11.7333979281420859
30.2356202419308318	19.3359437399457761	17.6051672628026701
36.2966414443574692	22.1939179200018337	17.4964230160570757
36.6243851328754175	21.6711720999316420	15.2785964725862318
35.4058505225751645	20.4689895507713580	18.5404815791197883
31.9637875426610591	21.1416786827609009	15.3157583255588445
30.5912958397878612	24.1728983532833333	17.8679145219224758
32.4095844330863940	3.3094448460771226	16.3081229294221401
35.2056916238940047	3.7370739758270015	14.4638615493436458
31.2319070669413641	20.9141988238470837	17.1857356962691519
25.5630061476021275	19.7013630251471312	17.3325923882760442
28.2581419065510175	19.6829757035189736	16.4431637145434912
27.4509922082474844	18.7572935336926001	12.9003079520530299
28.4486843398346139	23.4664040960768396	14.7966462275616273
28.1506167303908761	22.3651535842421438	16.3195489762879866
24.0728023735367458	22.9447460153166602	15.9066710073645012
28.4491294657401106	20.2114065043851774	14.3548395685439658
26.3688142399972207	23.2197488441880857	15.8320499083202506
30.0685360332487690	21.9181235901324669	15.5993419100453163
26.6638855309431406	21.0250506667327919	16.2648369761461637
32.7616624864946289	1.5383275195594985	16.4971593847848048
0.3558139334900400	24.5960580644949474	11.4364309106129181
40.8756684188256258	22.5746631257859143	17.4199708681582379
38.9170098594572309	18.8904752244520289	18.2093997689686447
38.9160069807770341	21.5298385404300525	14.8736814711548639
31.3845668317803828	4.4164130625131000	17.8805012671739689
32.5728737426956911	5.3472922983085382	13.3218415176926754
34.2767287391084423	2.1793145129241887	14.0648118537682461
33.2116521214104097	4.7314859310951753	17.3729671090051987
33.8020195198111111	0.2526532768060749	17.6856700714657364
31.0125417364771039	5.7305084535388611	14.7497259619230814
6.8483704403878765	8.6181179870081603	14.3888236431044767
35.2627213348932429	5.6122979962504678	16.8377908423631695
32.6788268997534530	2.8464193253053800	18.1214843039600382
32.0577628180044982	2.0867342654361165	14.4755429341918926
35.4221756713911660	3.4064001046033687	12.5400783508037890
33.8754240302548340	4.7980036806676782	15.6465624985652791
29.9056797858674415	18.5384689625040515	16.0166008728373797
34.2532741752066698	24.5633274232101293	10.5874168834926650
35.0673365459099315	18.2760218539651689	11.4255323300745744
33.4624166542416219	20.2734562956830793	16.0102654543737906
35.1891770730164950	18.6044802932002398	13.3005474674822572
23.7946673483487530	12.7736011990026039	16.6073014354798794
27.0338751743978669	7.8216828706955726	12.8013864220829188
24.1696613793841912	9.7002522451560544	18.1235796886058331
27.3822170268792959	5.8597844484041248	13.4131492575039601
29.9097898443587944	7.1198468016194187	15.3274816736702029
30.0523267038327973	9.0243308850279149	14.5481114086808638
25.9882405421918321	6.9994215804741362	16.8968339967182963
26.5927655533880625	10.5130204998695529	12.1975285183963038
27.8127822635155866	7.4195291431144810	14.5296138998146400
29.7058531151180816	10.4787192289320874	13.5587233376445013
29.3884211094300980	7.6519339322172639	13.4363987251370851
24.9696334985295216	7.7203137140569025	12.8218106665824951
3.9930818970976723	15.4355260901486009	17.5104208015066689
29.0850482282731519	12.1598412249468186	14.2805091569451328
27.1711040477054411	8.5357677773445761	18.0653268744202009
3.3073082521134411	18.5065425400709422	12.9582092484793669
2.1890687108705733	16.9059386872766453	13.6231481931659673
2.6733002523593119	17.5499801796497223	17.0832323198630860
5.1196796303216745	12.0137310576889735	16.8638920350769865
4.3907401653421845	16.3027474598247970	15.7967056882240726
2.1023764285255266	14.9325597781861088	14.3292626711365489
5.5587089332888899	15.2678508868172518	14.2134301726446157
3.0146420142803683	18.1006202124098223	15.2003246881810110
10.3782864419348879	19.4185916155852212	18.2460059554111957
13.6835724878166438	12.3611738610960771	13.1266114420899083
14.3723378093913965	17.2043486253390370	15.1513627646846771
18.0319553571745459	11.2568479114184949	13.8142432515299465
16.3183729556639285	16.8609642561998925	15.7039496974773041
25.6878643274083629	7.4882080076711866	14.8858346591421782
27.5776953815099759	11.7638320066665187	13.3627170969160183
30.2968392753975699	11.9582227609229346	15.6792324414142534
27.9314493134072954	9.7011399874556083	13.6184912037253909
25.9883749159680981	9.1875909457946960	13.6456676014809908
6.8278530388267695	14.2754033179961173	12.7270076030702537
2.2521745529762298	12.8797445895399107	16.6726541527937613
9.6631190092158921	15.2892550384186041	15.2514995877086097
7.5179777599744648	14.8672159662358965	14.5364680110830129
10.6743753096315785	15.9554432384870672	13.3571591312481086
8.6882530695549889	19.6745009200584455	17.5673645518096677
11.3785442143993816	12.4128180468338698	13.3859817034765349
6.2601486416290237	13.3327202416999349	15.0525121817515082
5.6889338307158548	14.7456414733574412	16.1604044808434111
7.7934787407460258	18.7020934056486183	15.9662911642498138
10.1138632513908178	14.2972112282624959	17.3137242859883536
9.8307348889483652	18.4699431413935464	16.7594411298550980
31.3683780506267524	9.8476318010640931	18.6678707763630598
38.2935218788292246	5.3864002091811480	15.3551903758708459
38.0345359149986137	10.5170341395542479	14.7491415408392950
37.9386201433437691	10.4532483535658525	16.8790197553577350
39.6942941747757345	9.3097834583604904	11.8847645125654058
38.4975894644854222	5.8540357905389451	13.4638725877219070
37.0755018893723545	10.1556565311511129	11.9350995968363112
33.1638679970682588	10.0175060767697612	12.1547644847023317
33.9812303534325864	11.2442773256049922	18.2166713871319317
36.1590715970109713	9.6779640075322142	17.4830951288119572
36.4735118342897877	11.6345603333749512	17.2223762956373143
31.2103200306331239	9.1549297328058152	13.1140434973416973
42.0262032071432543	12.5978740755946319	11.4395315437137643
31.6434365442864944	7.8258911210789153	15.3103912010707734
31.4779243799580968	6.5843568875241436	16.6202175257286058
30.8249072005735592	6.0102787780028413	12.6578327929390504
33.6264902548226061	7.3252280219559873	16.3398353164815404
31.9299987795012576	11.0185569145678439	16.8308587568197261
31.1946829056107795	11.0293470484131575	14.4087911228681484
35.1404890690653318	7.9311673203054980	17.1283485042390353
34.6944372816921103	5.5572189917583623	13.8004181085491329
30.6855288229760106	6.1702948384032670	18.2090821058510173
36.2122290977943422	5.3005371401758854	12.3474256310748647
39.7135517138856855	5.4641155535094308	16.8410601748166542
4.1824612238349923	17.0187959919062415	14.1278297067366267
3.0090478388150084	12.8063266752450300	14.7901989338656250
29.1726614695502917	11.9189035101287892	12.1572945293141483
36.1753182319057771	10.7545971746596827	15.6787667730710680
30.3590223569734157	11.0715842297771534	17.7713116571513936
35.2438436743002939	10.6907307872222308	11.6239756477886154
31.9897123434291295	8.0596817017462055	17.9147808790668890
33.6455687070849194	9.5363993432346685	16.5436569881292392
37.9539292388288558	6.5677971903607775	16.7776640821000562
37.8177910054165380	4.8244846288599685	17.4108463049815931
17.0682928529618394	12.6894924215528722	13.1530151072448511
40.3845518606170728	9.4333627397623907	13.8463434615248193
42.4717420882379670	7.7600979845963671	16.9087183460528507
40.1463566537943706	5.8419114018782228	14.6575405174744891
37.8505410733484382	8.7777079030604117	16.1770077651780397
41.5723522659256375	12.7613304354554700	13.6265999538533702
39.8912943601816821	11.4578686194490444	14.4841544230327344
40.9657458671494297	10.7689293980447935	11.6500545130770945
39.9332924967666614	7.6590415442563460	13.5946630410789879
41.4700400799772098	8.7310453382660249	15.1443781293424546
41.6897319718312289	10.6697260470761890	15.5502365826670221
15.0797640941256876	9.2387448913052115	16.2206842499036021
31.5520515002479947	13.2117329929162981	14.7965253967069881
36.7794102268634688	12.2677756453015334	14.8827441958132400
34.8357498800980423	16.6292062036894279	14.2885860915766862
37.2111219419084449	17.2437216289970507	16.9340817029589097
36.1725216804227259	17.0010713950323478	13.0519195117972213
32.3429618548315005	15.4082329077145683	11.9331167621894476
36.7087826529009149	13.5428841241780926	13.0166406795927365
18.0030339587201560	10.2065253208337356	15.6485278078082839
13.7474996046839930	8.8186583986840024	17.9351120798342976
12.1949077886843398	7.5530345818456954	17.8733681355206500
17.8063869764064187	9.2818109959945581	17.2950702952886459
32.5853182016616856	14.4912981143307071	14.0260229910101355
14.0322781776654377	8.2403228987642425	14.2113915869202430
13.0635097646975833	8.4813440708471575	16.1363155846144757
27.8364732564428294	13.6038144060635773	13.3301927251223784
30.0657053588843759	17.5249496251032610	14.0271191202717915
26.9136382809668859	16.1782899263586692	16.3518122098680863
25.5631655799993780	15.9829885056292262	14.5550461189629594
26.8245482576682157	14.5977449862550905	15.0394346604352478
24.0497297146395184	14.2663489683535190	14.9339299462867352
26.8235830769552130	13.9985368137673891	11.5783581329479368
30.7084452786731106	15.2763254246912368	14.1332933010565434
39.4194798858729527	15.5306244609588564	14.7491146906060564
9.1856207548418194	11.7246605842820912	13.6947567874019906
41.5754893390643758	14.2034004320049672	17.1050839875678449
38.2036357404116771	17.1761834151239654	15.4078941770916185
39.8827161691021175	15.1624396736077980	16.7208429345117828
39.0630896564088772	14.7884496636438492	12.5822482997996623
41.4061614881358935	15.8814654111781230	15.6497574162191295
41.2072688590676037	19.0772033270129207	18.5082585328274618
0.3523036107731832	16.0963422166270114	14.3690949490962776
42.8853895413545700	15.4861209028237141	17.2797554303438048
0.1822203373149453	13.2151606899946668	17.2696372649833343
28.5754447494670458	13.5613453251179141	15.3613295571984363
38.9806278880259711	16.9530817530630529	17.5055878534143403
38.0550875212422781	15.9860193996223874	13.5765944125654237
8.3741446031679256	9.7508955799498587	13.7122923809039232
11.0353709641063418	8.7034792258154390	17.1742411761723126
5.9884206753915716	12.9640140583849579	11.0768551704203873
8.9645624907133108	9.2633055844051917	17.8905489474464403
35.2988565445579709	16.7756105888771430	16.6603411672839350
31.9700649764843661	19.2210260192692992	16.4410028940845407
36.0853137148940704	17.6539245604101431	15.1031335448744386
33.0009250294608236	13.8528581970401827	16.1777972916933450
17.3596843823115208	15.8126955566362568	10.9125541408813973
20.0277168154363352	17.1623009128495774	18.5886739338037792
18.9654314487729607	13.4463884592255916	13.2884791020404851
18.5705480762452204	10.9977171980156747	17.2314136526917636
18.0376241834046560	9.0896045344985179	14.0589185130537278
24.3259612318268417	6.7840210358282373	15.8861990457991435
19.0349226224598951	8.3212090579686819	15.6918386043506253
19.3975252796735980	7.3930661723130875	13.8674172784098211
18.0060354187202378	12.7164822788158887	18.6441200179763129
25.2391548874728144	8.6787965271414524	16.9961066152669567
21.4758417724516235	12.9723252323693021	16.8936745226760614
22.1314306655941770	16.9595681927116928	18.5413017770938389
18.5677578402891044	17.5125307155904437	17.0824247796562538
19.7850219999421277	15.4831937506649844	13.7202087997022506
12.8702225310538232	16.4428426894435482	16.5555978544822118
16.7554856668873882	16.0639425490988366	17.4034736077309979
13.0917468058726598	14.4713523304797498	16.8361477763582208
15.2544822388010193	13.2211022362581048	14.1925699896461079
13.4412633435538780	13.0784599245879463	15.1199106124366551
18.2671836602561655	14.8477481849320547	17.5995752363709528
16.2378638943546747	14.6905480702153604	13.8984161123053873
14.6487277445571298	14.7535455474098338	15.5104622245395927
16.8998661526250622	8.4202311820648941	15.8183723439484538
25.4130699198156549	13.5095076943380157	16.2330129066293729
27.9130007486342713	15.5383463454094688	12.0410187741691992
25.8252468273697033	12.9021866572134183	12.8549034088937297
26.8876998188607352	12.7624580828164902	14.7387601309630707
26.5611263616646447	17.0439749766974167	12.8664167396030997
25.4740401039861801	18.0625757064506480	13.9233489630720566
12.8880249616187506	11.2909547256712806	14.2314745726940703
16.4564699271523587	10.9118566290973149	16.9629759730582563
15.3142700049510356	10.1171465953643942	18.1236062464947736
15.9851274604851650	8.6000886421943097	14.1343899192679210
7.1245806330179544	27.8492261713321518	17.5792567500185655
21.5190330552762283	11.0712202631644807	13.8076589549864099
20.2431670232056682	6.5741457966487626	15.4157482843958142
23.9560084637839239	10.6478617767352848	16.4764897884637875
20.4462925032062373	7.1190714073600940	17.1467521536648881
19.7046196093271924	11.0530584366045872	15.0312731752686037
22.8898967322912164	11.5791178994815205	17.9673245014658463
20.5554094535997578	16.5394430062758282	16.9666399014377909
21.9338673259071442	18.0197741395780824	13.8233253856920051
20.7392867114166606	16.5686020906969453	14.8281524699731762
21.0017526786439888	14.8740258999073749	15.5761167808632450
34.6664590669526547	0.6699994500448155	5.9365606321479589
39.4265193111361043	38.1640001626547445	15.7083725955279316
36.0458626539115912	32.8719583474861778	14.1346075165435128
37.2096248383719228	34.0785861255403049	19.2030693750100525
40.3916057409364342	33.3725833197893351	18.3459422452652809
39.1328079593655431	36.2739863776091269	18.3723312066907987
41.7166533501783761	31.0016857538651927	15.3727988640684572
36.5557506279245246	33.7709021497109774	15.8675727982509027
33.5492102942730810	36.7463240720896280	11.3344609791041648
35.2873341450403615	36.4350032095208007	10.2026778770204931
35.3513949184288876	38.2028416450583492	8.7094490673169993
35.5232868135440896	0.6485310229596107	7.9381183951336878
42.1345660349339184	31.3095977664412679	13.4465507884517503
34.1408554070677184	37.8360237746133379	9.9884993546029008
33.3651566782795328	39.0904545699285038	8.4023750762538807
30.8392507586439741	36.7225736480730092	14.2456267781107435
31.2789460757361688	31.5746492267616929	14.8090482773714189
33.7794309366574126	34.3719587635607553	13.8518980190595880
30.4822350789051200	36.3017797994226328	12.2793285383254620
31.4185944097729006	37.8191701981020856	11.3260509910407858
31.6607546288521604	35.6219008043076215	17.4108096298631914
34.7377837971945311	33.8716130210441406	15.6711427485625876
32.6670007568500438	33.4500259070845942	15.2080868990850320
29.8007888806732630	40.1261058466483433	6.1449518611491412
2.5918987331372709	37.2982319452729456	11.7846415279047747
2.9203720498220900	41.8831013518086266	16.1813292469998515
2.0518394401289606	37.6095682820256556	16.8724223412613092
1.2693297524208498	40.5674833744675354	17.8751529068450452
4.4795640707089683	38.8328270128903057	13.9018069757421951
3.9001042667632220	37.1440749192575623	13.3219097698862772
26.3185488138067640	38.0953663941451595	7.2325042167209608
31.4485252099933241	39.7028677626423487	12.4656124009776015
25.8049093797470697	42.0467022946717037	8.1155838256551647
36.3358782207841102	37.0494782971112429	6.9828150261283506
35.7581843782545761	33.9740112289785543	17.7897960196540339
34.9869525736727454	38.6368384281996953	11.5477001990760169
32.7448550210426745	42.7959564741088698	6.6719144781488540
41.0546274282838155	31.2758205336817703	17.9501510401207192
42.5165900862478310	32.9733468190543277	14.1221478819499318
37.8837429987628056	32.4441618038436062	14.8452340713578295
0.3922389505915370	32.9884720861736582	15.8931988934415074
40.6579718315270853	33.8166691448177161	13.2440791358533065
0.1988217125782520	30.8565876949702833	17.9516929436405093
40.3388516617437958	32.2160429371838575	11.8994105575915086
35.7533460161753851	32.0296948206201080	18.4899640173790516
38.3326647442835338	40.4121775085026798	6.6109004932148032
42.0162861763992552	36.8141143729421927	10.8682468214565624
38.7635240199113440	38.4826547067746532	12.0230420586113098
39.4015270529980199	39.9298838685367912	8.5374681963466799
40.5485037978842513	42.1088204321596535	6.8289730829774413
38.2908262090734297	41.9655160546109585	12.3055473088953349
42.9571126358175448	39.8595059422375542	5.4894500439159311
39.6503169688659227	37.7378587843028939	8.1630849236100165
41.6638740176209268	40.6324059639253576	6.9786341845516819
39.4468948432331743	40.5262036991389252	12.2692159032112826
36.9750620528108129	38.7878073145348523	11.1573272527606040
0.6967877115214713	37.4866476220234688	10.6562743476653008
39.7648230824325708	36.2852282359033040	6.4148911582810371
40.9837191581705511	41.4000616982672156	8.7459485673896875
22.6890412302682734	36.1369019899623822	14.0813452882165766
21.9367339056609794	31.7041335055310860	17.7194004727676315
23.0994192989652021	35.0773024486301566	12.1632221808334222
22.3233060090447033	30.2746422467044809	14.4423553084496437
24.6501621283234940	36.5948298378655537	16.8162339772390759
17.5691090361278164	36.0189532926247935	13.7094518906173928
22.0051808989548086	34.7179877892162452	15.2590112896951062
19.9964198944980645	34.4426825166510397	15.6780537686355199
21.8261936049485357	33.4641911301818524	16.5637666110200215
25.9394949669527115	35.5784119399681629	15.4719662153214870
32.3884296055033190	36.8867120464173794	12.7390357583970903
31.7716897787454648	34.7933418456079551	14.0642048408864611
32.0054782598266456	38.0859958999772275	6.5839771187590710
34.0700064281356561	39.7971735785209972	10.0345044955495180
38.8784104103010719	38.3217345896358736	9.9869250839887886
29.9608037076899940	34.7296519209619134	17.1622128501506523
26.1076342464940865	31.9550135647578628	11.5927107022978859
27.8978335766719283	35.3125839801705794	18.0004200943894830
27.0224648590307979	33.4180322413346644	13.6057261270335346
24.4703190711893193	32.1200644913118225	15.5667366624411514
6.0073445447471343	40.7678795215348799	14.5887327031418543
29.3226163444300916	32.0132887049627328	15.8770847744201156
25.5982447605142269	33.4296623920975051	14.9008316693744796
25.3827671871531741	32.8998745802321437	16.9450658142828914
26.4186719628644688	31.7704468460719589	15.2093270339954678
30.8723165119593759	33.2712199797122352	15.4877276941194690
30.1950770007372462	36.7925950968745852	17.3872672837764206
30.8935611475162304	35.1269514534437661	15.6657567177878576
25.8286948087040145	35.0520871140737711	17.3884574786378145
37.3131523004187216	40.8956425264495280	11.2198862288927046
40.5681536383990178	38.9713876041356713	9.5259454126147052
14.5410594804868456	41.5435881358895358	18.4711289532391305
18.3226238929394398	41.9681413839121120	14.6443956513204121
23.0544584808982655	40.9502854821469597	17.0940753844720277
20.5888775579155663	38.3725257040972707	15.8995178933456742
22.2747875315765071	42.7346933944246530	16.1063040450110968
18.6264976801796038	37.1023287133408175	12.6168021424484635
19.1877789310327671	39.6958704296746063	17.1892227503990647
22.5205709000435519	38.8991823427960028	14.6822640768419639
17.5878245540288169	0.7353661843421817	19.0490999801707055
13.6007377529434290	41.6165299212447408	16.7267225377732132
14.3624224993766756	38.1964034341236243	16.5177654932608959
18.1898168370338169	38.3006979876628648	13.9955312809616039
23.6791642238355209	37.7203177516338073	13.4114393966074115
18.5614896916909728	38.4080304415834917	16.0800769950179010
13.4479550313910963	39.9741954473618648	17.4957407397812084
13.9238102347416675	42.5315540781615198	13.2484111815784278
17.5379183867368269	37.2005972220398675	17.3602449485398189
17.4175661118725067	39.3288460613766020	17.5479446793390110
12.7412884248699019	42.3705157669454024	14.9897934857801527
15.9137284007438868	0.4077111430021365	17.6217027443505465
12.9832725456834801	38.9727528303893322	13.6424017268231967
10.6427242632761185	40.5675355610110415	14.1597242800988798
15.2429423458549085	40.0806955353910865	17.0666222712307878
13.2065038830269952	39.6860100106431020	8.3196952367237582
28.8519472520856688	37.6070240907880944	14.2691480961700634
30.2528310753891105	38.4232723741842008	13.4798833298678851
28.9474704107020813	41.7990255890371003	16.5151979042870281
16.2585477943738148	40.0338864936199386	8.6963061043512706
17.4084629284727370	38.3278970281021714	12.0324960239853223
14.3303345807862019	42.7138536388601651	7.6250144918261524
14.9722737537700077	38.7382343756312366	8.2373277827268243
16.9222294314968948	38.4135004050054860	7.4784001121924915
14.4714986657129980	40.4478913630495924	7.2886900340906395
12.8239868918568813	41.2954905546597359	10.4149387985155588
17.5329137486120459	36.9080154500764834	15.2789762532134947
13.7876077447349026	38.5968692098809001	6.6982653946458974
17.4672895815232891	41.4010084479906553	9.5238329198450593
19.3045656326751924	36.5812571489151352	16.2670344096088648
23.5701101657689271	0.6559334988413195	13.5053450732795159
17.7148866174755319	39.9337373037785710	15.4863158251316566
23.9996457364789251	38.7587799129155215	16.9800275880714331
19.5457105005303085	0.0327637228840072	13.7818737853814035
18.8979113749774044	39.4150632835457913	12.1691440024527928
23.4623349661418388	41.4836234758177511	15.0853212284528322
24.3345817296546549	39.6285188608368131	14.0336379375507416
27.5760016290108609	40.9768891089437091	8.8606758732605808
12.1265250129659137	37.5834078669432330	16.6980745182676635
8.7803815892830936	39.6080893484193552	16.7939854350144380
9.0376279883099038	37.5995273941489998	15.9443855672151535
9.7906505285847540	39.9628929015029755	19.4099557577097421
9.7133579472593077	36.5373508271508669	12.6046330966129112
12.4328886384222912	41.6215817662433167	18.3443506858765915
19.4987883443408947	40.8679976040250068	5.9624456408474149
27.8905484139891939	41.4346105087149894	7.1902055866438568
27.8366323001040463	37.1403917652659175	7.0079198701744652
28.2812765410246563	39.2672963565612747	7.3459592689439175
8.3464117123776713	37.7467202569356388	13.7665519134619210
29.4109208192113840	42.3528317771140053	8.6411265596342233
28.1617840868695808	36.0892591675469774	9.6596744329858684
28.2174864338572853	38.0371621287895607	12.4281884542059107
23.9996858681083935	41.0751220320151447	9.2359604483609044
3.6688760551454460	41.2337036493286178	17.6663715680908027
5.0589845034431722	36.8898656677698042	14.6653941964298600
3.3734067091534512	36.8823380232245981	18.3738137334757532
4.6408364695353521	39.8102690856279793	15.6778348700514290
2.3881590797775685	39.7156588427446451	16.4657050020390479
3.2552146953853178	38.1468046003236836	15.2392479196082142
19.2425622616353280	40.5867720832951520	10.2812802457500432
24.1354831039088857	37.9448843889562681	7.6312343610660447
23.2835551580838818	37.9652188896725491	9.4306486293080543
20.7136320465944870	39.6197174226617150	6.7558810633750870
22.6542275215940485	39.1054479126204413	7.7268903299236031
22.0740987003185936	41.0108696990727211	10.4944184165514613
18.9363662681898006	38.9979822754596981	6.9790519756295666
19.7782215205612601	38.8441484378839732	10.2437032236675485
20.4648988376175502	40.5623255797139777	11.7560063650426301
22.5925135477961341	37.2310606409336984	6.8328348517786477
21.4113224286715997	37.2762501844664982	10.0527835271393773
20.9188065403359396	36.3057797290045272	15.4767636646391544
22.3121539047317476	39.2709032403764482	5.8879479249733695
18.6398634774110121	41.3421980767469819	12.7168666183117018
9.5210349257209348	0.0824452881571602	16.4388295517843694
11.4168627979582968	37.2736296477866702	13.6937683654736109
10.5478733633104085	39.0790929947074943	17.5964630557439108
6.8034845429161468	40.6593459721130728	16.1942729224022486
10.2490123102869362	40.9700932111504912	16.3442223049426758
10.6333510272306633	42.4005496499684185	14.9453547842592656
10.6820158401104752	42.4813529621752224	17.8018301143786211
6.7907664656025393	42.7350911711626011	15.4121596114434762
25.1680005614142885	30.1262304242280479	15.3134462587335367
13.5030546830075924	0.6295355481780779	16.3600886481130665
15.4909004784104489	6.9576490216322009	15.2403690561168847
17.4703926286303393	7.4650714828268345	13.0091957976013610
25.9810964321510625	28.0465585434732212	16.5832026002667661
26.1901903280019468	25.5965287183064270	17.1673162466283280
24.2909292074321392	26.6526931777626217	17.0371991394028335
26.0587302067638724	28.1775969391436085	14.6004374675668060
29.3970777829446668	24.5333742223830278	13.0038260660845708
26.8448877670136348	29.8881103170439459	16.3022154850348393
27.9754584145191423	26.1993705589785897	18.0035025742789259
27.5077185872430938	26.9682876764636106	15.3658571398125652
14.5850826460098002	0.4254692416821412	14.6993182233853332
28.4388431090934617	26.0572548339722836	14.0666073955697986
29.9152181075849946	26.5733880773535596	12.7207562432035264
27.3253110221549740	25.0377286179504495	15.5685741482303861
27.3817797912378822	28.4184444962561429	17.8873421330315168
26.5545254900758714	26.4585238274452905	13.6651059045537355
25.6522969270168026	26.5560659644205153	15.4834700422612830
30.6827395028791230	27.7415680294120079	16.1342311111197354
19.7445134357801315	27.2513334955927746	15.6026737482334870
20.2279148212622779	25.8774784505623892	14.1067797214097528
21.8412036176145712	30.5287984503254890	19.0441945885888124
38.2105859843225915	24.9246470193191811	15.6309336111323294
13.9794943240300285	0.3684967038818718	18.2753675847049557
12.1457312875403591	3.4179748542365478	11.0928672516388840
14.9079937652933747	1.7453654174454178	16.5844101344098434
14.6898089470209996	3.8330574523240495	17.3254713574389498
15.4019015850559899	1.3957833914099107	13.1173251134308213
31.3068071156491676	25.8129802361098619	17.2935351248364668
32.5330174580623250	26.9548887289438106	16.5080369219689231
31.4041125600095405	29.9829721343373983	13.1373010026907000
34.0243146117045256	28.3091564166512946	15.6714242712014382
32.1678467929846121	28.0247861062066086	14.8392756843895821
22.1794021370625600	25.8985411121902231	17.4947140952598446
30.6896718972420857	29.4725869937130867	14.7071031873978786
32.7197242512902235	28.0786198774696309	12.5756572504588569
37.0616117865395296	24.1242533527675533	17.0888646038880943
31.0784250031182907	28.1627862907507023	13.2619922065130282
35.8757350807816877	28.9006902305521045	14.4458748631414640
36.6145535441427938	27.5507913895433276	12.8577039871652747
18.5319271629197893	5.9275447327675863	12.7221275756715144
16.5556985248141011	1.3965533819197316	15.5951547634169430
13.4156972446328471	2.0772450758771375	17.7255358016138693
11.8264616534282307	1.2500462280086071	18.3070515983695579
19.6374148754854048	29.4356839542426556	11.7776749500045739
13.8008104154397575	31.5406235297328692	12.0298085348527728
13.8764616114571915	27.5443607008826845	15.3089862920047253
12.0704117674268563	27.4986589590546942	14.1194755966125882
14.0589845462075740	24.8654292877472649	17.8835784780494542
17.4514151093585355	26.2784542694266996	11.5663838467432960
15.9139027748314010	27.5111620943917217	14.1161818762655873
18.5721937601743647	25.5673937081342473	15.1440439570210241
18.9800641926243259	29.1231118244557337	16.4546989158835508
17.2514584821400128	25.3332404427109061	16.3483187117559545
17.7419941335369273	28.1369970335611796	12.7910822423346087
20.7845163710688503	2.4545434768335332	14.3428665560054931
13.0744171997312542	29.9378347569838397	18.8856879695900872
17.6401828977119308	30.7261403708180332	17.4984440351770090
18.0898298262676356	26.9662264982487692	16.3064666249600911
11.5143053728696376	31.1998690263283365	16.2559806091600834
14.0893300354163244	26.5655109999248147	13.7740105396080939
9.7544793400616161	25.6405486155242599	18.2143777005800622
9.6793669831854192	30.3019911156851052	13.0385456839371354
8.4219057801405039	28.6209953046501049	13.6313517925743461
12.9344116552456843	28.0330877014483377	17.4311862528402806
11.1766073506723345	26.7740295012486271	18.2295886801990754
24.5774999777704330	2.3501818493072988	15.6874982043271611
20.7876027094188345	24.6152329303050337	16.5150779457536565
22.3114120681662591	28.2830635677540663	14.2256998683183351
21.1157102422461342	29.5051126466950713	17.4279764702422675
20.8148303538996693	29.7459326857982838	15.3565199463215460
21.9898830192714883	27.9321309418867116	17.8943099600804949
24.3421379436717409	28.0957330821818445	15.4064935150994859
24.6282718206606361	24.4845194556332721	16.6809834211792278
21.6396194177199739	26.7858644725957760	12.9889121751156562
18.9772406382296523	25.4440000755427533	16.9547309177159313
22.4792724401034647	28.7227119633617143	15.9673675713868626
14.8855353998901450	6.9650461887127868	13.0232663820790062
22.8414537685076091	1.9983655753935938	15.1567968783104750
19.1380341919311512	2.7195307286848829	13.5937958232641165
20.1528269249885170	42.8903690879262811	15.6228624420216669
17.4258929177423170	6.5146196560167029	16.5621686423851848
23.0506139814474729	1.3321400156450667	17.1873621063358506
21.6162229157431760	0.5760833845576293	14.3946358682456133
20.6470121160958620	1.3031968293859033	12.7022219659978521
19.1725807642095987	5.6190615948877616	16.8413227479660996
19.1378056333927340	3.7002219631941777	15.4379979912186496
25.4415697004590413	4.9358949394716740	16.7909739576035193
9.4319486790736597	32.5206373865396685	13.7240823771118237
16.4297264744662144	35.4218145264881485	18.1663601935860974
4.3153628110886872	2.6673995741119927	16.6202670615968060
4.3685453731853086	2.2819956050918466	14.4746295434311776
0.5952970392622984	1.2250293712477185	19.0449516017737253
4.4134107024594309	42.7388687507537526	11.9688423527771537
0.7805132287013455	5.7987605720380264	13.1547056887965983
4.4647042335738050	4.9159660800130762	16.2613905938035295
3.6448576831830106	5.9863185592677564	15.0158691882528839
5.7499839256009091	1.6231893840983707	15.9204850265887021
13.0774906197952081	31.6523064341438882	17.7811962583079790
8.7431158767027739	33.9671127985229191	15.2487946173817370
12.6882602077200684	34.3638496005721379	12.9351729178583952
8.1901172892760155	35.8001925056823609	16.2349508845439274
11.3052979036016641	35.5508544915758762	12.6399868929907644
6.5512786986591793	32.1622991526450335	14.3961569659331907
9.3966155464864478	34.4084160802461483	12.6645826479062986
6.9282853079360285	33.3723542210136017	16.0363604052658069
9.3323422770171263	35.9372332114290458	17.8301940441568227
10.7963605008918755	30.7855878409693204	14.4839210582479190
9.6325405998026010	30.2831435101404978	16.0745196837063098
9.9143338440789925	32.1518622990529792	15.4440099878604684
8.4582667928080486	34.1386149402413466	17.2407341867083481
4.0514770694061193	0.4333300916856644	17.4525104711888623
23.7838436868068719	33.8257499874746514	15.6080897775813199
23.0558012529008671	37.0930261468043412	11.2786722671661384
23.2510987871190586	34.7395304171471295	17.1920895649540100
23.6364724558314627	32.7569653055931340	17.4952648274058973
24.1161926165261669	31.0812212427590921	17.0429218961586351
21.0845316400789535	31.1298926270093972	13.4345993658875997
19.5145812497122009	33.4641999612521417	13.7656946754082146
3.2674767475488613	42.2534732806990405	13.9285081294749400
42.7129901873599778	3.5608418737928109	15.4082971028051414
0.7426656770402675	2.4313235160376538	17.0793274622428406
7.4082613982804446	35.4934109763246042	18.3003133898694017
5.5522315042918953	3.3335243790028271	12.9863804806798058
4.3618594740111920	2.1160493891979759	12.2808227172106346
5.5032947552997662	4.9793708947222743	14.3562572816519332
15.3690618398927885	31.8493753209587034	18.1163960613618542
19.6851744085234728	30.7559647455672902	16.9281292810165063
15.4802363331263511	36.5143840412325744	17.0769214126724229
16.1760384333794711	33.8767985086401850	13.6182163101895313
14.3480780358906088	34.8253003956535494	14.0936350564091804
17.0180218566730339	32.6353736963311221	18.2751308224087765
13.9600618791036375	36.4620081746840867	15.6986576934088475
41.7382077789549939	27.3143982375424059	14.5722481085029827
3.4128723801335985	34.6005536921857271	14.3239129787258612
1.2172624066546460	34.4897247521244665	14.4867989484771496
9.3495577219696582	4.6518132955369884	14.2546240957077668
11.3790201925942860	3.0107420305113486	18.7638364704307641
38.7722054343879350	28.2295272089301434	12.0104270610313701
36.3943433600720141	30.4324346034154480	19.0754096603393499
41.2280720316200515	28.7667918596191008	15.5899474286740318
40.7462256045385587	30.2285919698932695	12.5786142298762709
42.5960795724132666	27.4012633927131084	16.7311825257137947
40.8644605517155171	26.5686226068775468	15.9826431726436784
2.2345980113659398	33.4680466413273479	16.8726491500538707
42.1818167453180308	29.7177614743236873	16.8874627194642493
0.0370317843461324	28.6231961154322292	15.3841861026875737
42.2562585796190575	29.1085522354416995	13.5430172021046733
38.2805703691845878	29.3017356828107189	19.5431741053941082
37.6670339431266328	28.9529074243861650	13.2319296889442644
41.6848873095387162	26.2291005981220628	18.1288748135586317
17.1256312048025485	2.0872316222533360	13.5630535961879772
15.7912102039309961	5.4376979875004485	16.7200668476492389
17.6263546642876001	4.4838250314032182	16.0849956038283679
17.2302219987644882	2.9382997218001079	18.8972024376676835
7.4464748887168390	4.5760066304989682	18.7144031064019458
11.3054009599517595	33.9463322967977348	14.0838038289607326
9.5447366041497386	31.4270335009228923	17.6350997519132342
7.5131385803732194	1.8513329384480330	15.7455839084333871
6.1050561367451417	3.5682035900542530	16.6448609920299688
9.9178994469491926	1.2960543238592328	18.2006941482069635
8.5147406597873196	2.8434760904642844	14.1195436443568809
7.2097448424312338	4.5713832566262287	13.9814659333992903
9.4238874902498573	1.3127175116843264	14.6483657710536797
10.9514092716772993	5.2181953177733691	15.5514031984641790
10.3217474322664788	6.4078426329188805	13.9138935780832913
18.7138120693605998	26.7254927682064682	21.0821553842248903
1.8209485473650537	32.7405284578680451	14.7826995134683763
6.3909287920666227	32.4868246476587714	18.0221051236958871
5.2434172516375517	33.7366156196180071	14.7309240520470173
2.2817107423729994	35.3524811381076987	17.6998096441432793
2.2692199540631539	33.7478215625561688	13.0334660431406633
2.2938629838098619	36.0268974997776539	15.2671538421588622
0.4839564197857930	34.7947733999458819	12.5388197940645227
3.8079531577794197	34.4374969346644448	16.2949595667976723
3.7856671009366862	32.8669448149345698	13.6267009058359356
4.5892855902515359	34.3293842337544461	12.7325060300582251
33.1749484210462882	21.5669116998601424	25.0155921355355915
32.9377165832470098	22.4962501323669954	28.3506188785757232
34.8990103200357282	19.8606289801861742	31.0168010113615544
32.4427100253047271	23.6701479108520836	30.1965633991772400
36.2883409744311862	20.6107682090996249	23.8028766411612871
32.3123664640536603	23.3338395208208063	25.4296530773548533
35.6684951297742927	21.5178502994885683	30.3539896492623562
34.9886245772047957	22.0817361239035321	28.3721326151611599
32.6059906144408203	21.8740195005369387	30.1481434801844230
36.0811223743630691	24.1935006976723663	29.0930609502444284
32.5628759973356523	19.8422463461987988	30.2000016329725369
34.3155305242908639	22.7795351618606468	26.2310891866760230
34.0047525127275634	20.7700273194442602	29.3185172528479789
31.1423811036320686	22.4519732841090480	28.8934708369187092
34.0686542910690946	22.4066538470049537	31.3846886930211220
31.4619617767151318	21.9820402216400588	26.8141917774820548
10.8293433974298843	10.1791922863155513	8.6995805456011972
18.6410508985988415	8.5496444184581364	7.1200463513309957
12.2818371776895638	11.3442097001167070	9.1902617151377815
29.8944420223947702	20.3228349884874469	29.4614804731168860
27.6791028548257785	17.7342716029701961	26.1849041364998421
27.8619148063081994	24.7331702782722402	26.4319940200159991
26.1016065016594041	19.1298690871890003	26.1077883775782986
6.9596729612074348	7.8096943698308383	6.2506115513305245
42.2772195216305420	21.7105675260280222	25.6416085715816635
39.3844236035765007	20.9031588921779097	26.0237624379970853
39.7771731877253885	24.1729793339638945	28.4552361016311117
38.3272956107738310	19.2177645219731978	26.3394088275220426
42.2087176262752024	21.5373528334812043	31.6402350485782158
40.1179250531855729	20.6802476460695743	29.3340078584942638
40.3970879710787329	20.7434625502352787	31.3859439219839125
37.4376744376502586	18.4125903637733650	28.0746578815287045
12.3827575035117796	7.8052507514634311	10.8039550942330216
5.9938760263830213	11.8826465237269154	5.5277601597606774
25.4602718511246806	22.8172449304263836	29.8008089007929087
11.5158696161065901	12.1004548167168693	7.4752711209740932
9.6201032736541130	9.5599904648825387	7.4415019873526900
9.5843354770414741	11.7706921242642242	8.1230190884168536
9.7166665298693236	7.9135463317163310	5.9235227545992313
8.4810810964314172	6.7837963385251046	7.1547198953627538
8.7908774930987175	7.8588565986599219	10.2567940238473536
11.3988138723420089	8.4345422401464631	8.0072926652683396
32.2270519223251668	20.7384279975840222	28.3285942700967119
34.4241795362557355	19.6204384043415594	25.4469997184113765
35.6726038018521407	23.4156282419310067	27.2831435075720847
18.6336665643145523	20.2253237832937032	25.6921022890317836
13.5022664572425342	8.5540931186437312	12.3183298476475436
12.7090603492974523	9.3400840743978168	9.2045756026839598
13.1846745557084724	8.4008941339045116	7.6876059947726763
14.4166056988808471	9.9477461082696195	8.8656611026731689
17.5685432445073495	8.2757230990817074	5.6624249099237369
21.3467163401682107	20.3759069859087312	28.8761255927079183
20.2292787221939712	20.0838515358741461	27.1278683211126292
24.4654694647719992	23.7395466670618625	28.3292371917188675
21.4321385710261083	18.8549017940804866	27.8848461404837877
19.3144814809857195	23.3430474384130342	28.0333807443087686
22.2010633531725041	20.3428220774781110	26.7682125381323104
18.6133311544415605	12.6178237552234442	10.0177041771501205
20.6549796324237889	20.7029361169542518	25.3353283431211302
18.3810668945975237	22.8524561517799576	29.5457543557747506
21.2693455122340573	18.7904392141343060	25.8913053476568535
20.3265922196248319	20.0171919714446425	30.5373611842519530
20.7769987822447071	18.3240115631478453	29.4896435904608545
24.5012079247686394	20.3401794810390619	27.3060063786054208
24.1922420815628278	21.5624326613161266	29.2843452461090550
19.6618299416399722	21.2925563291651372	28.8167421690484815
14.9632995931000412	7.2712507847166732	7.3979022738423863
17.8742597674380050	11.7749744755528436	7.1809022266839380
29.1043168562871415	23.5582384734137804	24.8798397800118423
29.5448426033091991	22.1742567350249331	30.4095483510598896
30.1270034000240692	20.4951303051948841	27.2004875702003446
25.3100617666415140	24.8348587969446228	29.7257591329233399
26.5692757627575524	23.6169771171801166	27.9993124968890008
28.2649667620766145	19.1054040275712431	32.1365427717560266
25.4610758490136000	22.0009974642976402	28.1037427105235302
29.7434843142270502	18.2122500098388684	29.3033627525592131
25.8362699567028926	24.2499104966387051	26.4339954680763078
29.7383673937830046	18.4674336878704217	27.1020025121358934
31.0913601284139318	19.1953671440530265	28.4073053805329714
41.6468592871698746	21.5862662113593906	27.8512503170811243
14.1956103327499275	10.1565239841068742	12.8311060398669898
17.6776141136831875	11.2034661002154774	11.7338555966190334
18.7407019402228308	9.2275377513671515	11.0555150379702614
11.7759766606917697	13.2168059685116166	10.4689009776528081
16.6858149827674254	10.4543560860215905	8.4383899361877166
12.9999723167510961	9.8969051031681730	11.0304385170911718
14.5025530644861451	9.0016968686081320	10.6958866267830128
14.7151266057002381	7.2794570018787885	9.3720701859405953
12.6640393140149534	10.2145201156070851	7.3876520394359932
14.1293459802108394	7.0112849479044197	11.2406522083246259
18.2513014762545467	28.1943300701158925	28.1750437778964482
40.6885668613065192	4.2564637858935672	8.8977423309344861
21.9726780168477696	29.1282357424920626	28.5026846335027280
19.8588239973058656	27.2658058137715855	26.8041376662312416
24.1290834272147414	26.1399432735492674	28.9554541790340352
20.2285620979917411	25.0585637347518819	26.7784596334325933
19.9487759764466261	29.2231625765967564	32.8690161845183511
20.4090167237156237	30.5883478451470445	28.3072553586517088
22.5642497022970048	27.2742243518521015	29.5896259914713440
20.0503757591031544	28.4444654659038356	28.5384682520653357
18.4887007415712574	26.9003008476293992	29.4923434995222138
13.2031225052805752	30.6980969477184686	29.0733179658467797
38.1356870511652986	3.9578618968830011	11.0741170993301736
15.0135361177860833	28.0776149886628517	27.6766283707419234
18.5721058499571541	28.9583893549740061	29.8378492026150681
14.5257984160788158	26.3991461603321014	28.1015440108496755
16.6883604663527585	26.4864596566168018	28.1537918326345498
14.0698318185314637	29.8854912785946567	27.6585944242414925
13.2811558040787467	28.3307845392146724	28.7376894067945905
3.5751625811440699	10.6584744193581642	10.2470712445884455
3.7792797602919044	5.3700365875943303	10.5400210268398187
5.1801448634090326	6.9900584284437182	10.3039047320404542
4.4502262760464832	12.3473399392057885	9.8742624814902040
41.5445332756421593	0.4232054453170198	9.7145821793838500
25.4499766048172731	26.4022133759830098	26.0980997592538451
27.6343485354434115	30.4427908758067858	25.9711851689709192
26.0174216867045125	29.4741810447726564	28.3377057862243085
29.1822347342594810	28.9594115216961399	26.2739965599749468
28.2385139758937207	26.7550199930415431	30.0746392834915852
29.1069585247550648	28.3214512116901638	30.0716927822934892
24.9052599597017910	27.7856944651584783	27.6830643053530849
27.6687316512711234	25.9546111632580221	28.1650524404306140
25.0954889799320924	28.1983859463404158	29.4260941522024311
42.9393673544768362	4.7301235904675956	11.9326202559141574
2.7609200804363931	11.8830714374764774	8.8003674496240816
42.5419872531390126	42.4325008566055573	7.3769458585609931
38.7812340052192610	0.3819806618366503	6.8840921014231569
40.9731015562682472	2.1655237408899386	9.3995160269774463
0.6621408245056611	0.7866534893600187	9.9881268067397784
38.8370030953936691	5.5759160305018654	8.6470487364315236
36.3638514156128494	3.5803672391752279	10.7424743545993699
40.5747799227055950	3.2756381339949918	6.0344254653856959
40.4614455533401127	0.4229439991508078	8.2360395379821245
40.0589416004375209	1.4299309412394834	11.1234603718792737
41.4367002463648220	3.9750527999582292	10.5656643418498426
1.9984292459453317	28.1601309419633381	25.7084899429140492
11.1864568846055885	28.2804176132413474	28.1269501282591001
3.8415094467506781	8.7010095137607344	10.6606714266122573
3.3731668986535817	8.2467277523314486	8.6573293548502157
2.5994935359707370	7.0810798180780878	9.8762896604714800
2.1574220980844077	9.2009146274236890	10.1207805905678274
1.0057713688142944	6.5528715690593957	11.4982750510582381
5.8338154500144022	11.0168091163172406	9.9153493762647731
5.2904221647205807	8.4303249505648363	6.6904810278140747
4.4059494615370660	27.2462778200713345	31.4677150081455821
1.4043367920871526	26.2569065177837118	25.5656648708668541
12.5309589079966877	27.0619712842283100	29.7361022401097834
3.0262854759859481	27.0203897094233696	24.4334325857283332
4.6363086278134817	26.0714838390784998	29.8663004198869295
2.6653007879776243	26.9336299741683227	30.3756595189758549
2.0311907904536763	30.6651280911886879	30.1639702123531350
1.2660152181455355	25.5692627759240771	29.2812721448891402
9.4144820400050158	8.0668620906082520	12.5171651686617054
37.6390426700485392	25.2892065917409639	24.1754278355363184
0.8917449480350568	24.3237497029719343	26.1574583251038213
38.9511942511234963	19.5477780245585855	30.7854002463570211
40.7727664109302665	24.0017474461120415	30.5222750713830209
2.3873676883294181	10.2489531658395308	11.7795218385973843
0.7857631676328256	13.0554637724819695	9.7172478025792373
1.9703017241222474	5.3962803778187904	10.2115116562369828
1.4818106779030846	11.0622892184418191	10.1841070781201690
1.0138195563967760	11.4532129043547357	8.2233415188041068
5.0978332727062572	6.7522599952119240	5.8051320037142071
2.2143975312996549	10.5519070417637124	5.7676669834541832
42.4430190330708470	10.4601349691644572	7.4727251270899933
3.6813345241641504	8.3393023882331487	5.6851672083666100
3.3619804373451236	6.3308161280061652	6.5045911226425526
0.2025325573412263	10.9562104169484869	11.7142299699783763
18.9559161539471219	19.3303379007786447	28.4624045148259057
6.8360724572239064	25.6228218468097282	30.1413908876827072
6.8852495655426571	30.8235448513900323	30.8535930077458858
6.5406962931220685	25.8761287617086353	28.2091207722762363
11.1049639548092784	25.2630490061036603	25.0431528524290243
6.4288915494543515	28.0973730865319062	28.1917151516000501
5.6405844393936793	29.2549837751105599	25.0425181219023862
7.8028209795804901	29.8076845763808365	28.0899646102108669
9.3596997111279396	25.5543451206840615	25.3966212947190932
9.5953668826062426	29.0142961490956388	27.3517827603586063
7.3702284740073116	29.0168223911360883	26.4913347915418349
29.0137356452513195	13.1285293780154024	24.7934725095129416
25.5132351820467207	7.7120366934618652	11.0788927068124821
30.1979935741905834	10.6021021552342756	11.3515207240875320
27.7206805666287330	11.4490046932024807	8.2136665901255590
26.1660053592832149	17.4923088577137165	24.7276133240806111
29.2961714899571248	16.7315685444430109	25.7230584424562778
27.2161489083109203	15.9510520628749841	25.5493813593681729
29.1940134467622627	16.7796961907287141	27.5803111847747680
26.6024249321843307	13.9959637175767391	27.2636209761231889
24.9947712953124430	13.1477924487907440	30.0948927410813241
25.7722167205659041	16.8771603447434373	26.6257730513045416
27.2059705860211629	13.8812008116914267	25.4496612740754244
26.8717566617165140	11.1422983829647020	10.0602007662054351
25.3978183690684496	15.3080079266919746	30.1523773865597704
28.5560746033161017	13.1022523193809803	26.8151907721022305
24.3262472560496228	16.5597129966022294	31.0086021631621023
25.1953731537871732	14.7170015117066519	28.4527474366914639
25.6496255723289721	16.8808928034202204	28.7677039616020593
25.3986603668669737	15.0944788806566681	25.7045918008674725
30.3836119002840590	13.8656681568225988	25.7101356679055719
24.2716920769431930	16.8386099423989997	25.2566622583912306
28.7418016960845577	10.9083036233258088	4.8074246759221513
24.8937192276116370	10.9889462946381506	13.0819207983147230
32.1406064754615883	18.6962320615990159	27.0224327486789875
39.8682951975578348	14.5244384339606967	27.2169779508915113
38.2152669299853187	16.1515964019472733	27.5866379495444534
31.3401622440682459	9.0188366545539278	10.2257247597716301
30.3266117567498590	15.3910811558195739	27.0790108124680735
31.0437861504425925	16.0997020252320411	31.4100051221499470
37.0570857333109913	12.0333855361342277	30.7005458043914317
30.3007450503363174	13.4023873968671570	27.6018877658396917
34.1516036607815323	17.9636204572007436	26.7280213907747566
34.1675030192757845	17.4742304054300668	28.9519083368569525
31.7166283437842935	17.8809232624269683	30.0353795312402454
27.9560363554910900	7.7702655677738024	7.4024520761505910
31.2988670705152892	16.6047220851335489	24.6867449040509506
34.2035383439034604	15.2154579812524524	27.0272995954765705
35.5975750398333730	13.3926208768929005	27.3361546439602350
33.2887712589508880	15.5645156436365451	25.0627761667907869
30.8734687320154002	17.3640607662503825	28.1235299404254135
32.6951947620927683	16.7175408903582685	26.3168450169174228
25.7866866091940601	9.8882315667085692	9.3089919450912486
28.0456035105343275	9.5937263204978009	9.3392294757117238
29.4992557364236774	8.9731122187114423	7.9160449564752646
26.1640663696025513	7.9580856451337159	8.9751808758514322
17.9916178679553909	17.6534366134599594	27.2543805183268795
33.0192361119085547	10.4690436445297088	8.4491429914068519
15.8122317462724009	15.0792587633477613	27.3587282660807141
12.6620308958414647	19.3057856758127748	25.0542998224889182
13.8954308259608954	18.4662109843260502	28.3790947262500843
16.3782683889961334	17.0795173639697069	26.5409122817976169
17.0208696218871900	16.2729822897030800	28.4306071546519341
16.8968544615564618	14.7123133544463869	29.3641212235025719
16.6921962467018403	14.9774067600887815	23.3057768969331249
13.9793693692868750	13.5047612396772223	30.8471683500666813
14.7327859037191953	16.4970493950212003	25.8441927780722729
17.2059024716777884	16.4312426269383138	30.5949388245831742
30.1287732367043297	12.1489564142783770	10.0655278941514776
33.0358383690722945	9.9915740048430965	6.6649710717585293
31.9116411895383862	11.1524271003230453	10.1240177594561711
32.6081648546229630	8.4020633541017293	8.4128088309116560
34.4235047141396606	7.0897651136615929	8.5426583512676491
11.2746242371430405	14.0372146692512754	25.1349321734972477
5.3441749015838544	13.9142429971809349	26.8929183698235477
7.1068100946116672	17.7754883825943004	24.3337269276150927
11.4284318468830559	12.9726722278444857	26.6282305876115970
6.7783105561895338	13.7149602518331335	29.8232521807815800
9.1344189092092805	18.5582276872959433	23.7406296654344366
20.7081940953659931	14.2063431499630877	27.6399578259821546
25.3094042767769416	11.5308187514304574	10.8416636708306982
21.8848493505039876	12.8532959291634246	27.2998676942436127
19.9418278273909984	12.6249276279169127	28.1036763678564228
19.8840939464829454	18.0037676188398450	27.3458004167970365
19.0645696223766130	13.1513950711393921	26.5113196179292032
20.3226468035475420	11.7948130641636908	26.3071850389868125
21.0084659911702119	13.3957526585877016	25.7389286716086474
21.5500975105227148	14.4275137433955614	23.9493929851505030
20.4309702216955174	16.9628766673566034	25.6826914771062604
22.1499967929930115	14.7940181261888029	26.0719186724579011
41.4797463914481739	16.7733363726255575	25.6856089760358799
18.6310934170455411	16.7704861836921566	25.7203592329182698
36.3670344978576594	6.6079952020013621	8.5882356401874365
36.3675787327331577	10.3392694605676549	10.2477136638421040
36.8395712227115197	7.1105325172064200	11.3981608536585366
35.1113977696522355	6.9870574389693827	12.4007347759311095
37.2318184109068469	10.6163250812176546	6.9828827704231191
35.9678383001731063	6.8556931785136515	6.8451944790505639
30.7437798488774661	5.9986267638334434	10.8209274685372669
33.9836407806153105	10.5935951994884388	10.2753520443226805
35.9271165618482584	8.8279493931643618	11.4253895591742811
12.7418737644453799	25.0159097235699761	29.1688742064090611
23.4574365258566253	7.7166935142155433	9.8945468045716165
22.3486457783181720	10.8402774087369984	9.9266103202004121
19.2172376374781955	8.5192002823890611	9.0510039121491150
7.9367075201269142	20.8769070004750361	24.7414693850582452
13.0538489942755653	24.9229128706126879	25.3664975556366805
9.3146575860331300	20.9600084835432590	26.5271034605298688
11.3008239134584532	21.0576497521757666	27.6273719476790554
8.5364760189672797	21.2537127480719583	29.7941092562689676
9.3927972904538972	18.6056412351680969	31.6808389959848249
7.1714977829777622	19.6089230387739910	29.2888314353672641
10.2425095299713682	24.4037782621220671	26.9569001390939817
23.9505010781653844	12.2556862009313079	12.2119076206212007
10.9282604887347485	19.7002381509867703	24.6039383479678762
7.7873516677014081	20.9419159312952630	27.9076146196884523
9.3091159855730705	23.3551981498022201	30.3593569947606099
12.0296202859955788	22.8823368237780116	28.8284593343176212
9.5888878169712424	22.3552211273329746	27.6377596933357843
8.1244875130983392	24.5247261151046736	28.8849727113137895
8.3750674661743059	23.6705749537617720	25.3629297580392077
18.9248469020069336	10.3811879616346356	7.8047803476108903
20.8623678412051916	12.1361493527188475	9.8594588438937141
21.8808809183196544	6.7042874505905754	10.8924115696005597
15.3299861690345800	19.2129974532552943	29.6041597663872551
15.0204971130131941	22.4200601308205236	27.7460282832153702
17.5494415457241715	24.4111175774124334	27.9182214174508658
14.8681157141489795	20.2027080654906186	27.7508687827477907
17.5068600729166342	22.5474148991033303	27.7859409374470836
12.2426445990194086	21.3743218015964800	25.4929074999776795
14.4374595962083632	18.5007132878328200	26.4115949317554275
16.4863524438325761	21.2530252392158232	27.0806965792122796
13.0206135558889535	23.0042662683640060	25.8876454226052495
17.0731342006754616	18.6636687644558457	30.5818416321876612
19.3398539947333106	22.2343136923516020	25.2483186921455669
19.6631845906475569	11.6915941296426702	12.9294565708726097
16.9345385304027616	20.8786551112516143	24.3505040920799054
17.4591459423316984	22.9953016066856577	25.9961143089445557
12.9313544686585811	19.4053789997150545	27.0680789594292328
15.5933648074788032	24.6326094109631697	27.8312210881166386
13.9045860065916376	24.2699738568405543	27.2862563176498689
15.9064212487849055	21.2233790493155503	28.9286192771409461
13.0112037985858375	21.4908379683112685	27.4264534696795153
23.6368876109435746	8.0464932860898859	6.3132842160021472
20.1660469151477848	12.7749682889667771	11.4663315046232572
22.8869741844630532	10.5111249430892730	12.1194424680024646
40.5128173274721988	11.6112937345997782	25.2926401580991040
3.3790194766134483	21.8114058034888458	24.9299753869442000
20.6417122535300841	8.8140479199733619	7.4341370818345123
22.2135032199939033	8.5668275485460299	8.3444563501846076
20.5586246642261159	6.9769457386304365	8.2585858552878850
19.9481726025626180	11.4121184790938113	6.5507407384242091
21.3478846471749790	11.3376941969434757	11.6668947711905862
24.2576100349332471	8.7866646970315223	8.2702514620443068
39.7015301791708239	15.7763899010118323	28.5442689994666630
39.2482489295288559	11.5673823254798531	30.9136765896358696
1.2070037483101594	18.1112783348297128	30.7211120227384491
0.1575748285306811	18.0901096750035038	26.6775738737665016
41.0118628584138563	13.8704825830674601	28.7227744538318071
38.2306132018125879	17.0658590424047993	29.5798219736995378
0.2734500463181404	16.3833385475798856	25.5799193436742556
40.1749649497000263	15.9558952119392625	24.3732868789217001
38.3949862867412364	13.0594437831143946	26.3495275647052800
39.3768503837063335	16.3166878064963399	26.2197467779497124
37.4451995695602733	17.4983246914719430	26.0953350809951843
37.3785581698627212	18.4955711724878569	30.2891623060543509
42.5088648335007306	13.2088536193964696	27.3970094623489651
40.3673299980742755	12.0697082539695106	29.2407007141481792
2.7770093868572592	23.2787749606501109	26.2603576528669862
19.5196868270901582	8.7059363255449149	5.5138386109448083
21.0541251936866871	10.6193652728629200	8.2772359085030303
19.3036668601452028	11.2049098760697063	10.9725989991930923
21.4964920390101284	12.5064105923969553	5.0847762796075466
2.0678445188955634	21.5895371862147556	23.2584261745545113
2.5832678589656735	24.9481286058176188	25.1399723208573640
5.1560949568224670	24.3324955404752146	30.1182000116458255
2.9924208171924933	25.0117481084516129	29.4808399037392910
6.5200763538055719	24.1584136641059359	25.1142043305179286
5.7684094192967885	20.4571041223838073	30.7375227564163360
26.8804496685172154	28.1337960858045228	30.3206065229238604
1.5813123636966846	24.2496482774435584	27.8088463271709010
4.3783917683173028	23.6136375039583903	25.4193496063368123
6.0887799193534544	22.5431576371605615	31.2858986036615079
5.3316886999953494	25.0054801794470301	26.4804235980042080
4.1178121904151661	21.0084440367604408	28.2760475244197913
3.4865723628348593	20.7111943752841938	26.5952636128688411
2.2440375416546745	20.1191020039297932	24.8624857743874479
1.8278677653283153	19.8718508410773786	31.6878072106621715
3.8581457086937241	19.8640990129667934	31.3869630769678132
5.7724263735243930	20.4297562355099274	27.0018229852271823
6.1638443450407161	39.9911132809050756	25.5380432779320117
3.1809371135717894	5.9908599182537365	8.5025917325624896
1.3589501935458348	4.2278594522331945	6.7305322501847975
4.1107303388055154	1.8038039051145527	5.6536736978368989
42.4035384388983303	1.2033999671213136	8.2015207240639629
2.1533987037785902	5.0620780765445277	12.1169091320265068
13.5600679807444759	40.8604621214578643	27.7440517902532200
9.4765030813411766	42.1384666568315396	25.9385860599123745
9.3084475801347040	41.0849095385178700	29.5612109207443368
9.2686496432787884	39.5182510461544680	30.7712614518017205
10.2879370368103356	38.0291093085349843	25.8996455678769912
8.2496571134642149	1.0147943192073421	26.2142489000264121
2.4651279102986474	1.1117765050799240	11.4316629228664830
10.6202909442892928	40.3225775741639509	25.8872410109788653
7.9905724870886576	2.2788072270258026	10.0879789517971936
10.4978747952118994	1.4150006507777910	8.2655180880927954
10.3158803826406711	2.4578174744047550	10.2177140711084018
6.2398065283950093	1.4727145780861217	9.5142938721732442
5.8946726107108933	39.2033375203363406	27.1559282338059766
5.5538717908800104	40.9911910250044542	27.4351814849134747
1.4747676682022270	38.8571258349590565	29.9525089802245645
2.7466501478094099	0.9841155883638570	27.8190034268777531
4.3238625917207525	39.7445364192458328	26.0892169875402402
12.9323954499001275	39.5078121300893628	29.2843700725741840
4.8094173543718579	2.9948784941213802	8.8768443046654522
6.4501612498235312	6.1812574181991184	6.8669656370012300
14.6877947735859884	41.7686426353779652	30.3496689832635447
15.1902572040888817	42.5948356445918606	28.8260292207839584
11.4460609634319983	42.1975466200121261	25.4466487190136910
13.8392360019509812	0.6612298528297552	30.1015065590955437
14.0842781424019634	39.0370823319581675	27.7699368119815624
17.4951284687681436	39.7135754741086089	26.5847141707026857
14.5209319129737562	39.3695803696861688	30.6213174864996205
13.2647289400494834	35.9409651838829447	26.4959732424819876
3.0134664853442259	39.3708239864232326	24.7925078085302140
15.4975922987650954	38.3865347965751766	28.7052707727028995
15.4681993968489007	39.9385124078789318	27.0208659700207932
15.3895459103783772	40.2315950260790771	29.1034634102344754
16.2505775023436776	38.6881829815574321	25.4557665839866161
16.2397101406483806	38.7566391214266019	30.7008787710648576
12.2655115040150662	0.8695232367926707	26.7687165351983793
17.0925034633894946	37.0165485959594633	29.7697369939051519
6.5275570079396275	42.8808820495909870	8.1812347114020163
5.6948741598970756	42.4959304341272599	10.0249268492159711
42.2534473135338544	4.2038561934490328	6.5812579039536523
15.5797370385803440	1.2903928206742818	8.3216755551965349
39.8290245636380149	34.3949613089683410	29.6360070524778045
41.8571978777334976	31.6005073312601077	31.0313754538526254
39.7395940839234711	36.1163481617976885	30.2769462666619837
38.9811981008744084	32.0474999258512270	26.2406229028301468
39.3634546991053043	35.5742787223417949	25.5543193414491512
37.5784669692457953	34.7209849768923746	25.1304466855535260
39.8731895652306747	31.3629737899781418	30.4126692073201816
41.5871871650057159	33.2137292410725067	29.7432261669473590
42.9901492944909691	33.4866837486873763	31.0838295053888380
15.5755889101609419	4.5949821087700453	10.6594500017441014
16.4897067510735695	5.8143825301555871	11.9880572081829850
41.3314105112059167	31.5403689973280166	28.9653497774134827
13.0247835498619526	4.2077980635721914	9.0114963718229166
15.5688783740473919	5.6378499648247749	8.6472099745144622
12.2726575426015181	2.3916057489143889	9.5958492816356404
11.9341039483051468	41.8486859220304055	13.2510321107589224
14.7365267356911076	4.0290616924689049	7.7409938642070841
16.4418055395007521	4.3668152425758668	6.8231111906780582
15.3917381922527188	2.5937109501816660	6.5657414849497764
17.3856845693404907	4.1069930645864030	10.6798231000745965
12.6769155800151303	0.8649505982382534	8.2128494568214592
29.7290896125741284	35.4053514054870959	30.3355008576436838
2.4373944652910620	40.2394202700924097	29.2330867229710734
2.4491393767754270	40.3110561719023224	26.5509218720701305
3.9130502038163528	41.4745021615006380	26.4487179980020812
4.1929293497679145	40.8533754776973197	24.3469312779623479
1.9890842371197814	42.3808265970509339	29.0238893858587872
42.6398594609493102	39.6911177966993804	25.4423754482386535
3.6028303069460552	41.8987229676651509	28.3170317438539811
0.4981805394364014	37.5650440582140064	31.0701470468799741
1.3028573503958578	38.6671865819444776	27.9242156116911460
4.0684801292739694	39.9687386311679091	28.0282357541887777
42.7809515468621626	37.5847466951164151	25.7760439377762758
0.4690514521692808	5.6758316496434160	7.7799685347160201
2.0609910125252080	42.4404946445442235	26.9441671079147653
7.3271502107513671	0.7927643089178431	6.4603101629734043
5.8424697001159540	2.6237379526062075	10.8457100102466537
8.2479968837167874	1.2884473301585579	8.0598094856446583
9.3731062540715762	0.8296891739307427	6.6034745546178053
9.2084656255780928	2.8058454477954653	8.8430960790361794
37.8668937972321871	35.2163140698712809	30.3940849051557365
36.8336954006074748	32.7724693915048846	27.4839620639208881
37.7055106467157444	32.3199860936132310	30.2373610965011217
39.7045909620298545	32.2891143679271551	27.9346098887606225
33.0017305237844738	0.0830012692027058	26.7186624471832808
36.0844340031788064	36.1816672396110448	1.0166299337729718
32.7034269045820167	39.2136375603436136	1.6819019888469322
31.9781532627675311	41.6499909585455015	42.8731968830714081
33.3294155044516529	39.0237034978655615	3.6759610720746392
34.4796882091730268	39.7866464367923740	25.3200108955095828
32.7884252928299702	40.5790025766843883	29.0758095971152351
36.4759829126674902	42.1372243968995548	30.1581070276325427
30.4081133367544396	38.6662989436900659	28.9318637881151588
34.6525855879409193	41.5358699971745366	26.0506255406885678
34.4961805066288392	39.4446256850015189	29.7603293532464868
32.3560210909285146	38.8252501961063032	23.4319364834546491
36.7609231536063490	36.9977073659073312	4.8852644869644042
32.4451422884600547	38.6445088953905014	25.5150090020259022
31.8460541993189992	41.7245044061102419	27.9963103057162037
34.9558926998352320	41.7446186546826326	24.0589060583451584
33.1754270086540899	40.7644850773922727	26.8216846155553306
32.2353292678851702	37.3954700915763780	31.8946603137290126
36.1427053599863655	38.3388571811768273	24.4691089875914365
36.8026554674093589	42.3039904058607448	26.0378161726857904
34.0683198836653318	38.2231885189608818	24.4166965539854459
31.0089243035275040	37.6684322982013029	26.9624104086045584
30.7972037271394115	40.5318687701458558	29.6062906604072076
39.6793123430110697	41.1643643662282344	24.6748990988920660
3.6379575633402217	3.8469300714409460	35.3888080756745325
42.8683053701290220	2.7346621095069619	33.5717220753507064
41.3168414231820407	42.3897995411139021	30.5199759391031549
0.0329737138702910	41.8846269755794864	26.0726686777274672
41.1142325696976911	41.7218874178489258	26.3293631115616478
39.7998675978007839	37.6060598822124206	26.2739321690160530
37.6961769258994366	40.4451116049026780	30.5486909737656411
40.3865272623215432	42.2060962296733138	28.3377505143000192
37.7387813237698566	42.0414616900802685	23.9200051606418604
41.8101856820262867	39.1789384096566593	31.2799882839383372
34.7828333570950292	39.8759681465993836	27.5384362726801761
42.7634567910929775	40.9187321006911588	30.2804639673680320
38.6641874406013031	40.8248597220048310	28.5879489275030672
38.8219224451023450	38.0145631220178188	31.1041210584284293
42.1271080156578961	41.9621498045778552	28.7350112076068633
0.0113534167779648	40.1273708612079076	28.2461126673580658
34.6195361402584894	41.2397280070737438	0.3049456498310157
35.5688504442630915	38.2777248194642752	1.7668237209922144
34.1196635041787175	39.3198306711527223	0.4775863253024236
33.5694483762832618	41.0727815727600429	1.9181227421679934
31.5297467317679398	38.4740371272673869	3.3767907241957529
20.1926907456818618	37.5155762809394702	25.5894456336193876
37.6158498042024334	41.1711275445515454	1.5924865340950189
36.4030538070647509	40.0907860922444641	2.4558258493797780
24.1319449788466152	37.9165373585090748	29.8359108278502774
22.0338101980230441	37.3157363615134514	26.5440234652268110
17.7071029839645533	38.3465994554650180	28.4147559613693730
24.5731130629840600	0.0056546321975190	30.0632143847392612
20.5069772880248635	42.3564023266258545	26.7936548017176328
19.3965379859929676	39.6353141899100052	25.6080447605934047
22.4917445030324750	38.8912744331277267	27.7028005205079850
21.2327560898035337	38.2442386250132103	29.6213828214506094
39.6697882551594745	37.8514348243776126	3.1526366546431497
24.4191785641122259	42.7620354437950354	26.7496405718439405
19.2462604511489275	37.7551489303063761	29.6124105778461306
21.2201991157894483	39.1462575433439994	26.0707140890840563
23.9154796885717893	42.0791922399638949	28.4158327209278276
23.5445171908856388	38.6080038013558564	26.0640276813571532
24.5032197175569060	39.1349037151113563	27.9494078542256332
21.2558005384242215	1.1676870461201196	26.0286511978456687
22.2835825695393623	42.3602429154537319	27.0278044171659033
20.7659419824853799	38.1940942733937945	27.8625305336598750
3.4625674146844494	4.3574947442704390	7.5278953367480579
25.9070880111956932	37.7918621016250071	27.6837222858973924
35.5591358943551370	38.7101063805560486	3.7672325374507314
28.7597059168276132	41.5274732860973401	25.7512151380371535
27.3314079639417109	38.2800579497718303	29.3644360823293056
26.9825536853711334	42.8043252100724843	26.5234323431589765
28.0856021484934608	39.5874630929862406	25.8217399614093814
25.9433932859109078	39.3771855340937620	26.2868522602310293
30.7244969792501692	38.4814608486687888	24.9927331265136523
26.8517837107760364	41.1649849269587733	25.6727759463918588
25.9096320022070117	41.7246303520389006	27.4889787770230463
24.7735720870044709	0.2191879499485788	24.7205549751722664
36.3953584230754714	33.1366023736918081	24.2869088619538331
37.4843515326657339	40.8672089023699669	4.6160978819471907
39.3230921241357763	0.1735578434361269	0.0518424362055114
38.4287943848449984	41.6291428777533383	3.2792556710775469
40.5453930768858726	39.3867812650503950	3.5612751595406662
39.6214997439988039	42.2060808780489936	1.7506823673884362
39.1539552796065848	40.0892603287302904	4.6738115813851149
41.8770380820944439	37.6952196386076182	3.0646508988877801
1.4191726985796513	40.7111199528079268	3.6053265347718164
41.1628926303711893	40.7234631336897053	5.0895285589864914
38.4202390970485865	39.6611665118087657	2.9319604931972689
5.9102491304692117	33.2234692384562535	27.2534745177779740
3.0528480831314520	36.2097549571755621	25.9418571809182730
3.2084408609043273	34.4004494389335349	25.8844303437402381
2.9282381324500415	37.3425844802463729	27.9998409200299285
42.5436769640148853	29.3123843683666365	25.2265966771839487
42.8943982957095145	34.9973318372271720	28.7695847479421261
4.1198635236448498	32.6863759653557153	26.5027868280639929
3.9327154544347804	32.6293797788256370	24.6331786968629665
6.8181895902822438	35.5589665504487726	26.5455347983825547
5.1218679177100030	34.4904637814065680	26.1967045109851107
5.9510359297442275	35.4267350791938540	30.8005136217821338
3.6355473442776840	36.8782298850853678	24.0957301704650106
0.2272019326761799	31.9869249452816113	29.6029529048417110
0.3090310747963434	35.8738013093542705	25.5826859466990477
1.5263631800187436	36.8164801849553882	26.9702335532368060
3.2669417460415047	34.2475022680605150	23.6418744829354566
40.4728233900654999	28.4956891365940166	26.4336186094795487
1.3465088598220731	28.7865618343386274	30.9119851223492539
41.6693349887866304	27.0330469260901083	28.2430783470288880
42.4688283091902719	27.9784705767087765	30.2299627765894030
37.8435162466199415	25.1934093951258689	28.1551755696781036
39.9952496607822141	30.5051103567069006	27.4531170993118927
0.0187437509682584	25.7175310621081188	27.7565659034128736
28.3852264582636415	42.6487868046712038	10.3426441345116000
5.8495708363493293	32.8443103071853457	25.2359837741536452
8.6714742585561346	36.7966207229487026	26.9915701466824736
7.2936611592963168	31.9228880302946862	28.4711650711303008
26.5144811525109532	6.2473983701039790	10.0634891068231322
25.2904188793383078	1.3777349053154904	8.0496772732849955
27.1493969380741582	1.6696152573996896	7.4037743143747523
26.7001772150924062	2.8704059062864578	9.2045057827752963
25.8373690449971249	3.1335338485970805	7.6114333606106674
27.7159299189700121	4.2982401838968256	10.5305700709664318
29.9637385779682326	4.3544102676951777	11.1817387678106162
40.9042505327490389	27.7002682972967129	24.3029819104556815
26.7941849147939664	4.6337254930296563	8.1134853264714604
29.1885124655213737	5.1388281420766999	9.6064698524384511
28.6792269763639851	1.6733191628014203	8.3678007192430606
24.1469898503333553	42.7877158268676254	8.2412144616688501
23.9287028386398397	2.7102817024828325	13.5260738979984172
29.5262807404531848	1.0348837619367388	10.1066450730006263
0.6986850380715027	31.8108144869707097	31.3447723577024142
3.3744275911540691	31.5322215605651657	28.4401620294635364
1.0334095548946238	37.0091518190150595	29.0141508826563559
1.9901702262527954	35.5127307637480385	24.6245194775897609
34.5152410202891531	3.2931679042035742	10.5637273064085324
34.6699780218376574	29.7486688685432199	27.1199887870703940
35.6658430368513777	25.6903047364226467	28.2097575920387591
37.7770309831429074	26.3931425434637816	29.8224405963338519
30.9659042341142268	28.7006413375130123	27.5819510278387376
33.8566880310316378	26.5406133267742561	27.1395609473639823
34.5223362325783611	24.9866343450366131	26.5064717976142958
30.7767893105972874	29.5202445487064402	25.6706421765999941
33.3351747903125357	28.5497840839401071	27.9350060851322759
29.8662309907434000	27.0514504345957043	28.5073899415328853
30.7147303603156949	1.9038004362121539	8.6565752993776250
35.7504199138533352	25.9415942082313187	30.4373518429663434
33.7156016292764917	42.9985165575932058	8.6480941300767178
25.3808574262237947	25.2409359436854928	27.8600857621851752
26.0175139495280945	29.7880036948009952	30.3341812988374464
27.5405204758770488	27.7457836294728786	28.6467605027277088
26.1272401078419847	26.6510417693443706	29.1383491167429263
25.9593852176105706	30.7119197283372856	27.0381639762609751
28.2236264869420488	26.6011074572506203	26.5218416898000662
25.7760661607171855	31.2576485163009181	29.0726060012149041
27.0775706996535739	28.7003567724840885	26.7320674342172993
25.4309599275132889	30.8747672269122475	31.7411785316457049
34.3684846969990332	1.8550152857797277	9.1000689902780181
39.4715758667326497	26.1391815419829925	28.3189311891239051
38.5537426297725432	28.2089161605176599	26.2728346066808882
42.3593591601699444	23.6853287847151357	31.6827066072595542
40.1876900914810022	26.8370805116946904	25.7221328342077058
0.1527772243379052	27.6099193389437971	26.6499328069799333
42.3776015829105930	24.8782795839236073	29.7307721212711549
34.8834227940358090	5.3088555273609428	9.5453631507217267
35.4410411390599975	0.3669411985844329	9.7606535867580924
32.8727701815793338	6.2013374928992322	8.5567464772840189
35.6142458670326434	5.0236299926000232	6.5466905122191701
11.2974104909321120	34.8243362875327662	29.7927478244159083
35.8503196598620946	1.7600082144070204	11.3094373864854205
31.1617236280335241	4.3499542113533360	9.6793846363039115
32.2709970315600998	1.0498660654640291	8.3045392384432475
33.2815402970245202	3.4553781774485675	13.2250499189958859
37.6951288026791431	5.9380587257558579	7.0464327475892716
32.7354572142707738	1.9415128642311537	9.8612164376241669
32.1057752708142061	4.5967551424549544	7.5355271000502517
36.2126010791608977	30.5754434839951337	29.9684631365417005
32.0212282924577281	27.2988162091757687	27.9957214337924150
35.0439030757061971	29.4138859120629093	29.1448686442475768
30.7318535186196762	33.7063998685219488	27.3371312577290375
13.3290985234920161	6.3616886182863261	8.1966204013069497
14.0989641715065819	1.3114660725785203	6.7525245716124802
17.1128104765663061	0.6155276532012318	9.5395909192050734
16.8337355556840365	2.3308245474134863	10.0707443228637441
16.4672369191342050	4.0364193958690606	8.8425046124701403
13.8058692788706310	2.3811252865887549	8.2115289488243057
12.0376882894198634	2.0825383763424812	6.9720477917514083
15.7607160812827782	2.8231133387593688	11.7562539222949916
12.9818671469600648	5.9917757037447119	9.9296896164547377
18.6070691925581393	3.7423911726919621	9.0780521500926863
17.9305664014077202	2.8473372449175800	11.8588893640724695
16.8979570019258318	1.0875581724371559	11.6946950307193323
29.6378493128192240	34.1814604178387711	25.5382459570161231
30.2213037739982262	33.5773435866085563	31.2630822076744863
27.2193181045616370	32.3594418572391760	26.0976011026129129
25.6266858269522118	32.5439904951734533	30.9159345202043987
28.1633135501863698	37.0211866725455607	30.8209448755799791
23.8354284469070379	34.3465675712457426	26.2015550268298050
25.0335140038559949	36.0245414060241060	26.6795738773847724
27.9122850024608411	34.5608595649368695	26.4583037839084021
27.1903369686853829	31.4023937824039727	30.5750284014665183
12.4078327389581649	42.2913480027110538	6.8688364017626862
29.9524321105907134	35.5828277328381901	26.6548407147356130
31.6852405688040584	31.9857247488464722	30.6262488924022627
36.5841693340866172	31.4113655080500500	26.1463030331080688
32.0753246470495483	33.2179768707825076	24.6823335640811266
30.7111224723569052	33.0257870036014438	29.4873637223620797
33.0625715255611823	32.9509955062026876	26.5188108514794685
35.5792952288525868	34.8404889531157238	25.4322248033930585
31.8384603807972795	32.2539521832527498	28.2244129714703682
34.7232622600460772	31.1967212747469098	26.0271898990076274
35.1741546602207364	33.0947240454683111	25.8403773658946321
37.9401992257784286	31.0899529060033331	27.3429790825952423
17.6472688488959690	3.0804207172402163	6.3234752249709647
36.5975865612190461	33.9649706737581667	28.8695267489856455
35.8760737896582711	31.0440267051966963	27.9248844234226965
36.6156047986255828	34.6344665297913110	26.9761159744957553
38.5277325029427402	33.9070689087969654	26.7619506251604591
35.8707493873008971	32.5517212352514562	30.0322148993023355
35.6894999412521514	35.8586739081804353	28.4800781570302064
34.9979674088336594	33.5784985223116550	27.5563503525274385
33.6467324105946943	34.5263111946202770	25.3200899584274133
13.9344719013811886	3.3171914613970599	10.6560730780415849
13.4833418178168518	3.2310621542702185	6.1740006220428283
17.6242888469449213	30.4159160789589400	29.2758272953400187
20.0649763685313580	7.5681034725121696	10.3131729893752251
20.0243484051802056	6.7824802227693191	12.0899839950545438
24.4570372524630599	2.7794945608201664	8.9729251153252836
22.3396072763278184	4.2599546079723281	13.1066698136926458
23.2527987048275833	5.8312928029864652	9.4044665811687231
21.5315559632094384	2.1473836801061439	6.7321666096208395
19.4585093001772513	4.2150271379692956	10.8266194539842484
14.8094108012093706	36.1625169183023445	27.5332346598765696
13.0135694444575680	35.2430036534952151	28.2067402410100243
17.3604171915669880	33.0165212163533539	29.1039893535478207
19.5509507208279594	3.0923461116889910	7.2235087400268219
14.5156286825341141	34.4655042898770034	26.9335509342253978
13.5522706725266442	37.4105558485621259	28.3700356734191885
16.3922400925777438	34.3547356792408323	26.3206982921172319
16.2433089256893268	34.5212267422231065	28.3166733225760368
18.3570548756163880	4.9796637797039232	5.7555069607222293
21.0148206297696163	42.5959873338462955	11.3614864548962142
27.6185789322002115	42.7855054912250594	8.4352992997998637
9.8755764263317953	33.4538686346885044	30.0687053877149104
7.8309432668297054	38.0398609478627918	30.7441471826380059
7.8687429193497769	36.2418131416492599	31.3048902594566520
23.9453587338600258	37.4111184755569965	27.6844021720291593
15.9891906120520879	42.2621850321714660	8.6977324600958728
13.7458079248724712	2.4600807856245641	12.4236304405611246
23.4125021277700966	33.5592634672484422	28.3455444346569223
21.3732921285894655	33.1962586916491560	29.7751242462407291
18.8254743809410989	31.9817937394621055	24.5685599859073811
20.4497125342855774	32.6176259707577145	27.9797443062269267
21.2860008797198716	32.8844013460647631	23.4109923251753180
20.5087207374578568	34.2104495249780882	26.4846905820669996
18.6918818611119200	31.8973373152889259	28.4142928461294488
24.1989105399489723	29.8245626819473628	28.2081306374917382
10.5722473450916379	15.4443269419540634	30.5148928120096166
19.0779821704064183	34.0290141521737866	28.2714471494976820
19.5785409097105862	36.5154934784602503	23.7074795624548713
22.6658619827689733	34.5733308432057100	29.9675784640885610
20.8753481457900776	34.5390016708913947	28.4671281637068887
20.7852518053163351	35.7564744702935258	25.5144406783657089
19.9826198614758361	4.8372733245413668	8.6002031264747352
20.4506236225258284	5.5373548736805027	13.5032578950941335
24.5361619571340057	4.6925115559328745	8.1297767139966446
23.0514239127527922	1.4357714259287981	8.0099125413504844
20.1142401768588925	5.6747866286806996	6.7402135453540843
16.9453410565476403	23.1487619455410503	9.1462064069027118
2.6002078352677591	38.0833371070955593	20.0170117729851853
2.3916014306508293	41.3883211442692058	25.0908983011941409
1.4369308280425255	40.9762592636332244	21.4098733633176508
12.9525308123574980	23.6968184045990107	8.3613369500721948
16.2917881981973132	21.0226940790384624	9.7917687376229541
17.1526161316752628	18.9757049566198432	5.8437430251824720
17.2460354487941316	21.8700058880280039	7.9406276477038427
17.8208123044279851	23.8221091657759629	7.6752721798411141
11.1466534493475482	20.8527470062525211	9.1542605612553825
17.4993997014843856	23.6022580101493240	11.2503149720689830
15.4298997330519594	19.6596996658088479	10.6972761394079168
4.0585991228927378	38.1415371369529197	21.4029831238121346
17.6425035512651291	19.6799732533746656	11.0059864406574466
13.9059198975466956	21.0981129942159349	6.4319546846953211
12.4330175407117132	22.2145812109840932	10.0623977500829884
14.0999753233394021	20.9087070831643373	9.4711747670275273
36.9783264289553628	33.8334139410485903	21.0287314304597643
38.1979459662457401	32.7014178508168385	24.6348499213208427
38.8655883033453691	36.7318878242603901	22.1187776020863005
38.8737267379639349	35.0682724875610958	23.7377580584073833
42.9379215036264554	33.6012470100237479	21.1155500978485158
39.4940861023135099	34.4554101551718190	21.9393063517009104
0.7603430771800552	38.6938108556129947	21.2498279989567465
7.2403641553346754	0.3767094714227653	20.5313838231252959
8.7514410052231124	37.6334069445506145	17.7473005148939649
10.9915339116019410	0.1378883251686499	21.0899446631243244
11.7509302560689246	36.7453260325817936	24.9916080210172495
7.4544833684668390	40.3504141582018789	19.3924450711587859
10.0959666820121203	37.9262769912261106	19.3632210229680446
1.4290551710211212	39.6917859680880341	19.8571343532355229
2.0611979381570165	37.1916553198983664	21.6621601067296830
5.6298587584918272	36.4071609333958293	21.0482534471079958
0.0143424595828738	38.1273255385835697	19.2185029727761751
37.7117964414728419	33.6428539274571605	23.0703335565230674
4.2500472147562522	39.7014306631366836	22.8859772331292675
3.9862467873776213	36.6297225772791393	20.0971569996756010
5.0020910020911158	37.7801556408766714	23.0357990202433918
3.1409295106519601	41.4656383271463866	22.9566913537731523
42.5191888893206809	39.2791731236751573	23.4394787354857996
1.5188136673805330	42.9951426898230196	20.9188854225886729
5.9229408542023982	38.9056904156983947	21.8923046753417658
5.2027712737509422	40.4072356357007934	18.9515060027116355
4.7670019774396923	38.1934608897844328	25.3192098040837159
3.0398145895881430	40.1062792732124649	19.0757068066306736
23.2707048250074422	21.4114042294468589	12.7284971736561054
34.3623371270931273	34.9620246949354225	21.7350972029572915
35.6760862263645819	33.3108021071951867	22.1534635971230003
35.7809526927527131	37.3451947428445834	19.2135678422050269
17.7441988688734043	22.2681360701827202	5.9496099050026663
22.8204861333089930	23.4897051727402939	7.1027803751075389
23.3273842589731935	21.5379808743428107	7.8501360486699303
22.6829415521439337	22.5462713085174933	11.1463869244246663
23.3301408829464378	24.0569282982298596	9.5309842109034264
24.2551771021621434	18.3281932911657996	8.2838465519130313
21.0575211646046974	18.6076680026278645	6.9678644182962950
19.0901390690994930	17.9386180262806079	6.3094147026271301
35.5577566253175732	33.4130816460961100	19.9234069255897488
21.2809177347198890	20.7178827965705246	7.2006432932761717
24.1286232517488699	20.9797930351367832	11.1391058024133169
28.8218940178981136	31.2536064960533864	24.1966869825837954
27.0258159858982268	32.8518759058879724	20.3867864597255704
28.5052536717551597	31.3644946269579847	17.8687287573067763
31.5422521861023988	33.9310464734807553	18.8762584184225339
30.4617897397754263	34.0633320102324433	23.6377880719086519
25.3551492881498213	31.8433411361565106	20.8691301663276931
26.0337183736291209	34.8597104656153363	23.8300845713557123
28.3392012761323073	34.5092191454983563	24.0716127749270541
40.6010661618764814	34.6770253800251069	20.1520582078537274
40.1614420734042881	36.5952984318404617	23.7341078489911901
40.8376016096851302	35.9382091015918377	21.8911870474782191
39.7907098503914298	31.1811686704094626	22.5944940463487001
41.7253474414203893	30.1925372542982977	23.2043354322739646
0.1597940516339591	35.4194465302101023	23.5462644911281203
41.0909524934755126	36.4593347515216664	25.3930508869766811
37.9043159604832240	31.7152582267816960	22.9798051978950042
39.8817078934448190	32.2692249073268229	24.1387525357541151
41.4687023894767535	32.4342421511205288	22.5030913003974717
40.3091569594833672	37.9440545252633115	18.0689359763427930
10.5912671241571772	38.5528422226748901	21.6451099053714024
35.7476844513571024	35.4276658697996822	20.0125807433929630
37.3757406961490801	32.1601226813517727	19.9670639820951266
32.4412279166240936	34.3248008398725233	22.8820950447331093
30.5291929601865988	35.4307058425495214	18.8883881716975637
36.8656433359989961	35.7829978524522474	18.3207779219639590
30.9553945914991111	31.3466775954281580	24.5001542983839045
34.6160839098735238	36.8110085159559759	20.8573201142658498
30.7266599403288971	35.2277430080373790	20.6906982056807678
36.2609476540905860	34.9736014616629021	22.7064316543111779
31.8266070147316320	31.5010167037076769	26.0997920569441817
28.8662074055529771	41.5492452014982732	20.5214033151901916
25.5796581952073403	41.2762982090333637	24.1299514019055366
24.5023055013052407	39.5730469787395407	24.5130920814870663
26.6590537945159909	39.5801206130015544	24.5788819467538637
27.4195958071751562	38.3218733620968166	21.5015724014930925
29.8863986146219780	38.9467185122544350	18.3470651553153061
25.2642483840537295	41.4652938853428381	19.9309360556396058
23.6535717495773525	42.0374547347631093	18.7815143915006999
27.3286948357913495	42.6604421293797600	21.9223882764155000
27.1169358021427804	34.9342861958255568	20.1249680113249916
29.0013454118753096	39.8469840811602438	21.7872126302795088
30.3754262877064214	40.0748493625715554	20.3010266492009919
25.6337371088244090	39.5056754788796027	20.8955862491921742
25.7631182949282831	41.5433106193080306	21.6532323340357600
23.5413095903952652	42.6077653761565642	20.6013986187548035
21.1893290440470956	40.3116161779054920	24.5292528129818272
20.0609801786033444	38.7204940219029723	20.5496546987573829
21.9863750989985469	42.6591122262525175	18.0789536431619169
21.6477797302425330	40.2930994569871075	20.6076757584551125
21.3360412706512719	39.8148954770430805	22.4350576881585262
22.7051541076037395	41.3291421828359091	21.8878984076920595
23.9102541970479550	41.6857862670836212	23.5188551424000529
23.5204652744374698	40.4909207013389363	20.1368612129377205
2.7633135619380771	25.2092924249402301	8.1178740966515459
36.1317156344978159	38.1392584134974797	21.1406428348742992
31.9734808250282150	39.3645561683685301	21.7239453520428469
33.3196215769321640	42.5833375252192781	23.1437851623973216
37.5783337857961968	36.6154075602619926	23.9608112922079783
31.5988018884087438	38.9558124633410330	19.5982728946025979
35.0131721348359548	40.9850797235755522	19.9317654928101575
30.6751328503064080	37.1723120463506405	19.3369888476953378
32.9611889476913902	40.8045368692607866	23.2390878475082481
33.4669871798160656	42.4125700451492023	19.5172704529535217
0.8127306677532116	22.6087494336563957	8.3156906479863366
22.4434255443786945	39.0157488262780205	24.2831914886242970
6.0148572761648502	23.6465230410085070	11.5550556011748906
4.7064727469396592	19.3180149320903993	6.5835411834602793
1.4922570828829669	24.4415399326844671	9.5496150063257161
5.3428480642767857	23.1560901555055025	8.3715903136851200
2.9606394141153549	20.5878847678678518	6.7318927491301119
5.2539835706493969	21.0758502570140891	6.5474692252373137
2.5134358491554840	17.7186954686461782	11.2857995325861076
5.0433935911452545	21.1266637671723920	8.6149854166200353
1.7479429844637175	19.5215194309380990	12.0407352306027189
4.5574107716015364	25.2148441718811505	12.0856052747731777
8.2048678159789805	19.5841831843614678	8.2222629689675948
8.6269984459215525	18.1319991922094417	10.2795228985705158
7.7287017753702916	23.4158785485070879	11.0162657168458935
11.8514259899162706	20.8010737962441539	7.2389931014035866
8.2819634914133697	22.7503966173806020	9.1660072775182275
10.4221606054878801	21.9703962635794134	7.2234711067729496
8.9419281074777235	23.6150280165368578	7.2979431475348644
6.7163745737175589	25.3206644590338570	11.7322218519419987
7.4327364908585229	19.3540028925187215	10.8378170671895457
8.7833002817619388	24.4784067406264469	9.3783925854904950
10.4677560763245534	19.4484129126320120	10.5610482032915325
9.6873494137849523	23.6291655081585183	10.7604052396961585
6.9016441503794539	21.4570425680606967	8.0876257128790510
8.9351966209921834	20.2007520288081004	11.3989358173682653
10.5731146362603603	41.8139506057810095	19.5828092400257354
11.9013679756797277	40.4818347526308528	20.0974400728718550
10.7716634290269866	38.1214983172175437	23.8716267201773817
6.8071414137087283	38.8071994570776226	23.7827085955654347
6.9414684518622645	37.7695332067586946	20.3812382883629084
10.3681486934470932	40.8546963301832946	21.1910054375782551
9.2861608834034506	42.8444076089960504	20.4012820483825124
8.6389044906148360	42.9039009346151730	18.7117882318780318
11.2219926720772971	42.6244058867518802	23.4069004337989028
18.9029822571124946	37.3207320197648755	20.5602310606433747
18.5387595645985819	38.5799627040826181	18.8412536013524701
22.0882269623374157	38.5189608851909355	20.8129635297997986
23.4506828241909737	37.4543405328244745	24.3265091843012833
11.0132081996440050	19.0825755964393551	8.4447834409113547
6.3946405224908212	22.2341758974919941	9.8389990608764695
10.5522624945702237	21.5835326901081110	10.9363669387449693
13.0806608359756407	19.7803619654175407	8.0805914554284772
6.2520918187762131	19.7227082405884708	7.8153159261444536
12.6845818920438926	41.6476200776838397	21.7523574301862404
26.4843884413818067	33.8496628112427445	18.5913604911972286
17.4976173892576590	38.1949072946166481	23.5487705135541532
17.6865490700962198	39.7244528287031429	24.5189320164355671
16.5128118527629013	38.8121212564229694	21.0422019671936447
11.9872811577428315	37.1282308509305636	22.7977783881547857
16.3244806151086443	41.8731956110265173	22.7017982594674841
17.5605283807765495	40.1703311734535333	22.4905844562773254
13.7523604162022615	41.7633965301127290	20.1821982748416069
15.5261700052359384	36.8264905501739364	21.6714089052270786
14.3638592426540157	41.1166396606148723	22.2300768617430649
12.4587877725001821	41.3098365442977666	23.5382107406347529
37.5454429027900929	26.5244179820196422	11.5898372734001391
40.3057910075445776	29.7712031004555548	19.5138997152530891
36.3190926967573446	27.0512648271514351	21.0069232075112886
38.5319896078734558	25.0262616433875351	22.6064585995232932
40.1317806641386596	26.3222468302290054	21.8313172549873755
39.9995380301838068	28.3613326853441663	20.6630328763940980
40.8864286296606565	22.2032143179455304	10.4072343779285905
39.9355701626731516	21.1108021590682888	8.5867019289460149
40.6443017648579143	20.3978343742755008	10.2162189524460185
42.9945898130714141	22.8647920744026472	6.4554199630573450
41.4231641669037458	20.6354035534634939	7.0989309204128883
39.7766832820085696	23.7666479765423411	11.3391779755158417
42.0503576671876331	24.8490276649735797	21.8218142047049959
38.0416409772632917	20.7118379323537241	8.0059404016204692
39.4257751105867271	19.8767134144562228	11.6205248024528469
40.0014242621839244	23.5185780624361165	8.3114800286849082
31.8009373879330397	29.2397265927551260	21.7442294042502304
33.2560257040169773	29.0667620467221894	20.3732389029814058
31.4074323615892510	26.6973659941674342	20.3560050248936655
31.5783991267672199	26.8637269809933414	23.8526369823444675
32.7712345854262850	25.6716986081712975	21.5814741419949279
37.2265812279680333	28.2046535460316221	22.0517218332511398
37.6833122770038074	28.2493631354647370	24.2099506869037882
38.1583474402834142	21.7336425757286484	9.5356149789389448
4.9393206160772047	36.1143053375618592	25.3804029322005711
2.3473963792113577	33.1644518304975264	20.8453332186789133
4.3249080695524986	31.1386189726350189	21.0122861459137376
2.3901322848674962	32.3880929978196193	18.7246043100053541
3.8141023982751023	36.3450651591880387	21.9679140778225488
5.2511721973722478	33.3737414106928227	23.2995551296509014
2.7311371706775458	35.2865761822389885	20.8376193730656922
0.2801873597841242	30.0164440950841040	21.5602248512829888
3.4298068743966210	32.4262208420041205	22.8256917328868028
35.4861083217866025	25.1268863569359162	9.3704501727535785
34.5642775508556497	30.1525646263990801	19.0170782847092852
39.5403371649252691	19.5251263357330629	7.6108974309527975
38.4002535911562077	24.6141495135882593	7.6650340653025753
39.0986187778509802	22.8577325367786663	13.3989077904699982
41.0567579110860308	20.9391328149020062	12.2188891062487670
37.9453412811505473	22.8417463108673573	7.7463522017666531
0.6021325048971993	27.0001908023232353	18.5268050545007945
38.1832289806780025	26.8236737526556972	22.6891742639130634
39.6401350769659828	25.9015385777528770	23.8260354040870794
41.1657819875667812	29.9588812110315708	21.4842902008604604
42.8500941774123731	25.2729948147370536	19.4869946021394504
24.3732963602185926	28.2792228948621087	24.2522364078243378
24.6486089759697329	28.1064254908802269	20.1967499520501477
24.6701765109514071	26.1085354772102285	24.3084087267206890
26.5596861021369683	28.5044909335744201	19.6658701569299481
3.4792253114918577	27.8955511821309123	6.7668478508589631
0.8404234666478272	29.2836857522257006	9.3202938780803120
3.5800769030122819	29.0806683220542439	9.2212635887994328
2.5445297339314474	26.0431174808038683	10.1260727003910009
4.6465614982665873	30.5964065747102296	9.0323898573101999
2.4703806928455130	30.8786693544668474	8.6254645408285597
22.1318495545914296	27.5114953772241151	20.8106566345419601
27.7819043728983566	27.9530381142482760	23.0992171714485792
23.5614040108952238	24.9724981105963550	22.7194750954146372
20.5743771210019908	25.9764615418754339	20.0512206758216074
23.1812546521852845	26.5999546588939495	23.4149469894960163
21.1204794285925459	29.4357241797882594	22.3762616644209551
18.5818892743023802	25.1415221153291952	20.1723331135674506
23.4192200081383959	28.7833086544757748	21.4696605664766587
20.3385617918790054	30.6560877659277118	20.5219690232113301
20.5384745629097871	29.0773776461182685	19.3691441999609282
19.1924520098629650	28.5019880090490503	22.2609666663578878
18.5420923234126889	29.9020078417731163	19.5109066593968201
26.1129012835475045	27.8923707215842427	21.5422585747256932
32.8434443590316434	27.5095617835440542	21.9134127125054512
33.2019249586330787	26.3306177846019942	23.2498436339573367
36.2746830725135965	29.0677813794824402	20.2561224315435204
42.6876967773128655	25.4292384384748260	9.9721701871793211
1.6215510833230080	28.4006329276195260	7.4367671329642757
3.3330032157582949	27.7363544525632832	11.1259142062565584
4.2525115085989826	29.2937064217394614	10.8982976612087477
5.8990509493387497	29.0409410301332542	9.6890997298288291
28.8205242988354797	28.0219928543614927	19.3390802889509708
25.4114329511681341	29.7181188636000648	20.8721378908011559
1.8555035554403514	35.4605323527224456	22.6040162139846714
29.8924903671081204	25.9544386484965663	18.9978376280467849
29.5665901768697630	26.6038102615932175	23.1850222342194954
27.9124439279886332	26.7627008136213149	21.7649544121799785
28.1093655262833586	25.3261451031148788	23.0324186291151527
29.8342789079766533	27.4720671242946466	25.0108786036667858
28.6380810394467069	25.6519762661424231	25.0236511431046296
27.8198510004806678	24.4823155231755329	18.5260506046680042
28.1537055332581758	29.7668636225865164	19.4203867986583560
24.0568161828314580	26.8679755011425421	21.5631550547223725
30.0209372369364758	29.5729401765085207	20.3896518396570841
29.5933778373764973	21.8195305543755005	8.2343539807875796
22.0039406676971474	33.4761539024687096	18.4761166340650647
19.0643805878805530	32.0693102986483183	22.6505261652181353
21.3216250861319736	37.1558970760499676	23.9406364722096860
22.0836802747774890	34.2466802291554373	25.1135446308397619
27.4167061202548936	24.3528501742791015	13.3020300970929348
26.2089314072139352	19.6789316060551762	6.1650635333929094
23.8982163409621222	19.0769907823592675	10.6958655432835048
24.6553873871905083	25.6955949178702596	9.7198866028786277
25.2843918066229598	24.9166972109715417	8.0169978170214744
24.5042712050860096	20.1304106751277665	9.0683611241945616
26.5803115875455518	22.9801996536351183	7.6533378746898943
20.2188038866996251	34.1499625032783811	22.2889402300242629
28.3079885422964352	22.1048418689543951	6.7382794812042865
27.9653420097461236	20.7856813769435966	11.0058473438273001
26.2634816215772489	19.1144346573606256	8.2591152268443704
26.4388478318978741	21.1550640655234972	7.5039361944861502
27.5338038534547209	18.7925884839905670	9.8853301002874510
17.4051841496840431	32.1147143264948340	21.5185766605582707
12.7280894937518667	33.7592102299101384	21.1157446431559990
13.2477885034044061	31.6891861375682389	22.0848690209501513
14.8267622902580136	35.4640581203829228	25.3186069825321667
16.4699131088633166	33.0093271714010683	20.0023276552399167
20.8713486569533373	31.2897102599803709	22.3066667013586510
28.9384618095260500	35.6168274374658935	21.3116807549013565
22.7865381320874079	19.7467603548080000	7.7360717477014420
22.7776806972170505	31.8487603423307490	22.2705511722885063
22.2057093480832997	36.2949094410022681	21.1160135530628352
24.0559563644544596	35.3127692666539161	24.6171172617917584
18.6055776050172703	33.8927869042078171	23.5587337280121361
17.7955036453883011	35.4429912617854015	19.8384995157427575
23.8181742046771454	30.4085412095375176	20.2500605636774402
17.5169081745019568	35.6992496864797744	23.3921960132661440
24.1104359005703692	30.3363858321688937	23.2786260749207763
11.8586593051974347	35.3619467698086964	21.7796228666239848
20.1299918739354062	33.9837712337800113	24.5134052381118153
23.7168739568441538	35.9717195366343745	22.8294587029055123
22.0663085443714806	30.8555331677733840	23.6501916234418950
20.6763012981230148	37.2936020686655212	21.8942378297453963
21.9749974827933165	29.8935215194786998	20.8198488752234177
20.3453378369068290	32.6597186222803515	21.2240340236295566
23.6143872950150993	33.1068131273432940	20.8047824947079611
20.7423573597359514	32.4509156347595038	19.2992485960557332
22.1080886673206933	31.7943016290345000	20.2942112427303236
20.9975295703513360	34.4221877039790698	20.2757585288655697
33.2228188189443401	22.5012589003597370	7.9736002775552759
7.0790474996214767	33.1592520088084441	23.3385753875244966
6.2010799373993208	31.9699751116629649	20.1429184515275281
32.5385124133067620	17.2366592742699218	6.5444876704875226
33.7527735193139691	21.7069825997499208	11.1537487062901164
32.0951170932551193	24.3345423300775465	8.0989433957039747
33.0788127496169508	18.6733931754040761	11.3274611462945742
32.4128483711408251	20.3334798216246675	12.3208871951544712
34.7843350698627276	23.3720027346487171	7.2429076059207294
34.6766740774750559	22.9154193327034186	9.4383275530356538
35.7610696340195773	17.4615058861763224	8.5350585268231089
10.7486556783085820	34.0275276668020084	20.1936452250875611
34.4684318180660156	20.2338249326188944	12.1725785568555906
35.2744037067370186	18.9696453749701099	7.4486717607774526
35.2029744027302200	21.7344450900370880	13.4714201195684478
33.8841722121779014	24.3305158842220770	8.5445688491319221
32.3812065797207040	17.3563990493314151	8.5575125153040084
36.5361591015407612	23.8822316289548411	6.5635398959546976
0.7090567272430682	32.4313469579050349	19.5636755806286438
6.5567855521663914	34.6100475883100387	21.8815946621512971
1.4054502209583124	34.1945562176955349	19.5737569256212147
0.1068467103838791	36.6297657218336070	21.9193598780251655
10.8247483620511460	34.3711528375910405	23.6969676972630872
16.9886879656369842	30.9305037939040233	25.5548850173585436
15.5955191814058534	31.0695885755849979	22.0669520563018864
15.1918917721305586	35.8280869494896521	23.3204446207994778
13.6412434340945286	35.8074693540974920	21.7889087668199402
17.3368076937541424	33.7853526742416221	22.1397410133290471
13.2306923108919783	36.0141725852225960	23.9027652360795955
29.3397879347617554	22.4271583183385204	10.3609008407704763
32.8546808585040466	23.1944356640947653	9.8291595946949233
5.6420664181571292	36.6819201778096584	18.9793168072368879
7.3434187392455819	35.9230515938602935	20.2624463259624612
34.6930871632798130	37.8854840793173651	22.5669683891300608
10.9301050335999417	33.8299248991471728	21.9757367639464469
10.8356233944478433	31.2417077140327493	22.1061223390341866
8.9989410482449621	37.2994240008847342	20.8618534087228404
8.9797865392776650	31.5092478884616938	21.3245874275584342
9.2867936264696667	32.5397601451924814	19.5430311386243467
8.9403422163558339	34.5582273265589279	19.2532914625245155
11.8500015372568281	32.1716120418939511	20.9950487144678455
9.3503072989115150	32.7771612026279655	22.8493267237721618
8.1803586710401053	31.1216734604736978	19.1729713839530262
11.7456084289818428	34.8922067077999927	25.7223505493040001
13.1706424173310843	9.5446171253907295	26.1345801721904145
7.6057077557848034	14.1514797898579072	8.5449129042843293
15.8033562390661952	10.7180586778771652	24.5837994318837012
16.8302397748130161	6.8037821922467128	30.2286946971175254
18.3361906773929526	11.5723923827353481	27.1206965796227770
14.1835285422968642	7.9900254436785971	25.7226282131278232
17.1532099054660065	5.8950992157569058	27.3351403695585020
15.3152365483596729	10.9565955086296487	29.7769363131699869
17.1029829805706441	10.1069869593349999	25.7417677271000791
17.0828212564308330	5.0030952805537057	29.2293253882505795
16.9330012006650144	11.8523736029070932	30.6737717632184861
13.9006212414095316	9.7125887932659953	24.2945211181170038
10.7561763040924205	17.6142299307872285	12.0367556011637440
13.8462866490216641	11.1602955317800614	25.5229747639877225
15.0091632099932379	9.7464502326013562	25.9594015948275327
18.9950252606398813	5.6054195604430737	29.5279762314273597
15.9198985786132727	6.8397369058470163	26.2873088192974969
16.0952207730235273	8.4436957441147484	24.9133400962298666
12.8835273231045644	7.6333711622427369	29.4423064723010022
17.5115212304313985	12.1038003554085911	25.1201342941933632
12.2449925061159810	6.1662809693340872	25.1524739313763703
9.1856652838491097	17.7814255698108674	8.5160123150980596
7.8314532105118957	18.0370851053976899	7.3128644260927764
22.9092921966448557	9.7142807475349375	28.7828814248149349
25.5917019026364692	7.1273655446424531	29.5387529171017142
25.0352174556339264	7.4696727760094612	26.0063981707347978
29.3256567432634405	7.2123282104993063	26.0803611512322000
24.7970759611036158	10.9932549541780933	29.0869089754431336
28.7855828352015131	10.2403553638507123	31.1369475242528360
27.8618302021015793	8.2451804095982375	26.4742401186009104
24.6002269026427172	9.3103844634891377	28.3155041833426715
29.4110404113608936	8.6885961024312710	29.6095575570988601
21.0982226893073204	6.6700927274648034	29.4872671251263796
23.0305686326493095	7.1194074287208347	24.8912988764601053
7.5424236068946042	16.2296103936475014	7.5139143698081003
21.0386859836532594	8.8907430883158352	29.5680925921153417
22.3666575800446843	7.8580185711269106	28.8264410168509286
12.5505205570080722	14.0563399722989963	7.8341080378950094
10.5078105021065049	16.9154505724473410	9.7213234662351127
8.1584064022120764	14.9626100485168436	4.8393101542929449
9.1139647675597999	15.6931541845424452	6.1951800099745915
8.9849113309255575	14.8927716262774705	13.3845092060124031
10.6844019528593392	14.8092821068123630	11.8063923097544592
10.7802763125885814	13.7257740296873418	8.0868936057410998
9.5533445156905596	15.9533496052430852	8.0785777914421661
15.3639515896846977	16.3060864782340786	10.6775838436815391
15.8103323357313510	16.3152107230343475	12.4252703393274828
14.1838002339791114	17.7329958777264167	11.3599861884330906
13.8000769381717099	18.8743230163027498	9.8691160812073910
16.6218611409654073	16.8832916197003406	9.3145274374332061
12.3753928757015270	16.9866524906946061	12.4492692038375807
13.7389710361610238	15.7144613751378195	7.4288341269244649
18.6989883555474954	16.3038196307248668	5.0168483308709337
18.9943919102860121	16.0221899939626482	10.0035076712948410
18.5185340945298478	13.5173095145806901	7.9813641805306839
15.4150643300477075	14.4930398379184346	8.8233815266608531
16.5756727560616604	13.4312685151656872	7.9369658918341228
10.8957817486933983	9.0847495855970308	26.9846759368242672
17.6456407348035178	14.3651104642665430	9.5049752943466963
14.3748237391123013	17.0747620091290102	9.1406714875206987
4.5475189605921198	8.4113190968781488	28.7401781028604226
2.1371545519499748	8.8070585601048794	25.7673690371320596
6.6166511440816400	8.4669098990028555	28.2515692437031838
7.0784103391966902	11.7981022530246413	29.8704235991942042
1.7457628133705219	5.5966214995033932	27.4494111934981007
2.3465342426981644	6.6168394333613447	29.0174990157333994
0.9665325722059609	9.3740960450563460	27.6297514802794240
2.7724731154864406	8.8783909106039349	27.5178620501638669
8.5487740045566216	5.9815503507194494	27.2039414470474519
11.4472793107355812	15.4580395309657366	9.1811889448851396
7.3700121744736418	10.6045400552273996	27.2912195276178977
11.8032026693656764	10.9684373652739460	25.9185505546620227
12.2241842912821337	7.5891953464774948	26.3554798824904566
9.2787326345835535	9.9408213967062622	27.3903907809124618
9.8358614681850618	12.4021691814618826	25.4832316777039907
12.4794408351663311	4.4344968711743586	28.3653051174175559
11.0710306569698087	7.8920765871392256	24.5758945951967185
9.6716049510916537	9.3342130730049924	25.3082052847132033
6.8833505109591275	10.1473286977560306	25.2660715766815756
29.8083902195680608	9.3120187592914103	26.5174238508425084
10.2940842445995528	9.7162468115470393	29.0987221615632237
11.2208709777526146	7.2383140399778556	28.1207681918705497
6.1432844551171710	11.8073697473411503	26.6507466079855249
8.2336548066962738	8.8529018676172342	29.6001638936063500
11.1114688927517822	7.2545192006224886	30.2442809213758750
7.1550965466784193	7.4526353425878566	26.5419873243976632
8.0164403515950280	6.2652454729134197	25.0793070167999446
11.0447235091204554	10.8733404612460998	27.5607875656087487
9.1720869070797928	10.7521023903417916	30.0479069795820273
11.2945830549976680	5.6159860867407438	29.2626496867762889
0.8477843612024307	12.7808771414530220	28.7923488247922421
5.4329167126190150	15.3116467744680236	30.7520415497878652
5.2542053472418750	18.8063786086462947	29.9877971386053019
5.1681023280159373	12.9550436949927121	29.2913352158925271
2.1603614846587620	15.3782906289750958	25.1557724626739088
0.4449614613707228	14.3713107538230549	25.7449754405454776
3.1560150485764025	14.0104613701072793	26.2689633523099637
1.7230943699609436	11.2528437973482358	27.9251536765431254
3.4704358882017905	17.0160020252060278	25.3202268587598951
2.0499083839096799	14.3895052749241046	28.1776338638595512
1.3544537090499678	13.1895640137566588	26.9760947147527901
1.4123937179926160	18.0928542970714830	28.4078165268772125
3.2790062648965881	11.9173474446187484	24.4521011632610517
5.6564531781898859	15.0017994860351198	28.6944961581271443
4.5318018254093033	16.6110876214332706	29.4421476355878475
36.7185870546835531	5.4835825265728868	10.2934837571777535
41.7370282898253606	12.0238720795934384	6.8842516345687850
41.3162890883624172	9.5123908981860481	10.0036622453301440
38.9159804880641360	10.8649084354972629	12.7952949160653997
39.8191727778602669	8.8263317887973489	8.4668674026193091
39.7460514298057248	6.8635618661271653	7.4292585192854403
0.2462362425218031	9.8465864956400129	9.2801033285609229
40.1983021779313745	5.4762830038035375	12.7815806294764513
12.1678803817217709	15.2071804441699872	26.2492833365956102
6.8160971062420534	12.7047506335355287	28.1033651306823380
9.1702444990836867	17.1306644929053249	30.5719514592900161
12.5568927655529716	17.3407101815974301	27.0627767448727994
8.4982184364018440	13.8029153490126735	29.0003346525795465
7.5973130051426665	16.6542733687546125	26.0617285175578708
7.6086768442343145	15.5693086190891865	30.0903160298952983
14.1954722472866290	15.2889208136654950	30.2761955563396796
7.9449673409300923	18.0613976767602402	27.8492373154289155
8.4617155102236001	11.7445305300307865	28.4797522856221477
12.2636850950371805	14.1336947721269155	30.6157776923685674
37.8556978949496568	9.2749844703093185	8.3804534440587037
14.2134358519667838	17.5896312515166784	30.3528175825493065
38.7632376836740065	10.8151466229039492	8.3812693080528220
40.6821130102637198	10.6045890524931341	8.5216481145460676
40.3898523724789342	5.7487496983428024	9.9388217184110701
3.8919821699356896	11.6951023466609971	30.2529637462004288
4.7840838330982400	17.9745454539615643	23.9089206118082096
4.3347532992489519	15.3421456089575265	27.4386257509145821
42.8654161502136901	12.6019963045498766	25.3824529845491931
2.1253465077219666	18.4003331755953994	26.3877969689669669
2.9839401490058757	12.8847892388778451	28.8639544438033973
2.9662017093147890	13.3787197643374416	10.1939826395362392
33.7056717366630068	10.7154808444964047	25.0447983737516537
31.9856856345867584	10.0113092149641609	26.3427189901317327
33.6862390272237064	8.6394714409574167	28.2866490009845677
35.3489794893380278	11.5105362034289875	30.5744575980454698
6.3205071784252933	17.9252644429573635	11.0430333390171125
4.4471236207864164	16.4836178234905262	11.5784482065767378
7.0177203015594767	18.1752341310857517	9.1157686681559866
5.0878677275259090	14.5034847329326713	12.2242517526869392
4.5645307401278412	18.2339677059506222	11.1590364469617711
5.2282305507009816	19.0237555641675762	9.3105613511082961
36.5661898155318781	10.6729041427630396	29.0186005652221510
3.0861758367700651	15.5441271884596439	6.9334446955346438
1.2652373981678118	14.7838923307460828	10.1518977296416892
0.8519768207606395	16.5485624793859465	10.4790983277603580
7.1419083787008821	12.1359297450759787	9.3711258709579148
28.9475366004128567	7.1952050021485885	28.1118106260761742
25.4330573781048663	5.7667163402712136	27.3752966582866115
25.7190947021521659	9.2525312185103399	30.0167370847007398
30.6433074932738734	9.6757637084655155	30.5419471842484747
30.8973540322434417	8.1349659653026105	28.7539078427938399
23.9732307405874501	8.2852210313354107	29.9910607471014963
42.7292630629906895	11.1794099628209160	27.9190984374037434
39.5440583248747259	5.3518319590096395	6.4572295026036493
39.5231622187373688	10.1748918471851191	10.1968191858487316
42.3178892064867469	11.4368071958281430	10.0106196819195219
0.5459959328231340	7.2787427446393576	28.1361591946356739
39.7903915005515145	10.1387637474878467	29.7323152730461651
38.8811528664758441	6.7585037869665614	25.2916906198726146
38.2896451407493146	11.0032464856745502	25.6582115159907005
42.7613200406233958	8.3960546980687774	29.2966638364812013
38.9748911479601787	8.1810268667095460	29.2894346440909210
36.7380198895202454	9.8317121480757486	26.9252901534378921
2.8846264571316031	10.5702712786441992	26.1735845326379959
38.3861042406346300	7.4756590000960728	8.8407556456670218
38.6661776980763463	6.7213571886645926	10.5701406017650967
42.4929232269899799	5.2555957268578215	9.8052074603467823
37.9410998594172924	8.7234879955116025	10.5281231977491068
35.3841270161918118	9.0004160365108170	29.3058079355380947
33.8515334971673951	10.1675486131052697	29.5544314379466648
37.1132545990562974	11.6296718731332511	27.0906522519638102
35.0038464992516651	8.7562703942131233	27.0002776881356077
36.2794268248188487	8.9831076571422077	25.1366073374977113
36.0696627296532384	10.8677914263773197	25.3551200820784182
9.3127864418574120	4.0679398938206583	25.0432252207952395
34.0579817372473883	16.4029661767274284	8.3191918355633323
10.3897375344163940	0.8604743786223858	25.9938277232207184
8.1389170085563531	4.4852283154502732	23.6561497391121343
10.7885995616376942	1.7019893726555839	27.6850471390959569
8.8616848957577137	3.9217966904871941	27.0284601858495179
7.5817709626855816	4.4777566999619056	25.5600685939162737
7.8957904288255820	2.7025329874343051	25.2876737753191847
9.5090685385079521	5.6725999332246575	24.1005153927021567
12.6224425295931280	3.7046815299226594	25.6116150868641306
10.4517214947009212	5.3531212711088916	27.5203998706107313
9.6016682076337130	0.2125095133759013	28.8872287995173558
31.3822316639193097	13.4207525273475579	9.8515364469155724
9.5671622060597343	6.2909586171493519	29.1143384261306686
6.5434552336027973	3.0402158392019381	28.4240941916266969
7.9740404055206051	4.5185029105259122	29.4341746557347186
12.3426371028358108	5.2538430753024352	26.7625905853237605
10.9709440154642959	2.4537488346661980	25.3721637029828386
34.9591149853629304	16.2360130193760561	11.9585899718146589
31.5835113147260884	13.9200935133468757	6.4988585412243438
35.8020185327613945	12.8681515353289200	6.9687771722900225
33.9409787042820383	14.7955589100069975	10.8794288585960590
36.1681060984572227	13.6973534753979731	9.0551619111290531
15.9082712562280264	1.8805455697059910	25.4192894569935746
24.0120244049441709	16.2547229097873256	6.3242361014825397
15.6390979912965307	0.9289822561709270	30.2465845547438441
17.9696463235357022	3.9450945077636739	30.5132302763443839
11.3814751749322376	4.6240888740942072	24.6410404774168548
17.0585800321430661	2.9933887568529487	28.7074230332694178
16.1151185487024264	4.8149108821032245	25.9911932595567947
14.0696422420597926	0.9406112304168845	27.8832045726762452
15.5227059556678508	5.3633179272859364	27.7741070405958581
17.5255535509798364	2.2248879175303680	26.7986158769213851
12.2918778961325916	0.8150287464358897	28.9216063143006856
38.0034808679488663	16.7413880617455355	11.9243127769977217
17.4296664344617227	1.2350959750102133	30.2196662128273807
13.8882968389108594	2.0475028944571605	26.0660310367639028
16.1744055825520050	1.3181605926157756	28.3004575143590529
14.1227558577415646	4.1336267942877054	26.7827644018603159
34.8002243545093251	14.4724824572203268	8.1800428188177321
35.3479364137850354	15.6860791156537207	9.8019855076130096
34.3654941957523192	17.6192675726983694	9.7603242097722198
33.0686820314542231	15.3982305229251786	7.1042532772343163
36.5476753121141655	18.7499440207770824	9.6031421528367016
30.9357490175788215	15.6530227905317343	9.3257021278176744
39.6807871892156712	17.5881272373493722	10.6434831737952234
38.2165590068981942	38.1546909373208791	20.8790184360266586
39.5023257793312368	42.7748534285965079	19.8695745141837747
39.6497253097105968	37.3631131294207037	20.0175715022915099
41.1622885119196198	38.3433432292123300	24.9075894012650210
41.8580255636957119	39.7825450241542740	21.3602195055777493
37.7686706350679913	41.7272435038673848	20.6041822468537106
41.1629481351765634	40.9465019108323105	19.8605747432024948
39.9207672780875455	39.4222473053666960	20.4035279837635599
42.8959084882686810	42.2300236356100669	20.2904949066297817
41.7969631022064689	41.0930594470412274	24.6831245031509354
38.5617183789060434	38.7132544289047758	19.0685382868513607
42.3102106124764958	13.6554102360713898	5.7903137409274095
38.8078237684841767	19.6668444398592293	9.5794321342508191
41.7060471784721685	16.8420868833814943	9.9729746574958451
41.8622856633196108	15.4237671308006536	6.6451020815001005
36.3472292538908519	39.2271813572753203	19.1174383884407071
34.7699163676179239	41.5438237989759287	22.0432446362052659
33.9489088360527305	41.0788383041366458	18.1155093761299213
37.0358143331463623	37.7873115094903795	22.6859168274471266
32.9589953033266099	37.4570629386719034	22.3089182109543209
36.1807469613540889	0.1912916528108020	24.4990956193649154
5.9523857725012741	3.6413636127173761	25.8605619840620307
32.8000119291791705	16.1793543738271985	9.9334067998387976
0.8135326301706001	0.6550923267140532	26.3161208892638285
4.7254976072717865	2.5419245019990360	25.0957532013463442
6.1059655427427320	1.8939360377537542	26.8497790461609540
6.2658089571701447	5.8764052584721131	25.7634377474044314
0.7358904394464625	0.6624180988826103	28.1146666704720936
0.9012745607691025	3.1926300136734334	30.1134557446697642
2.7077823345488055	2.9084647034613114	28.6631892117572242
4.4137044268937995	2.6761858387331130	28.0169206037545528
3.2231682165997668	5.7632819657159606	30.6232169542487789
20.7478994247013198	4.3947190864507126	26.0171252400692659
0.9745829042138556	16.7527097475362758	8.5695088913845368
42.6489617518761293	15.4667047876079078	11.3492051852366629
40.8078897444562614	15.2023751896179480	9.0863250970815024
37.1867539613526787	11.9468157920721030	11.7219607624716584
41.0586848445016557	13.9469887492387965	7.5268851595469961
41.9678060728489726	13.6184766601662837	9.5453764571144593
37.9155292084896374	18.5479301806476471	8.4084802767764764
40.6456599361245736	15.8353735229121710	11.1279738998713871
42.7600870069408643	15.4335016594870922	9.3435766769333366
41.8340608983279125	16.7970497721916523	7.9947584704109502
34.0529501073138974	0.5740707421299890	24.6569885150497292
40.8035851395081224	4.7779599948702502	31.1225234221108913
38.4242478661110525	5.4842015974397205	27.1345284223802139
22.4496317612388587	17.4198244372643032	10.3915779416782197
21.1921137230887169	16.1755178054173179	9.4585047905155157
20.8209001981253436	16.8176403556257164	7.1292931175667507
22.9175634953681531	17.5659492835893047	6.9239953160882175
24.6653267207747042	13.6044130629056479	11.3257658617271328
20.4165996498087807	17.3456657333192901	10.8222953985693859
34.9232260729501220	2.6008842689840672	29.2765385175958706
31.8050077547319106	1.3035402595758927	30.3371050450255808
32.9088715870458017	3.2907928872548822	26.4661796965921852
39.3953239697912920	3.2199844471449381	30.4076889302983133
36.1363437468742745	5.4123944275097911	26.4041513547603905
34.4179605810226121	4.5732829424675545	25.2079892620898072
31.3831464838076712	4.3295738604332854	25.4612679290522514
35.1292099501175628	5.9431840937663800	29.6708010741439772
36.8751907683041082	2.9434950110363740	26.2075459011244085
30.7079194914737172	2.2383864247657272	29.1991826815810533
28.8845292572297403	3.9558142638558995	25.6256105929870692
36.1399733695112744	1.2902209944340164	26.5227674562289053
35.7938888910116333	0.7458829582090232	29.6943246074064966
33.0183537452255393	2.0250290417369365	28.2070963817692473
36.9228354031415691	5.7920093836213180	28.2519983653327351
4.3045631181981783	8.9442327189930513	26.5309856316956711
42.1421572182713575	11.0836708190356408	24.6448899964386428
3.2093863403143108	9.8567915319076977	29.1474862567372561
6.4521229246553968	7.4597483761853045	29.7452249485102413
1.6137435568197434	8.6126055459883109	29.2084410556607352
4.2517946819237640	9.6007176741051410	30.6081534892386991
1.4884522797564312	11.3938585997855100	24.9860621582653089
3.3903405643382132	4.7698019113522712	28.6279276207411399
12.6282273907029818	17.0664229845135900	10.3517714415591460
14.3947884962192312	13.6804834018003234	7.1372742751382594
34.5222062983352487	1.1101436537800975	27.8528009003635475
38.8178592849186330	4.7976980585368478	28.8583110151162536
40.4736449722389438	1.5693110559509804	28.4005348307208259
40.1223632407327599	4.2032258730810454	27.1896144544969225
41.1399950758782040	3.3458273434883785	22.8060171791506221
40.1769935210474287	5.6333494857921762	25.8305014387938314
36.4663372960014200	1.8026692707644942	28.2417121639389030
37.6689888061199554	1.1075859543549937	25.3881820060193206
39.9164362552459977	1.4287062053737638	30.4934061748457168
41.8419421656820631	0.2868432201630617	27.1121288716972835
37.1795912766193553	3.8607981076000470	23.3146379586466779
24.6788353669614260	13.2439489983220842	7.3112695388501381
29.0226024979287018	16.2847190708575127	7.3610200420940490
27.7716725643777167	13.1025286859558783	6.8089984337318175
25.3749912691081541	16.4597773118620267	8.4946981036234828
28.6759727948543670	17.3448832714863386	12.4985442744572293
30.4862047907900191	13.8256146015768806	8.3595450676010579
27.4483798146036833	17.1280809357975699	11.1431818851676034
31.0647136513483879	15.8396787307898901	6.5298748266578954
29.0303914569372736	16.5699143169481786	10.3899242144487740
27.0115401972585580	16.5005406894307178	6.9824993656244674
27.6272479985593300	12.9797994558577603	9.7215374094207903
27.6887805334962316	17.2981730841272174	8.7696775336741428
25.9800798011734209	15.0252844037464524	7.0072551406167314
22.4782191711669910	5.3093518933671451	25.5600280773984245
20.3729888600520397	42.4994945740786036	28.6726134345900512
19.5134275484120501	4.7045009383111625	27.6373995513783512
25.0612563174668566	3.3560197690109645	27.2008257361953589
19.4590952252875091	1.0350456848929594	27.1706377543763509
19.6501972700464087	2.7616839683893057	26.7255167034797054
24.4968029947681352	6.0452430139132112	24.7176267580594775
20.7879379202984680	2.7169889457360190	24.8970489513170037
21.9506774817056112	1.9389363028421018	29.8265167937402360
28.1712477534765142	2.6656549174986552	24.2594530840212101
34.1760114599247444	6.4378112200341402	31.7339662318495002
31.3037077730289397	3.0784408524548637	27.3327355227157405
36.0979307507833980	42.7444756842386937	27.8896672204933296
31.7191870702861927	0.7292937284028647	28.1259343447078223
22.0972327661817829	17.9790385545901756	8.4841454562866510
19.5665874535011923	15.1040805197123014	6.6519686331339356
22.5035601317299978	15.0679230279903589	6.0540243167824750
22.8071912732946558	15.9145296534613596	8.2423600743168013
22.3727640839497823	13.1306807571675996	11.2711780725837265
29.5518777802628918	3.6345846519558980	27.8727893602925363
2.6737976008351612	1.8507322325648314	35.6572250701282556
28.8500019982535214	5.2657583376494639	29.0714040742318645
29.5557003049817340	5.2790117577255327	27.0644477087083324
29.9847395699719534	5.7982711987121416	25.1459825006236848
25.6267729883797344	0.3378807109343123	28.3128395913429642
26.8255567741560412	2.7841473855917394	26.0091898011852258
27.1956460307371337	6.0731506716114021	28.3095952626236063
26.5308244922974588	4.3978157177758321	26.9383696854190795
24.1031362249514807	1.6676356493928510	28.9985234544404662
24.1117028186047229	1.7032141173673703	25.9070783131758553
29.5916595139619432	14.4664601480374735	6.6941178128789778
